 [Molden Format]
 [Cell]
  20.00 0.000 0.000
  0.000 20.000 0.000
  0.000 0.0000 20.0000
 [Nval]
 C 4 
 H 1
 [Atoms] AU
 C        1       6      23.284984      26.003797      23.548681
 C        2       6      21.442002      25.566096      25.775618
 C        3       6      25.958675      25.177654      24.393701
 C        4       6      21.446086      22.767557      26.575403
 C        5       6      24.130581      22.003197      27.400805
 C        6       6      26.026547      22.370438      25.205897
 C        7       6      20.615420      21.115151      24.326420
 C        8       6      22.465307      21.500939      22.111211
 C        9       6      25.147851      20.738727      22.944715
 C       10       6      28.695388      21.612927      26.030002
 C       11       6      22.459545      24.301830      21.319453
 C       12       6      23.281642      28.787851      22.758158
 H       13       1      19.530497      26.146814      25.222743
 H       14       1      21.992138      26.762722      27.376823
 H       15       1      26.588292      26.371453      25.969204
 H       16       1      27.302141      25.484024      22.842900
 H       17       1      20.136051      22.500246      28.156496
 H       18       1      24.724306      23.142284      29.028251
 H       19       1      24.150847      20.023784      28.015957
 H       20       1      18.691730      21.617798      23.744562
 H       21       1      20.576274      19.120175      24.883523
 H       22       1      21.882838      20.329416      20.506309
 H       23       1      26.473433      20.967887      21.367119
 H       24       1      25.187450      18.735046      23.474201
 H       25       1      29.335394      22.757910      27.630362
 H       26       1      30.052134      21.865312      24.488168
 H       27       1      28.757775      19.627062      26.608357
 H       28       1      20.567637      24.858297      20.680684
 H       29       1      23.741728      24.588746      19.715614
 H       30       1      24.581315      29.117558      21.182130
 H       31       1      23.862934      30.008818      24.324376
 H       32       1      21.394199      29.386304      22.156936
 [GTO]
        1       0
                         s       6    1.00
                                                       4563.240000000        0.001966650
                                                        682.024000000        0.015230600
                                                        154.973000000        0.076126900
                                                         44.455300000        0.260801000
                                                         13.029000000        0.616462000
                                                          1.827730000        0.221006000
                         s       3    1.00
                                                         20.964200000        0.114660000
                                                          4.803310000        0.919999000
                                                          1.459330000       -0.003030680
                         p       3    1.00
                                                         20.964200000        0.040248700
                                                          4.803310000        0.237594000
                                                          1.459330000        0.815854000
                         s       1    1.00
                                                          0.483456000        1.000000000
                         p       1    1.00
                                                          0.483456000        1.000000000
                         s       1    1.00
                                                          0.145585000        1.000000000
                         p       1    1.00
                                                          0.145585000        1.000000000
                         d       1    1.00
                                                          0.626000000        1.000000000
                         s       1    1.00
                                                          0.043800000        1.000000000
                         p       1    1.00
                                                          0.043800000        1.000000000
    
        2       0
                         s       6    1.00
                                                       4563.240000000        0.001966650
                                                        682.024000000        0.015230600
                                                        154.973000000        0.076126900
                                                         44.455300000        0.260801000
                                                         13.029000000        0.616462000
                                                          1.827730000        0.221006000
                         s       3    1.00
                                                         20.964200000        0.114660000
                                                          4.803310000        0.919999000
                                                          1.459330000       -0.003030680
                         p       3    1.00
                                                         20.964200000        0.040248700
                                                          4.803310000        0.237594000
                                                          1.459330000        0.815854000
                         s       1    1.00
                                                          0.483456000        1.000000000
                         p       1    1.00
                                                          0.483456000        1.000000000
                         s       1    1.00
                                                          0.145585000        1.000000000
                         p       1    1.00
                                                          0.145585000        1.000000000
                         d       1    1.00
                                                          0.626000000        1.000000000
                         s       1    1.00
                                                          0.043800000        1.000000000
                         p       1    1.00
                                                          0.043800000        1.000000000
    
        3       0
                         s       6    1.00
                                                       4563.240000000        0.001966650
                                                        682.024000000        0.015230600
                                                        154.973000000        0.076126900
                                                         44.455300000        0.260801000
                                                         13.029000000        0.616462000
                                                          1.827730000        0.221006000
                         s       3    1.00
                                                         20.964200000        0.114660000
                                                          4.803310000        0.919999000
                                                          1.459330000       -0.003030680
                         p       3    1.00
                                                         20.964200000        0.040248700
                                                          4.803310000        0.237594000
                                                          1.459330000        0.815854000
                         s       1    1.00
                                                          0.483456000        1.000000000
                         p       1    1.00
                                                          0.483456000        1.000000000
                         s       1    1.00
                                                          0.145585000        1.000000000
                         p       1    1.00
                                                          0.145585000        1.000000000
                         d       1    1.00
                                                          0.626000000        1.000000000
                         s       1    1.00
                                                          0.043800000        1.000000000
                         p       1    1.00
                                                          0.043800000        1.000000000
    
        4       0
                         s       6    1.00
                                                       4563.240000000        0.001966650
                                                        682.024000000        0.015230600
                                                        154.973000000        0.076126900
                                                         44.455300000        0.260801000
                                                         13.029000000        0.616462000
                                                          1.827730000        0.221006000
                         s       3    1.00
                                                         20.964200000        0.114660000
                                                          4.803310000        0.919999000
                                                          1.459330000       -0.003030680
                         p       3    1.00
                                                         20.964200000        0.040248700
                                                          4.803310000        0.237594000
                                                          1.459330000        0.815854000
                         s       1    1.00
                                                          0.483456000        1.000000000
                         p       1    1.00
                                                          0.483456000        1.000000000
                         s       1    1.00
                                                          0.145585000        1.000000000
                         p       1    1.00
                                                          0.145585000        1.000000000
                         d       1    1.00
                                                          0.626000000        1.000000000
                         s       1    1.00
                                                          0.043800000        1.000000000
                         p       1    1.00
                                                          0.043800000        1.000000000
    
        5       0
                         s       6    1.00
                                                       4563.240000000        0.001966650
                                                        682.024000000        0.015230600
                                                        154.973000000        0.076126900
                                                         44.455300000        0.260801000
                                                         13.029000000        0.616462000
                                                          1.827730000        0.221006000
                         s       3    1.00
                                                         20.964200000        0.114660000
                                                          4.803310000        0.919999000
                                                          1.459330000       -0.003030680
                         p       3    1.00
                                                         20.964200000        0.040248700
                                                          4.803310000        0.237594000
                                                          1.459330000        0.815854000
                         s       1    1.00
                                                          0.483456000        1.000000000
                         p       1    1.00
                                                          0.483456000        1.000000000
                         s       1    1.00
                                                          0.145585000        1.000000000
                         p       1    1.00
                                                          0.145585000        1.000000000
                         d       1    1.00
                                                          0.626000000        1.000000000
                         s       1    1.00
                                                          0.043800000        1.000000000
                         p       1    1.00
                                                          0.043800000        1.000000000
    
        6       0
                         s       6    1.00
                                                       4563.240000000        0.001966650
                                                        682.024000000        0.015230600
                                                        154.973000000        0.076126900
                                                         44.455300000        0.260801000
                                                         13.029000000        0.616462000
                                                          1.827730000        0.221006000
                         s       3    1.00
                                                         20.964200000        0.114660000
                                                          4.803310000        0.919999000
                                                          1.459330000       -0.003030680
                         p       3    1.00
                                                         20.964200000        0.040248700
                                                          4.803310000        0.237594000
                                                          1.459330000        0.815854000
                         s       1    1.00
                                                          0.483456000        1.000000000
                         p       1    1.00
                                                          0.483456000        1.000000000
                         s       1    1.00
                                                          0.145585000        1.000000000
                         p       1    1.00
                                                          0.145585000        1.000000000
                         d       1    1.00
                                                          0.626000000        1.000000000
                         s       1    1.00
                                                          0.043800000        1.000000000
                         p       1    1.00
                                                          0.043800000        1.000000000
    
        7       0
                         s       6    1.00
                                                       4563.240000000        0.001966650
                                                        682.024000000        0.015230600
                                                        154.973000000        0.076126900
                                                         44.455300000        0.260801000
                                                         13.029000000        0.616462000
                                                          1.827730000        0.221006000
                         s       3    1.00
                                                         20.964200000        0.114660000
                                                          4.803310000        0.919999000
                                                          1.459330000       -0.003030680
                         p       3    1.00
                                                         20.964200000        0.040248700
                                                          4.803310000        0.237594000
                                                          1.459330000        0.815854000
                         s       1    1.00
                                                          0.483456000        1.000000000
                         p       1    1.00
                                                          0.483456000        1.000000000
                         s       1    1.00
                                                          0.145585000        1.000000000
                         p       1    1.00
                                                          0.145585000        1.000000000
                         d       1    1.00
                                                          0.626000000        1.000000000
                         s       1    1.00
                                                          0.043800000        1.000000000
                         p       1    1.00
                                                          0.043800000        1.000000000
    
        8       0
                         s       6    1.00
                                                       4563.240000000        0.001966650
                                                        682.024000000        0.015230600
                                                        154.973000000        0.076126900
                                                         44.455300000        0.260801000
                                                         13.029000000        0.616462000
                                                          1.827730000        0.221006000
                         s       3    1.00
                                                         20.964200000        0.114660000
                                                          4.803310000        0.919999000
                                                          1.459330000       -0.003030680
                         p       3    1.00
                                                         20.964200000        0.040248700
                                                          4.803310000        0.237594000
                                                          1.459330000        0.815854000
                         s       1    1.00
                                                          0.483456000        1.000000000
                         p       1    1.00
                                                          0.483456000        1.000000000
                         s       1    1.00
                                                          0.145585000        1.000000000
                         p       1    1.00
                                                          0.145585000        1.000000000
                         d       1    1.00
                                                          0.626000000        1.000000000
                         s       1    1.00
                                                          0.043800000        1.000000000
                         p       1    1.00
                                                          0.043800000        1.000000000
    
        9       0
                         s       6    1.00
                                                       4563.240000000        0.001966650
                                                        682.024000000        0.015230600
                                                        154.973000000        0.076126900
                                                         44.455300000        0.260801000
                                                         13.029000000        0.616462000
                                                          1.827730000        0.221006000
                         s       3    1.00
                                                         20.964200000        0.114660000
                                                          4.803310000        0.919999000
                                                          1.459330000       -0.003030680
                         p       3    1.00
                                                         20.964200000        0.040248700
                                                          4.803310000        0.237594000
                                                          1.459330000        0.815854000
                         s       1    1.00
                                                          0.483456000        1.000000000
                         p       1    1.00
                                                          0.483456000        1.000000000
                         s       1    1.00
                                                          0.145585000        1.000000000
                         p       1    1.00
                                                          0.145585000        1.000000000
                         d       1    1.00
                                                          0.626000000        1.000000000
                         s       1    1.00
                                                          0.043800000        1.000000000
                         p       1    1.00
                                                          0.043800000        1.000000000
    
       10       0
                         s       6    1.00
                                                       4563.240000000        0.001966650
                                                        682.024000000        0.015230600
                                                        154.973000000        0.076126900
                                                         44.455300000        0.260801000
                                                         13.029000000        0.616462000
                                                          1.827730000        0.221006000
                         s       3    1.00
                                                         20.964200000        0.114660000
                                                          4.803310000        0.919999000
                                                          1.459330000       -0.003030680
                         p       3    1.00
                                                         20.964200000        0.040248700
                                                          4.803310000        0.237594000
                                                          1.459330000        0.815854000
                         s       1    1.00
                                                          0.483456000        1.000000000
                         p       1    1.00
                                                          0.483456000        1.000000000
                         s       1    1.00
                                                          0.145585000        1.000000000
                         p       1    1.00
                                                          0.145585000        1.000000000
                         d       1    1.00
                                                          0.626000000        1.000000000
                         s       1    1.00
                                                          0.043800000        1.000000000
                         p       1    1.00
                                                          0.043800000        1.000000000
    
       11       0
                         s       6    1.00
                                                       4563.240000000        0.001966650
                                                        682.024000000        0.015230600
                                                        154.973000000        0.076126900
                                                         44.455300000        0.260801000
                                                         13.029000000        0.616462000
                                                          1.827730000        0.221006000
                         s       3    1.00
                                                         20.964200000        0.114660000
                                                          4.803310000        0.919999000
                                                          1.459330000       -0.003030680
                         p       3    1.00
                                                         20.964200000        0.040248700
                                                          4.803310000        0.237594000
                                                          1.459330000        0.815854000
                         s       1    1.00
                                                          0.483456000        1.000000000
                         p       1    1.00
                                                          0.483456000        1.000000000
                         s       1    1.00
                                                          0.145585000        1.000000000
                         p       1    1.00
                                                          0.145585000        1.000000000
                         d       1    1.00
                                                          0.626000000        1.000000000
                         s       1    1.00
                                                          0.043800000        1.000000000
                         p       1    1.00
                                                          0.043800000        1.000000000
    
       12       0
                         s       6    1.00
                                                       4563.240000000        0.001966650
                                                        682.024000000        0.015230600
                                                        154.973000000        0.076126900
                                                         44.455300000        0.260801000
                                                         13.029000000        0.616462000
                                                          1.827730000        0.221006000
                         s       3    1.00
                                                         20.964200000        0.114660000
                                                          4.803310000        0.919999000
                                                          1.459330000       -0.003030680
                         p       3    1.00
                                                         20.964200000        0.040248700
                                                          4.803310000        0.237594000
                                                          1.459330000        0.815854000
                         s       1    1.00
                                                          0.483456000        1.000000000
                         p       1    1.00
                                                          0.483456000        1.000000000
                         s       1    1.00
                                                          0.145585000        1.000000000
                         p       1    1.00
                                                          0.145585000        1.000000000
                         d       1    1.00
                                                          0.626000000        1.000000000
                         s       1    1.00
                                                          0.043800000        1.000000000
                         p       1    1.00
                                                          0.043800000        1.000000000
    
       13       0
                         s       3    1.00
                                                         33.865000000        0.025493800
                                                          5.094790000        0.190373000
                                                          1.158790000        0.852161000
                         s       1    1.00
                                                          0.325840000        1.000000000
                         s       1    1.00
                                                          0.102741000        1.000000000
                         p       1    1.00
                                                          0.750000000        1.000000000
                         s       1    1.00
                                                          0.036000000        1.000000000
    
       14       0
                         s       3    1.00
                                                         33.865000000        0.025493800
                                                          5.094790000        0.190373000
                                                          1.158790000        0.852161000
                         s       1    1.00
                                                          0.325840000        1.000000000
                         s       1    1.00
                                                          0.102741000        1.000000000
                         p       1    1.00
                                                          0.750000000        1.000000000
                         s       1    1.00
                                                          0.036000000        1.000000000
    
       15       0
                         s       3    1.00
                                                         33.865000000        0.025493800
                                                          5.094790000        0.190373000
                                                          1.158790000        0.852161000
                         s       1    1.00
                                                          0.325840000        1.000000000
                         s       1    1.00
                                                          0.102741000        1.000000000
                         p       1    1.00
                                                          0.750000000        1.000000000
                         s       1    1.00
                                                          0.036000000        1.000000000
    
       16       0
                         s       3    1.00
                                                         33.865000000        0.025493800
                                                          5.094790000        0.190373000
                                                          1.158790000        0.852161000
                         s       1    1.00
                                                          0.325840000        1.000000000
                         s       1    1.00
                                                          0.102741000        1.000000000
                         p       1    1.00
                                                          0.750000000        1.000000000
                         s       1    1.00
                                                          0.036000000        1.000000000
    
       17       0
                         s       3    1.00
                                                         33.865000000        0.025493800
                                                          5.094790000        0.190373000
                                                          1.158790000        0.852161000
                         s       1    1.00
                                                          0.325840000        1.000000000
                         s       1    1.00
                                                          0.102741000        1.000000000
                         p       1    1.00
                                                          0.750000000        1.000000000
                         s       1    1.00
                                                          0.036000000        1.000000000
    
       18       0
                         s       3    1.00
                                                         33.865000000        0.025493800
                                                          5.094790000        0.190373000
                                                          1.158790000        0.852161000
                         s       1    1.00
                                                          0.325840000        1.000000000
                         s       1    1.00
                                                          0.102741000        1.000000000
                         p       1    1.00
                                                          0.750000000        1.000000000
                         s       1    1.00
                                                          0.036000000        1.000000000
    
       19       0
                         s       3    1.00
                                                         33.865000000        0.025493800
                                                          5.094790000        0.190373000
                                                          1.158790000        0.852161000
                         s       1    1.00
                                                          0.325840000        1.000000000
                         s       1    1.00
                                                          0.102741000        1.000000000
                         p       1    1.00
                                                          0.750000000        1.000000000
                         s       1    1.00
                                                          0.036000000        1.000000000
    
       20       0
                         s       3    1.00
                                                         33.865000000        0.025493800
                                                          5.094790000        0.190373000
                                                          1.158790000        0.852161000
                         s       1    1.00
                                                          0.325840000        1.000000000
                         s       1    1.00
                                                          0.102741000        1.000000000
                         p       1    1.00
                                                          0.750000000        1.000000000
                         s       1    1.00
                                                          0.036000000        1.000000000
    
       21       0
                         s       3    1.00
                                                         33.865000000        0.025493800
                                                          5.094790000        0.190373000
                                                          1.158790000        0.852161000
                         s       1    1.00
                                                          0.325840000        1.000000000
                         s       1    1.00
                                                          0.102741000        1.000000000
                         p       1    1.00
                                                          0.750000000        1.000000000
                         s       1    1.00
                                                          0.036000000        1.000000000
    
       22       0
                         s       3    1.00
                                                         33.865000000        0.025493800
                                                          5.094790000        0.190373000
                                                          1.158790000        0.852161000
                         s       1    1.00
                                                          0.325840000        1.000000000
                         s       1    1.00
                                                          0.102741000        1.000000000
                         p       1    1.00
                                                          0.750000000        1.000000000
                         s       1    1.00
                                                          0.036000000        1.000000000
    
       23       0
                         s       3    1.00
                                                         33.865000000        0.025493800
                                                          5.094790000        0.190373000
                                                          1.158790000        0.852161000
                         s       1    1.00
                                                          0.325840000        1.000000000
                         s       1    1.00
                                                          0.102741000        1.000000000
                         p       1    1.00
                                                          0.750000000        1.000000000
                         s       1    1.00
                                                          0.036000000        1.000000000
    
       24       0
                         s       3    1.00
                                                         33.865000000        0.025493800
                                                          5.094790000        0.190373000
                                                          1.158790000        0.852161000
                         s       1    1.00
                                                          0.325840000        1.000000000
                         s       1    1.00
                                                          0.102741000        1.000000000
                         p       1    1.00
                                                          0.750000000        1.000000000
                         s       1    1.00
                                                          0.036000000        1.000000000
    
       25       0
                         s       3    1.00
                                                         33.865000000        0.025493800
                                                          5.094790000        0.190373000
                                                          1.158790000        0.852161000
                         s       1    1.00
                                                          0.325840000        1.000000000
                         s       1    1.00
                                                          0.102741000        1.000000000
                         p       1    1.00
                                                          0.750000000        1.000000000
                         s       1    1.00
                                                          0.036000000        1.000000000
    
       26       0
                         s       3    1.00
                                                         33.865000000        0.025493800
                                                          5.094790000        0.190373000
                                                          1.158790000        0.852161000
                         s       1    1.00
                                                          0.325840000        1.000000000
                         s       1    1.00
                                                          0.102741000        1.000000000
                         p       1    1.00
                                                          0.750000000        1.000000000
                         s       1    1.00
                                                          0.036000000        1.000000000
    
       27       0
                         s       3    1.00
                                                         33.865000000        0.025493800
                                                          5.094790000        0.190373000
                                                          1.158790000        0.852161000
                         s       1    1.00
                                                          0.325840000        1.000000000
                         s       1    1.00
                                                          0.102741000        1.000000000
                         p       1    1.00
                                                          0.750000000        1.000000000
                         s       1    1.00
                                                          0.036000000        1.000000000
    
       28       0
                         s       3    1.00
                                                         33.865000000        0.025493800
                                                          5.094790000        0.190373000
                                                          1.158790000        0.852161000
                         s       1    1.00
                                                          0.325840000        1.000000000
                         s       1    1.00
                                                          0.102741000        1.000000000
                         p       1    1.00
                                                          0.750000000        1.000000000
                         s       1    1.00
                                                          0.036000000        1.000000000
    
       29       0
                         s       3    1.00
                                                         33.865000000        0.025493800
                                                          5.094790000        0.190373000
                                                          1.158790000        0.852161000
                         s       1    1.00
                                                          0.325840000        1.000000000
                         s       1    1.00
                                                          0.102741000        1.000000000
                         p       1    1.00
                                                          0.750000000        1.000000000
                         s       1    1.00
                                                          0.036000000        1.000000000
    
       30       0
                         s       3    1.00
                                                         33.865000000        0.025493800
                                                          5.094790000        0.190373000
                                                          1.158790000        0.852161000
                         s       1    1.00
                                                          0.325840000        1.000000000
                         s       1    1.00
                                                          0.102741000        1.000000000
                         p       1    1.00
                                                          0.750000000        1.000000000
                         s       1    1.00
                                                          0.036000000        1.000000000
    
       31       0
                         s       3    1.00
                                                         33.865000000        0.025493800
                                                          5.094790000        0.190373000
                                                          1.158790000        0.852161000
                         s       1    1.00
                                                          0.325840000        1.000000000
                         s       1    1.00
                                                          0.102741000        1.000000000
                         p       1    1.00
                                                          0.750000000        1.000000000
                         s       1    1.00
                                                          0.036000000        1.000000000
    
       32       0
                         s       3    1.00
                                                         33.865000000        0.025493800
                                                          5.094790000        0.190373000
                                                          1.158790000        0.852161000
                         s       1    1.00
                                                          0.325840000        1.000000000
                         s       1    1.00
                                                          0.102741000        1.000000000
                         p       1    1.00
                                                          0.750000000        1.000000000
                         s       1    1.00
                                                          0.036000000        1.000000000
    
 [5D7F]
 [9G]
 [MO]
Ene=   -1.0175470817E+01
Spin= Alpha
Occup=   2.0000000
     1 -4.633209228E-01
     2 -3.810893713E-01
     3  5.283815460E-05
     4 -9.425431099E-05
     5  3.883127833E-05
     6 -1.856520664E-02
     7 -3.707405108E-04
     8  8.833617199E-04
     9 -3.354054247E-04
    10  3.833276370E-02
    11  2.114823617E-04
    12 -1.261421346E-02
    13  3.629372560E-03
    14  1.679650227E-04
    15 -4.766203803E-05
    16  1.377285406E-04
    17  1.401365367E-04
    18  6.165093321E-06
    19  4.511727173E-02
    20  2.625615930E-03
    21  3.245933023E-02
    22 -8.645868250E-03
    23 -2.630357603E-03
    24 -2.188228185E-03
    25 -1.547741379E-04
    26 -5.134689377E-05
    27  1.642503234E-04
    28  8.077921845E-04
    29  2.480076340E-04
    30 -2.455286902E-04
    31 -1.159553644E-04
    32 -1.409587230E-02
    33 -5.929266484E-03
    34  9.956296577E-04
    35  3.833183947E-03
    36  1.482666531E-04
    37 -4.833536001E-04
    38 -4.197290372E-04
    39  5.752946518E-05
    40  2.232983905E-04
    41  4.126613549E-03
    42 -3.655024284E-03
    43 -5.785813930E-03
    44  8.155708785E-04
    45 -8.107437998E-04
    46 -6.691043132E-04
    47  2.410353265E-04
    48 -2.276674353E-04
    49  1.196306599E-04
    50  9.263564150E-05
    51 -1.643433763E-04
    52 -5.098969798E-05
    53 -2.286565760E-05
    54 -2.940520702E-03
    55  4.838084850E-03
    56 -4.737194703E-03
    57  2.449370255E-03
    58 -9.135248252E-05
    59  2.064550091E-04
    60  2.079559947E-05
    61  4.423700567E-04
    62 -2.108654064E-04
    63  8.355783152E-03
    64  4.751604997E-03
    65 -9.038291160E-03
    66  3.670421713E-03
    67  1.054159380E-04
    68  6.766220077E-05
    69  5.827587515E-05
    70 -9.857491846E-05
    71  3.894023241E-05
    72  2.604906705E-04
    73 -3.594908645E-04
    74  6.730749623E-04
    75 -3.053756947E-04
    76 -1.456812926E-03
    77 -4.143882044E-04
    78 -2.297767605E-04
    79  8.244225923E-04
    80 -8.938489552E-05
    81 -8.345978683E-05
    82  2.665973470E-05
    83 -1.891231532E-04
    84 -1.212363639E-05
    85 -3.873225896E-03
    86  3.492704250E-03
    87 -6.176102460E-03
    88  3.624832040E-03
    89  1.779346105E-03
    90  1.498653546E-03
    91  1.240342258E-04
    92  2.605494612E-05
    93 -7.435038948E-05
    94 -9.844913609E-04
    95  1.721567690E-05
    96 -1.336508976E-04
    97  1.296186979E-04
    98  1.369228746E-02
    99  1.779235845E-03
   100  3.898049072E-03
   101 -5.498293802E-03
   102  1.352429486E-04
   103  4.166954443E-04
   104  5.771457883E-05
   105 -3.083685627E-04
   106  8.149949576E-06
   107 -5.532823903E-03
   108  5.999514295E-03
   109  3.105455818E-03
   110  1.538624591E-03
   111  3.199199868E-01
   112  2.631041763E-01
   113  5.910004312E-05
   114 -9.747222187E-05
   115  4.119140573E-05
   116  1.327031884E-02
   117 -6.177279834E-04
   118  7.217635322E-04
   119 -3.460164269E-04
   120 -2.874984973E-02
   121  1.062297775E-02
   122 -2.955751667E-03
   123  3.265558501E-03
   124 -1.726889249E-04
   125  9.727949426E-05
   126 -1.007918151E-04
   127  2.726289738E-05
   128 -3.998184362E-05
   129 -4.471571575E-02
   130 -2.928724333E-02
   131  1.343710088E-03
   132 -7.151996558E-03
   133 -2.410729760E-05
   134 -8.417649976E-06
   135 -3.527852006E-05
   136  1.738364627E-05
   137 -1.298796438E-05
   138 -2.476680775E-04
   139  1.059318622E-04
   140 -7.432472368E-05
   141  4.512989356E-05
   142  2.330357400E-03
   143 -1.286399260E-03
   144  3.710752991E-03
   145 -1.349166398E-03
   146 -2.668351244E-05
   147  4.845554179E-05
   148  2.906911270E-05
   149  1.565352383E-04
   150 -5.748836570E-06
   151  4.167751747E-03
   152 -2.167354622E-03
   153  5.330401103E-03
   154 -2.035923282E-03
   155  1.075630548E-04
   156  6.933618733E-05
   157  5.737704360E-05
   158 -9.732580508E-05
   159  4.315418351E-05
   160  2.623793701E-04
   161 -3.727243248E-04
   162  6.890239798E-04
   163 -2.484628814E-04
   164 -1.469165481E-03
   165 -7.125349392E-05
   166 -6.629266301E-04
   167 -6.901136892E-04
   168  4.733326753E-05
   169  9.370309530E-06
   170 -1.394951479E-04
   171 -1.607692087E-04
   172  6.244350665E-05
   173 -4.103701288E-03
   174  3.930955729E-03
   175 -6.708647716E-03
   176  1.689264109E-03
   177  1.778373695E-03
   178  1.497851525E-03
   179  8.560480917E-05
   180  7.369112849E-05
   181  9.384394055E-05
   182 -9.850596481E-04
   183  5.266749616E-05
   184 -1.771653433E-04
   185 -2.519340506E-05
   186  1.370136775E-02
   187 -1.596101774E-04
   188  6.303011982E-03
   189  2.976033505E-03
   190 -1.123984130E-04
   191 -4.449565879E-04
   192 -1.985874480E-04
   193 -4.277775291E-05
   194 -1.964549498E-04
   195 -5.687885423E-03
   196  6.368211625E-03
   197  2.531084863E-03
   198 -3.500300754E-04
   199  1.719501926E-03
   200  1.378790871E-03
   201 -2.058126181E-04
   202  5.075800829E-05
   203 -6.143239434E-05
   204  6.013227637E-04
   205  3.409263871E-04
   206 -6.920219140E-05
   207  9.778714922E-05
   208 -2.128534353E-03
   209  4.131725460E-04
   210 -2.991568396E-04
   211  1.780747480E-04
   212  1.337820456E-04
   213 -1.865916267E-04
   214  3.600720401E-05
   215 -3.054480498E-04
   216  1.835726504E-04
   217  3.396991551E-02
   218 -6.629109878E-03
   219  2.206118467E-03
   220 -2.141168643E-03
   221 -2.633158730E-03
   222 -2.190470606E-03
   223 -8.016514538E-05
   224 -1.440208352E-04
   225 -1.625552074E-04
   226  8.067897658E-04
   227  1.502584707E-04
   228 -1.242422275E-04
   229  3.122074552E-04
   230 -1.408463596E-02
   231 -3.724150184E-03
   232 -1.748279711E-03
   233 -5.820492883E-03
   234 -4.677088792E-05
   235  2.328626417E-04
   236  5.004111957E-04
   237 -3.705807673E-04
   238  2.017871888E-04
   239  4.115939210E-03
   240 -3.648678405E-03
   241 -5.817408697E-03
   242  8.003768181E-04
   243 -2.465958914E-03
   244 -1.986328501E-03
   245  4.323958578E-06
   246  3.302619581E-04
   247 -9.271768843E-05
   248 -7.029790065E-04
   249 -1.617089131E-05
   250 -6.453447988E-04
   251  1.794722213E-04
   252  1.051522861E-03
   253  1.061698091E-05
   254  1.109757307E-04
   255 -2.984753632E-05
   256 -2.402128491E-04
   257 -1.073728266E-05
   258 -2.922046556E-04
   259 -5.375737707E-04
   260  4.779862156E-06
   261 -3.731501862E-02
   262  5.629024199E-05
   263  7.484343166E-03
   264 -2.106158182E-03
   265  1.049206865E-05
   266  1.222731323E-03
   267 -1.973970974E-03
   268  3.109619941E-04
   269 -1.518157847E-04
   270  1.467765607E-05
   271 -1.016564028E-03
   272 -6.053830630E-05
   273  2.235167092E-03
   274 -5.732109836E-04
   275  1.712783007E-05
   276 -3.239090225E-04
   277 -3.429243709E-04
   278  2.851027879E-03
   279  7.137984290E-06
   280  3.872152521E-04
   281 -3.276404803E-04
   282 -6.137645749E-05
   283 -4.100755246E-05
   284 -7.414370775E-05
   285 -2.127163240E-05
   286  7.042371014E-06
   287  3.877883876E-04
   288 -3.281461969E-04
   289 -9.045203622E-05
   290 -5.172565191E-06
   291  5.270665444E-05
   292 -1.779238167E-05
   293  1.317281198E-05
   294  5.610122047E-06
   295 -2.159738030E-04
   296  1.719834248E-05
   297 -3.265626913E-06
   298 -2.071871452E-05
   299 -3.463406851E-04
   300  9.693324832E-05
   301 -2.214958728E-03
   302  8.524438539E-04
   303  1.116532705E-04
   304  7.152810708E-05
   305  4.029578461E-04
   306 -3.348721110E-03
   307 -7.185702780E-06
   308 -8.132326457E-04
   309  2.807341333E-03
   310  1.325503836E-05
   311 -1.901648221E-04
   312  1.465098253E-04
   313  1.312550338E-03
   314  9.978833247E-05
   315 -1.368309226E-03
   316 -9.864414233E-04
   317 -1.722791531E-04
   318 -5.140271960E-05
   319 -2.473867245E-05
   320 -2.567573451E-03
   321 -8.025906254E-05
   322  1.079859357E-03
   323  1.966843088E-03
   324  4.977941426E-05
   325  1.216821292E-04
   326 -2.315786669E-05
   327  3.008014616E-03
   328  1.348414631E-05
   329  3.417052761E-06
   330 -2.084511828E-04
   331  6.768306746E-06
   332  9.426985670E-06
   333  2.438306722E-05
   334 -3.566560249E-04
   335  9.695472484E-05
   336 -2.215139568E-03
   337  8.606880720E-04
   338  2.719302126E-04
   339 -1.278819036E-04
   340 -2.994275990E-04
   341 -3.339054545E-03
   342 -7.102226759E-06
   343 -8.142923793E-04
   344  2.810373239E-03
   345  4.946731358E-05
   346 -2.349386637E-04
   347 -1.148341670E-05
   348  1.300143490E-03
   349 -9.128991746E-05
   350  1.775347918E-04
   351  1.231767135E-03
   352 -2.902290958E-06
   353  6.464134663E-05
   354  3.042123446E-05
   355  6.757608003E-04
   356 -9.145605128E-05
   357  1.788269835E-04
   358  1.222790516E-03
   359  1.696300989E-05
   360  3.994469872E-05
   361 -5.667203216E-05
   362  6.694970011E-04
   363 -1.021613337E-04
   364  7.172654092E-05
   365  1.349325186E-03
   366 -6.521652663E-05
   367 -5.831214541E-05
   368  1.700920952E-06
   369  4.285642291E-04
   370  1.054927772E-05
   371  1.221658187E-03
   372 -1.971218033E-03
   373  2.709479900E-04
   374 -1.018375541E-04
   375  1.902673787E-04
   376 -1.007389250E-03
   377 -6.071388218E-05
   378  2.236089324E-03
   379 -5.734728301E-04
   380 -1.598683267E-04
   381 -1.040256385E-04
   382  4.319732565E-04
   383  2.844061420E-03
   384  1.102759280E-04
   385  7.059190209E-05
   386 -1.587269583E-03
   387 -1.070335208E-04
   388  2.518013715E-05
   389  9.516478030E-05
   390 -6.437281726E-04
   391  1.103219296E-04
   392  7.045380625E-05
   393 -1.583941611E-03
   394 -5.600806424E-05
   395 -3.828007863E-05
   396 -1.285773585E-04
   397 -6.503750649E-04
   398  1.182010502E-04
   399  1.159024596E-04
   400 -1.758282297E-03
   401  1.433214043E-04
   402  2.750745982E-05
   403  2.498911008E-05
   404 -4.092035564E-04
Ene=   -1.0175456784E+01
Spin= Alpha
Occup=   2.0000000
     1 -3.198901819E-01
     2 -2.632152345E-01
     3 -7.928359320E-05
     4 -1.301839355E-05
     5 -1.441160669E-05
     6 -1.154553895E-02
     7  5.031149974E-04
     8  9.471459477E-05
     9  8.804145456E-05
    10  2.003293557E-02
    11  6.763519946E-04
    12 -2.057550546E-03
    13  7.399711075E-04
    14 -4.542367380E-05
    15  8.529600737E-05
    16  3.380888360E-05
    17  2.384067646E-04
    18 -3.773777922E-05
    19 -6.855085693E-03
    20 -1.168253010E-02
    21  4.972563496E-03
    22 -4.062979309E-03
    23 -1.927006375E-03
    24 -1.551158004E-03
    25 -1.391830099E-04
    26  4.497767429E-05
    27  1.749677947E-04
    28 -6.472171821E-04
    29  2.109679828E-04
    30 -3.725915646E-04
    31 -2.382162206E-04
    32  1.457688926E-03
    33  1.508115277E-03
    34 -2.462400857E-03
    35  1.929521730E-03
    36  1.206466385E-04
    37 -4.013683844E-04
    38 -4.811282088E-05
    39 -3.152533810E-05
    40  2.441406959E-05
    41 -5.124054497E-03
    42  2.113076553E-03
    43  1.996658838E-04
    44  3.450733637E-03
    45 -4.433246782E-03
    46 -3.658861366E-03
    47  2.043743871E-04
    48  2.307462583E-04
    49 -1.876165361E-05
    50  5.068417118E-04
    51 -6.982954184E-04
    52 -5.449665523E-04
    53 -5.082062702E-06
    54 -1.606505487E-02
    55  3.649085040E-03
    56  4.317312646E-03
    57 -3.910542029E-04
    58 -5.168329373E-04
    59  3.199174653E-04
    60 -4.669057072E-04
    61 -2.122079466E-04
    62 -4.124103865E-04
    63  4.513238186E-02
    64 -8.185880277E-03
    65 -3.938078314E-03
    66 -7.375087342E-04
    67  5.798065631E-04
    68  3.726455772E-04
    69 -6.580913227E-05
    70 -2.923671696E-05
    71 -1.972025856E-05
    72  1.427769867E-03
    73  6.336423722E-04
    74  2.345441301E-04
    75 -9.831958411E-05
    76 -7.988355318E-03
    77 -2.984937745E-03
    78 -3.299829544E-04
    79  4.094251168E-03
    80 -9.489594222E-05
    81  1.554267861E-04
    82 -7.001784267E-05
    83 -2.713546774E-05
    84 -1.175018830E-04
    85 -2.073255645E-02
    86 -5.951996643E-03
    87 -4.818005422E-04
    88  4.601493873E-03
    89 -2.736920524E-03
    90 -2.228305302E-03
    91 -1.320944882E-04
    92 -4.629766471E-05
    93  2.538316185E-04
    94 -3.189879900E-04
    95 -1.650884878E-04
    96  1.616106921E-04
    97 -5.360781740E-04
    98 -3.635794585E-03
    99 -3.128445798E-03
   100  1.280199330E-03
   101  1.689975338E-03
   102  1.775866696E-04
   103 -4.142885302E-04
   104 -1.148016163E-04
   105  3.972455226E-04
   106 -6.547461873E-06
   107 -3.282059734E-03
   108 -2.674613166E-03
   109  2.603581635E-03
   110  1.442590285E-03
   111 -4.633002690E-01
   112 -3.811659595E-01
   113 -5.873509401E-05
   114 -4.118503376E-05
   115 -1.752469100E-06
   116 -1.737519282E-02
   117  4.771967240E-04
   118  2.186621299E-04
   119  4.701010200E-05
   120  3.231927031E-02
   121 -5.945158577E-03
   122  2.414783789E-03
   123 -2.046701441E-03
   124  1.371022844E-05
   125 -9.734043566E-05
   126 -3.436549501E-05
   127 -2.495385213E-04
   128  1.139973227E-04
   129  9.796191924E-03
   130  1.259548994E-02
   131 -1.399849756E-02
   132  6.807768389E-03
   133 -1.316077675E-04
   134 -4.609143295E-05
   135 -7.279513378E-05
   136 -6.344526936E-05
   137  1.251566045E-06
   138 -1.351524187E-03
   139  1.579736622E-04
   140  1.484576510E-04
   141 -5.515037958E-06
   142  1.271576991E-02
   143  5.666986486E-03
   144  3.449077316E-03
   145  3.096854523E-04
   146 -1.517616480E-04
   147  1.087762610E-05
   148 -2.377733459E-05
   149  2.673948658E-05
   150  2.014656122E-04
   151  2.181778670E-02
   152  6.895083206E-03
   153  3.965832492E-03
   154  4.119787924E-04
   155  5.797932777E-04
   156  3.726249266E-04
   157 -7.101561671E-05
   158 -2.273969431E-05
   159  3.211814205E-06
   160  1.428365635E-03
   161  5.623622098E-04
   162  3.229943373E-04
   163  2.131843995E-04
   164 -7.996889582E-03
   165 -1.097313207E-03
   166 -2.679631139E-03
   167 -4.176813963E-03
   168 -1.221698504E-04
   169  2.504898556E-05
   170 -1.262742130E-04
   171  1.837256486E-05
   172 -1.436447695E-04
   173 -2.138294048E-02
   174 -3.582643422E-03
   175 -3.527041660E-03
   176 -5.762668392E-03
   177 -2.735287206E-03
   178 -2.226917824E-03
   179 -2.303787579E-05
   180 -1.819898922E-04
   181 -2.244411940E-04
   182 -3.192307437E-04
   183 -3.469157457E-04
   184  3.881482093E-04
   185  2.629947344E-04
   186 -3.629854367E-03
   187 -2.019488447E-03
   188 -1.060636116E-04
   189 -3.201880605E-03
   190  1.842399468E-04
   191  3.297577175E-04
   192  4.714360459E-04
   193  6.098345211E-05
   194  7.084154159E-05
   195 -3.372485453E-03
   196 -1.554488080E-03
   197  1.175717754E-03
   198 -3.503391813E-03
   199 -2.422379987E-03
   200 -1.967890269E-03
   201  3.540151243E-04
   202 -1.066957541E-04
   203  1.110719186E-04
   204 -3.961339956E-04
   205 -8.591673560E-04
   206  2.661443936E-04
   207 -2.716626743E-04
   208 -2.657534383E-03
   209  1.401814613E-03
   210 -8.437935801E-04
   211  5.586287218E-04
   212 -3.065332884E-04
   213  3.398098456E-04
   214 -1.107078696E-04
   215  4.853790383E-04
   216 -2.927526622E-04
   217 -1.595107956E-02
   218  2.881161243E-03
   219  2.289236527E-04
   220  5.952905542E-04
   221 -1.928535209E-03
   222 -1.552311063E-03
   223 -5.076609804E-05
   224 -6.498372588E-05
   225 -2.126889915E-04
   226 -6.488252466E-04
   227  5.323932632E-05
   228 -1.761980962E-04
   229  4.542338724E-04
   230  1.469496003E-03
   231  1.864293883E-03
   232 -2.910104827E-03
   233  3.689149899E-04
   234  2.223765119E-04
   235  1.399059657E-04
   236  2.078070186E-04
   237 -2.262994868E-04
   238  1.271335229E-04
   239 -4.582697547E-03
   240  3.327099229E-03
   241 -1.413492615E-03
   242 -1.775212768E-03
   243 -1.655416855E-03
   244 -1.351186779E-03
   245 -8.497098362E-06
   246  2.715607150E-04
   247 -7.895990029E-05
   248 -1.573731143E-04
   249  3.024900345E-05
   250 -7.204451534E-04
   251  2.113363424E-04
   252 -3.241908760E-03
   253 -4.630006412E-04
   254  1.652142139E-03
   255 -5.733897147E-04
   256 -2.441449219E-04
   257  2.043249045E-05
   258 -2.566019147E-04
   259 -4.074659066E-04
   260  3.327112363E-06
   261 -2.982289263E-03
   262  1.047309373E-03
   263  7.106355027E-05
   264  2.102501899E-04
   265  7.491625576E-06
   266  9.313058638E-04
   267  2.719552934E-03
   268  2.188765286E-04
   269 -8.927775814E-05
   270  6.549731065E-05
   271  1.024308776E-03
   272  1.135804550E-04
   273 -3.513523126E-04
   274  9.021165268E-04
   275 -1.107912928E-04
   276 -2.915000428E-05
   277 -5.264472473E-05
   278 -1.899284093E-03
   279  3.857565435E-05
   280  2.118505286E-03
   281 -1.794729147E-03
   282 -2.420486883E-04
   283 -3.490493360E-04
   284 -3.489196978E-04
   285 -1.183345060E-04
   286  3.869327413E-05
   287  2.117926049E-03
   288 -1.790939350E-03
   289 -4.003312584E-04
   290 -1.520848001E-04
   291  3.443740621E-04
   292 -1.148159286E-04
   293  7.230240622E-05
   294  2.850723013E-05
   295 -1.192515206E-03
   296  7.735828701E-05
   297  3.572033685E-06
   298 -1.230712099E-04
   299 -1.935013543E-03
   300  8.476878284E-05
   301  4.632734461E-04
   302  6.342810258E-04
   303 -8.959043764E-05
   304 -1.527590337E-04
   305 -1.658012668E-04
   306 -7.494339752E-04
   307  1.049349203E-05
   308  1.305742298E-03
   309  1.827858467E-03
   310 -2.902116729E-05
   311  3.187939027E-04
   312 -1.415884290E-04
   313  6.002905146E-04
   314  3.767459386E-05
   315 -5.688961025E-04
   316  2.984761121E-03
   317 -8.756716746E-05
   318 -9.290762770E-05
   319  6.424924537E-06
   320  1.709884523E-03
   321  7.063693284E-05
   322 -1.017087559E-03
   323  2.445648360E-03
   324 -1.395613706E-04
   325 -1.096740735E-04
   326 -7.470191463E-07
   327  7.018570378E-04
   328  7.256723682E-05
   329  2.672222165E-05
   330 -1.177184908E-03
   331  2.102059872E-05
   332  7.339928546E-05
   333  1.235211125E-04
   334 -1.967555127E-03
   335  8.492435968E-05
   336  4.620363477E-04
   337  6.461127126E-04
   338 -1.654674082E-04
   339 -5.800640236E-05
   340  1.674359073E-04
   341 -7.553195676E-04
   342  1.061849165E-05
   343  1.304941569E-03
   344  1.838909734E-03
   345 -4.694475870E-05
   346  3.408063164E-04
   347 -6.313669482E-05
   348  5.849010924E-04
   349  7.037624210E-05
   350  6.682138128E-04
   351 -1.228605543E-03
   352 -1.580749676E-05
   353 -1.364703549E-04
   354 -1.923668617E-04
   355 -6.261669686E-05
   356  7.049874648E-05
   357  6.673566793E-04
   358 -1.230111434E-03
   359 -1.071504357E-04
   360 -2.238323754E-05
   361  2.092965671E-04
   362 -5.849801601E-05
   363  6.431770779E-05
   364  5.143129467E-04
   365 -1.391215612E-03
   366  1.223373626E-05
   367  2.157146150E-04
   368 -5.839076394E-05
   369 -3.406189508E-05
   370  7.208859348E-06
   371  9.325462022E-04
   372  2.704745350E-03
   373  2.148971710E-04
   374 -8.431381622E-05
   375  8.286276588E-05
   376  1.028325450E-03
   377  1.134851813E-04
   378 -3.509247900E-04
   379  8.975845044E-04
   380 -1.251519772E-04
   381 -1.133583334E-05
   382  1.018990045E-05
   383 -1.871774400E-03
   384  3.322759589E-05
   385  6.894897120E-04
   386 -7.231833930E-04
   387 -1.078619512E-04
   388  1.076375686E-05
   389  1.676265063E-04
   390  1.801834610E-04
   391  3.342190427E-05
   392  6.878698784E-04
   393 -7.195800449E-04
   394 -2.893984515E-05
   395 -8.690773107E-05
   396 -1.771297291E-04
   397  1.852339364E-04
   398  2.371562193E-05
   399  5.083027680E-04
   400 -8.307138667E-04
   401  1.706335392E-04
   402 -6.045389961E-05
   403  5.611504324E-05
   404  1.191113309E-04
Ene=   -1.0167153042E+01
Spin= Alpha
Occup=   2.0000000
     1  7.876490271E-05
     2  8.166774059E-05
     3 -3.073496045E-05
     4  1.192806909E-05
     5  9.292701964E-05
     6 -2.187995712E-04
     7  2.119170823E-04
     8 -5.011173248E-05
     9 -6.526854159E-04
    10  8.824700381E-04
    11  5.956491505E-04
    12 -1.993764486E-03
    13 -1.560606331E-03
    14  3.570520004E-05
    15  1.922328093E-04
    16  5.227891100E-05
    17 -5.346780016E-05
    18  4.339033618E-05
    19  6.957918835E-03
    20 -2.767873258E-03
    21  1.188136257E-03
    22  8.489803789E-03
    23  5.204208068E-03
    24  4.299376755E-03
    25 -3.339387972E-05
    26 -1.977375119E-04
    27  7.379027243E-05
    28 -7.078360683E-04
    29 -1.191837740E-04
    30  1.448861998E-04
    31  1.739961018E-04
    32  1.587281542E-02
    33  1.973426579E-03
    34 -6.529366720E-03
    35 -1.890172072E-03
    36  2.628654728E-05
    37  2.081239959E-04
    38  4.852670822E-04
    39  3.868852735E-04
    40 -2.540444404E-04
    41 -2.611284852E-03
    42 -2.104488229E-03
    43 -2.390135649E-03
    44  4.447852479E-04
    45  3.428796101E-05
    46  1.958560731E-05
    47 -1.287054513E-05
    48 -2.384880447E-05
    49 -3.088917817E-05
    50  2.261648546E-04
    51  3.084173612E-05
    52  7.601517119E-05
    53  1.149240568E-04
    54 -2.450171913E-03
    55  1.301184624E-03
    56  1.573115521E-04
    57 -1.810505372E-03
    58  1.224556520E-05
    59 -7.696001051E-05
    60 -7.650270564E-05
    61  2.234844404E-05
    62 -6.486274954E-05
    63 -1.013323279E-03
    64  1.536522244E-03
    65 -1.740760488E-03
    66 -6.400401275E-03
    67  4.555794585E-01
    68  3.746572132E-01
    69  6.519144127E-05
    70  4.421340542E-05
    71 -1.074873666E-05
    72  1.878354446E-02
    73 -2.834041300E-04
    74 -2.577740464E-04
    75 -9.709038146E-05
    76 -3.414885938E-02
    77 -1.010260864E-02
    78 -2.485454260E-03
    79  1.125937710E-02
    80  3.627814225E-04
    81 -7.882486998E-04
    82 -1.095360685E-04
    83  3.241394062E-04
    84  2.136935939E-04
    85 -3.994210073E-02
    86 -3.190429973E-03
    87  1.325336881E-03
    88  8.117951637E-03
    89  5.206720716E-03
    90  4.301449681E-03
    91 -2.083755878E-04
    92  3.420632297E-05
    93 -3.214202246E-05
    94 -7.078229469E-04
    95  1.243768916E-05
    96 -2.968223757E-05
    97  2.543774215E-04
    98  1.586946435E-02
    99 -4.105885830E-03
   100  1.519038176E-03
   101 -5.561771261E-03
   102  2.827615121E-04
   103  1.086128845E-04
   104 -3.216090790E-05
   105 -6.057110518E-04
   106  1.832540962E-04
   107 -2.654958397E-03
   108 -2.999980369E-03
   109 -1.288164117E-03
   110 -6.811607409E-05
   111  8.065985669E-05
   112  8.333511525E-05
   113 -3.690784953E-05
   114  2.018263954E-05
   115  8.916269555E-05
   116 -2.204658655E-04
   117  2.868423129E-04
   118 -1.492634918E-04
   119 -6.074359203E-04
   120  8.899346730E-04
   121 -8.852719388E-04
   122 -4.132490102E-05
   123 -2.450805961E-03
   124 -5.935211334E-05
   125  1.113965718E-04
   126  1.551122581E-04
   127 -7.517456442E-05
   128 -7.259040956E-06
   129  7.064383735E-03
   130 -3.252409212E-03
   131  1.853242091E-03
   132  8.230650399E-03
   133  1.522995588E-03
   134  1.250026001E-03
   135 -3.531109293E-05
   136  1.047003678E-04
   137  2.881569269E-04
   138 -2.635111562E-05
   139 -1.253506221E-04
   140 -2.235678281E-06
   141  2.017660223E-04
   142  2.662287851E-03
   143 -8.477022758E-05
   144  1.685915026E-03
   145  3.852084776E-03
   146 -1.337214326E-04
   147 -2.366849549E-04
   148 -3.103236062E-04
   149  1.264220364E-04
   150 -5.563974161E-05
   151 -2.148279324E-04
   152 -1.162415548E-03
   153  1.253754528E-03
   154  4.722192944E-03
   155 -3.307212803E-01
   156 -2.719484944E-01
   157 -6.761494932E-05
   158 -4.435594069E-05
   159  1.468506111E-05
   160 -1.401720706E-02
   161  3.818493571E-04
   162  1.533098313E-04
   163 -2.959762025E-04
   164  2.652627006E-02
   165  4.376663832E-03
   166  7.594117840E-03
   167  9.409236372E-03
   168 -2.628547194E-04
   169 -1.791590178E-04
   170 -5.038438613E-04
   171  8.894019353E-05
   172 -2.808754331E-04
   173  4.137386397E-02
   174 -4.860071178E-04
   175  3.988021190E-03
   176  9.571415599E-03
   177 -3.715080911E-03
   178 -3.084541004E-03
   179  1.265933459E-04
   180  1.736008564E-05
   181  6.599866929E-05
   182  8.834011872E-04
   183 -3.149974572E-05
   184  9.837953921E-06
   185  1.032870297E-04
   186 -1.550053700E-02
   187  5.385097137E-03
   188 -3.575648802E-03
   189 -2.630589503E-03
   190  2.867369178E-05
   191  4.247156557E-04
   192  1.995316632E-05
   193  3.857611723E-04
   194  6.284033758E-05
   195 -3.453058577E-03
   196  3.395092044E-03
   197  8.144838924E-04
   198 -9.798674167E-04
   199 -7.734441200E-06
   200 -4.120297027E-06
   201 -4.632507112E-06
   202  5.685337068E-07
   203 -1.959062919E-06
   204 -4.938296482E-05
   205  3.015802114E-05
   206 -6.120814389E-06
   207  9.230239791E-06
   208  8.891176020E-04
   209 -4.051387831E-04
   210  1.472060961E-04
   211  2.029496843E-04
   212 -2.656380649E-05
   213 -8.761913236E-06
   214  4.723738135E-05
   215 -2.365466080E-05
   216 -5.021442814E-06
   217 -3.700969973E-04
   218  5.567385966E-04
   219 -2.781546076E-04
   220 -8.128763689E-04
   221 -3.717454415E-03
   222 -3.086510643E-03
   223  3.453446642E-05
   224  1.392112203E-04
   225  1.033179162E-05
   226  8.834106053E-04
   227 -4.226822571E-05
   228  2.488881926E-05
   229  9.695055929E-05
   230 -1.549777684E-02
   231 -8.344963389E-05
   232  3.671210241E-03
   233 -5.933633650E-03
   234 -2.531451394E-04
   235 -5.597706035E-05
   236  1.431930699E-04
   237 -4.764384136E-04
   238  1.397003712E-04
   239 -3.427717499E-03
   240  2.257962512E-03
   241  2.272311000E-03
   242 -1.633640758E-03
   243 -8.166248431E-06
   244 -4.510496550E-06
   245 -4.308598020E-07
   246 -5.034280811E-06
   247  5.708469095E-07
   248 -4.889807468E-05
   249  2.081285343E-06
   250  3.121491795E-05
   251 -7.681506278E-06
   252  8.818086394E-04
   253 -9.858328695E-05
   254 -2.561390925E-04
   255  3.878426429E-04
   256  3.060689623E-05
   257  4.564810072E-05
   258 -1.035317114E-05
   259  8.411360289E-06
   260  2.007955974E-05
   261 -3.507021674E-04
   262  2.761906632E-04
   263  8.706798236E-05
   264 -9.854578100E-04
   265  4.344655387E-05
   266 -1.959119286E-03
   267  1.436776294E-03
   268 -4.098121657E-04
   269  2.185926309E-04
   270  1.924717520E-05
   271 -4.537031738E-04
   272 -1.088372989E-05
   273 -1.242474146E-03
   274  2.550365250E-03
   275 -1.673303021E-05
   276  2.398404848E-04
   277  2.719980914E-04
   278  2.952111875E-04
   279 -6.581819947E-05
   280  8.812452785E-04
   281  9.786477032E-04
   282 -8.835657822E-05
   283 -9.055990299E-05
   284 -5.242544460E-05
   285  3.352727189E-03
   286  3.246126395E-05
   287 -5.020445447E-04
   288 -2.015652288E-03
   289  5.935760634E-05
   290  2.742000646E-05
   291 -3.802453060E-05
   292 -2.741835621E-03
   293  1.927999755E-04
   294 -3.520265229E-03
   295  8.226967991E-04
   296 -1.079119747E-03
   297 -2.001050643E-04
   298  1.346789424E-03
   299 -4.318259744E-04
   300 -1.080313492E-05
   301 -1.242596708E-03
   302  2.557841008E-03
   303  9.245376124E-05
   304  9.542312151E-05
   305  3.378091618E-04
   306  3.189400353E-04
   307  4.349538815E-05
   308 -1.959076615E-03
   309  1.432798828E-03
   310  3.102526023E-05
   311 -3.654324319E-04
   312  2.857245036E-04
   313 -4.689637837E-04
   314 -1.197360117E-06
   315 -3.454949454E-04
   316  9.056829656E-05
   317 -1.113359483E-04
   318  1.676061171E-05
   319  3.056423497E-05
   320 -1.042928688E-04
   321 -1.078610043E-06
   322 -3.471596854E-04
   323  8.326227902E-05
   324 -3.773409506E-05
   325 -8.113227600E-05
   326  7.506306245E-05
   327 -1.229291383E-04
   328 -1.763956280E-04
   329  2.732652572E-03
   330 -2.942126801E-04
   331  3.128024682E-04
   332  6.862344491E-04
   333  9.871116262E-04
   334  1.198672854E-03
   335  2.762646242E-06
   336  9.394082196E-04
   337 -3.043367628E-03
   338 -1.695713844E-04
   339  7.749897767E-05
   340  2.014731572E-04
   341 -6.376888894E-04
   342 -6.641605490E-05
   343  1.907791570E-03
   344 -1.507289292E-03
   345 -9.886620607E-05
   346  3.955513802E-04
   347  4.403206709E-05
   348  9.457191680E-04
   349 -1.673663793E-05
   350 -8.420220062E-05
   351 -7.892355908E-05
   352 -2.782509896E-05
   353  3.109227710E-05
   354 -8.785910773E-06
   355  4.387949139E-05
   356  3.568179262E-05
   357 -1.206787378E-04
   358  2.371086813E-05
   359  5.516418611E-05
   360 -2.255216403E-05
   361  7.836409030E-07
   362 -3.133807023E-04
   363  5.732552610E-06
   364 -1.017525681E-04
   365 -4.292040986E-05
   366  4.952138800E-06
   367 -2.294818875E-05
   368 -2.461777665E-05
   369 -1.151792786E-04
   370 -6.662437127E-05
   371  1.908186144E-03
   372 -1.515096859E-03
   373  2.832944979E-04
   374 -1.110642213E-04
   375  2.752146487E-04
   376  9.257238947E-04
   377  2.786246872E-06
   378  9.394391127E-04
   379 -3.040203791E-03
   380 -7.323247362E-05
   381 -5.031567987E-05
   382  2.597528297E-04
   383 -6.178097841E-04
   384  3.569829533E-05
   385 -1.202412816E-04
   386  2.581956121E-05
   387  2.493948651E-07
   388  5.008803334E-05
   389 -3.229773857E-05
   390 -3.181295372E-04
   391 -1.663509365E-05
   392 -8.452895774E-05
   393 -7.382521884E-05
   394  1.974348396E-05
   395 -3.206942683E-05
   396  1.996531292E-05
   397  5.186369130E-05
   398  5.686503836E-06
   399 -1.012840140E-04
   400 -3.893545171E-05
   401 -8.089139356E-06
   402 -5.612964939E-06
   403 -3.255674239E-05
   404 -1.168687218E-04
Ene=   -1.0167142025E+01
Spin= Alpha
Occup=   2.0000000
     1 -5.034933340E-04
     2 -5.207587231E-04
     3  5.852086317E-05
     4  9.213395342E-05
     5  3.698729356E-06
     6  1.382238653E-03
     7 -4.008724783E-04
     8 -8.433392072E-04
     9  3.386538272E-05
    10 -5.570928414E-03
    11 -8.283220267E-04
    12  8.932371715E-03
    13 -3.080828682E-03
    14  1.022785535E-04
    15 -1.852802849E-05
    16  5.273172799E-05
    17 -3.864348352E-05
    18  1.599664941E-06
    19 -4.306840799E-02
    20  5.874074064E-03
    21  7.573208751E-03
    22  6.803767944E-04
    23 -3.978802717E-03
    24 -3.237478513E-03
    25 -6.388635348E-05
    26  2.253419803E-04
    27 -2.040192264E-05
    28 -6.777713153E-04
    29  3.559210697E-04
    30 -3.412605612E-04
    31 -2.005326877E-04
    32  1.306877290E-03
    33  5.674562692E-04
    34  3.062345481E-04
    35 -2.805935822E-03
    36 -1.342733150E-04
    37 -2.026882761E-04
    38 -2.086260226E-04
    39 -2.160512716E-04
    40 -6.157439625E-05
    41  1.942485321E-02
    42  1.183425879E-03
    43 -2.295084994E-03
    44 -4.930570377E-03
    45 -2.217699778E-04
    46 -1.283395878E-04
    47  1.263095659E-04
    48  9.379241857E-05
    49 -3.290914372E-06
    50 -1.423409737E-03
    51 -3.633233428E-04
    52 -2.679403406E-04
    53  1.364979269E-05
    54  1.545466002E-02
    55 -5.521256781E-03
    56 -4.330284071E-03
    57 -3.593847494E-04
    58 -8.882380651E-05
    59 -6.258634618E-05
    60  6.277074071E-05
    61  1.037416242E-04
    62  3.479842361E-04
    63  2.996687338E-03
    64  8.804223319E-05
    65 -3.149848375E-04
    66 -1.013714428E-03
    67 -3.306344695E-01
    68 -2.719975083E-01
    69 -4.537773989E-06
    70  3.564790102E-05
    71  8.554351635E-05
    72 -1.239949120E-02
    73  7.922831213E-05
    74 -2.518679108E-04
    75 -6.826417205E-04
    76  1.915814817E-02
    77  3.114670159E-03
    78  2.059293787E-04
    79 -4.720812311E-03
    80 -3.152570023E-04
    81  6.940869169E-04
    82  1.975580733E-04
    83 -2.560098587E-04
    84 -3.975487857E-06
    85 -1.138967959E-02
    86 -2.716728549E-03
    87  7.802756334E-04
    88  6.063990370E-03
    89 -3.984269823E-03
    90 -3.241817696E-03
    91  1.762959712E-04
    92 -9.296300704E-05
    93  1.248250551E-04
    94 -6.802516772E-04
    95 -8.425643218E-05
    96  2.420195757E-04
    97 -4.667029503E-04
    98  1.332562300E-03
    99  1.546950233E-03
   100 -9.975349521E-04
   101 -2.220134471E-03
   102 -4.629436996E-05
   103  2.154195702E-05
   104 -1.908257309E-04
   105  2.995614249E-04
   106 -1.559713254E-04
   107  2.010670356E-02
   108  3.374636148E-04
   109 -1.179915543E-03
   110 -5.557324978E-03
   111 -5.025291449E-04
   112 -5.199737203E-04
   113  9.795219088E-05
   114  3.995487671E-05
   115  2.751617679E-05
   116  1.382676771E-03
   117 -8.741431724E-04
   118 -2.168862878E-04
   119 -2.520538328E-04
   120 -5.568421909E-03
   121  8.494865666E-03
   122 -3.405538648E-03
   123  2.545385172E-03
   124  8.742647113E-05
   125 -1.431011428E-05
   126  8.114765911E-05
   127  1.249939887E-05
   128 -2.194858701E-05
   129 -4.318081419E-02
   130  8.742358865E-03
   131  4.290939694E-03
   132  2.140592974E-03
   133 -9.609600667E-03
   134 -7.887259052E-03
   135 -2.020089742E-04
   136 -1.326497868E-04
   137  4.347910334E-05
   138  1.643169197E-04
   139  4.913950664E-04
   140  3.880896859E-04
   141  3.779111770E-05
   142 -1.677434436E-02
   143 -5.118598810E-03
   144 -3.614858727E-03
   145  5.555470056E-04
   146  8.004854256E-04
   147 -4.477689580E-04
   148  4.694879215E-04
   149  6.700588630E-05
   150  1.364660479E-04
   151  2.359676104E-03
   152  5.025857912E-04
   153  7.361790242E-04
   154  7.809331108E-04
   155 -4.555162885E-01
   156 -3.746926081E-01
   157  1.428924951E-05
   158 -2.806624237E-05
   159 -8.476356852E-05
   160 -1.761043565E-02
   161 -1.200894066E-04
   162  1.928442073E-04
   163  6.193633020E-04
   164  2.880748572E-02
   165  2.428777128E-03
   166  5.521964326E-03
   167  8.090977292E-03
   168 -4.419344028E-04
   169 -4.424279250E-04
   170 -8.101071792E-04
   171  2.560231623E-04
   172 -2.189938011E-04
   173  2.450251289E-03
   174  9.410417155E-06
   175 -1.456131889E-03
   176 -3.158432754E-03
   177 -5.396909866E-03
   178 -4.411455608E-03
   179  2.512902487E-04
   180 -1.226524331E-04
   181  4.472991675E-05
   182 -4.252816004E-04
   183 -2.592848919E-04
   184  4.569767880E-04
   185  2.464546758E-04
   186 -3.668944668E-03
   187  2.178015315E-03
   188 -7.105111985E-04
   189  2.110956146E-03
   190 -1.212513097E-04
   191  4.109644673E-04
   192  1.515392790E-04
   193  2.841208040E-04
   194 -1.575573699E-04
   195  1.893861827E-02
   196 -9.543112413E-04
   197  2.017542861E-03
   198  4.809538867E-03
   199  5.277017348E-05
   200  2.930787566E-05
   201  3.024937189E-05
   202 -4.299543141E-06
   203  7.941679710E-06
   204  3.107079771E-04
   205 -1.912200982E-04
   206  3.715278468E-05
   207 -5.377713517E-05
   208 -5.595206179E-03
   209  2.116946870E-03
   210 -3.711606536E-04
   211  6.406985016E-04
   212 -1.370294497E-05
   213  3.562618360E-05
   214  6.678324419E-06
   215  6.355483140E-05
   216 -5.689776998E-05
   217  1.628730467E-03
   218 -2.021881321E-03
   219  6.859092630E-05
   220 -6.343268299E-04
   221 -5.405152420E-03
   222 -4.418337212E-03
   223 -3.106872202E-05
   224  2.517388177E-04
   225 -1.259796130E-04
   226 -4.241990872E-04
   227  1.990475664E-04
   228 -1.513132035E-04
   229  5.235704685E-04
   230 -3.684829243E-03
   231 -6.363302556E-04
   232  3.024350580E-03
   233  4.031544032E-04
   234 -1.277672776E-04
   235  1.646384918E-04
   236 -2.294313913E-05
   237 -5.135430895E-04
   238  6.634762707E-05
   239  1.912090207E-02
   240 -4.483285554E-04
   241  1.418403289E-03
   242  5.124568668E-03
   243  5.169754673E-05
   244  2.840520928E-05
   245  4.025983317E-06
   246  3.033005710E-05
   247 -7.789033930E-06
   248  3.104738885E-04
   249 -1.579582701E-05
   250 -1.947804746E-04
   251  5.167179617E-05
   252 -5.585644848E-03
   253  1.973388297E-04
   254  2.168808429E-03
   255 -5.157912917E-04
   256 -5.584361407E-06
   257 -3.167908426E-06
   258 -3.649233501E-05
   259 -8.562121120E-05
   260 -9.524005196E-06
   261  2.040999134E-03
   262 -4.362373174E-04
   263 -2.124752702E-03
   264  3.458978281E-04
   265  8.127734050E-05
   266 -1.431882381E-04
   267  4.735189400E-04
   268  1.108374619E-04
   269 -2.335067687E-05
   270  7.280975855E-05
   271 -1.604306621E-03
   272  2.448551272E-05
   273  7.786376061E-04
   274  1.970834053E-03
   275 -5.375573690E-05
   276 -1.494205223E-04
   277 -1.785415542E-04
   278  1.096324426E-03
   279  9.817524800E-05
   280 -1.090799077E-03
   281  3.571022098E-03
   282  1.364673370E-04
   283  1.184387391E-04
   284  3.395345761E-05
   285 -1.419847742E-03
   286  1.136919077E-04
   287 -1.310077022E-03
   288  3.094127897E-03
   289  1.783049573E-04
   290  1.142888547E-04
   291 -4.431249928E-05
   292 -2.361862278E-03
   293 -2.247665270E-05
   294  1.985692620E-03
   295 -1.581453740E-03
   296  8.575408562E-04
   297  1.950077494E-04
   298 -9.904520809E-04
   299 -2.538783573E-03
   300  2.413114678E-05
   301  7.806347598E-04
   302  1.956903726E-03
   303 -7.704733829E-05
   304 -1.185145780E-04
   305 -1.925506466E-04
   306  1.114690544E-03
   307  8.116501512E-05
   308 -1.437416290E-04
   309  4.621635697E-04
   310 -8.135682363E-06
   311  1.340302210E-04
   312  1.071656408E-06
   313 -1.586422128E-03
   314  6.072524764E-06
   315  2.188564267E-03
   316 -6.014729873E-04
   317  6.227183643E-04
   318 -7.402488905E-06
   319  1.539074987E-04
   320  6.765924178E-04
   321  6.300199135E-06
   322  2.185930944E-03
   323 -5.985057274E-04
   324  1.579720070E-04
   325  6.084897469E-04
   326 -1.269955637E-04
   327  6.752467677E-04
   328 -8.154596562E-05
   329  2.982242460E-03
   330 -1.777440776E-03
   331  5.242940062E-04
   332  1.025090489E-03
   333  1.380439970E-03
   334 -2.251987897E-03
   335  2.658020599E-05
   336  1.125516567E-03
   337  1.082642714E-03
   338 -2.248170841E-04
   339  1.060747760E-05
   340  2.506021093E-04
   341  9.439952054E-04
   342  6.408169756E-05
   343  4.687883110E-04
   344  2.258620992E-05
   345 -2.347783115E-05
   346  2.486564017E-04
   347 -6.035842426E-05
   348 -1.363690247E-03
   349 -6.423973774E-05
   350  6.495484813E-04
   351  1.383957026E-04
   352 -6.887944979E-05
   353 -5.201281284E-05
   354 -7.928310084E-05
   355  8.353815296E-04
   356 -5.601138853E-05
   357  6.442939398E-04
   358  1.489993879E-04
   359 -8.761016271E-05
   360 -2.076684209E-05
   361  6.242917872E-05
   362  7.686445876E-04
   363 -3.526345003E-05
   364  6.355896666E-04
   365  3.002641977E-04
   366  1.070444524E-05
   367  9.179785698E-05
   368 -2.883313404E-05
   369  7.607120775E-04
   370  6.391634100E-05
   371  4.704023466E-04
   372  5.169172616E-06
   373  2.262085040E-04
   374 -8.222096294E-05
   375  9.024278820E-05
   376 -1.332794921E-03
   377  2.648878661E-05
   378  1.126206622E-03
   379  1.065372429E-03
   380 -1.689933933E-04
   381 -6.361479060E-05
   382  2.843845302E-04
   383  9.335476814E-04
   384 -5.581935973E-05
   385  6.427521024E-04
   386  1.585818682E-04
   387 -7.327788509E-05
   388 -3.973940993E-05
   389  7.091305945E-05
   390  7.787148823E-04
   391 -6.416359362E-05
   392  6.484900387E-04
   393  1.420025081E-04
   394 -3.816681893E-05
   395 -9.248554274E-05
   396 -6.069188789E-05
   397  8.383482826E-04
   398 -3.526034085E-05
   399  6.355342862E-04
   400  3.019634450E-04
   401  9.297819869E-05
   402 -1.716945457E-05
   403  2.097536119E-05
   404  7.447397031E-04
Ene=   -1.0158546248E+01
Spin= Alpha
Occup=   2.0000000
     1 -2.790766048E-05
     2 -7.152594490E-05
     3 -2.860274246E-05
     4 -2.164583342E-05
     5 -3.149597724E-07
     6  7.923639097E-04
     7  5.785245362E-05
     8  1.676474242E-05
     9  8.426475785E-06
    10 -6.114929365E-03
    11  3.245849808E-03
    12  2.560787868E-03
    13  1.509702819E-05
    14  6.577768468E-05
    15  1.125746910E-05
    16  3.077389285E-06
    17  1.579335849E-06
    18 -1.280602108E-04
    19 -2.279933368E-02
    20  2.669397208E-04
    21  1.515258455E-02
    22 -4.342641385E-03
    23 -6.482471787E-03
    24 -5.304414370E-03
    25  6.936667355E-06
    26 -5.844648396E-05
    27  3.341267544E-05
    28 -6.489566380E-04
    29 -6.897528970E-05
    30  4.847902120E-04
    31 -1.017084355E-04
    32  1.309014466E-03
    33 -3.590853987E-04
    34  3.501804611E-04
    35 -2.671330869E-03
    36  7.317716954E-05
    37  3.756589286E-05
    38  1.028984905E-04
    39  1.096015451E-04
    40  2.591997193E-05
    41 -2.864359767E-02
    42 -7.818349821E-04
    43  1.050370030E-02
    44 -6.178581990E-03
    45  2.142292065E-03
    46  1.729842275E-03
    47  3.809764945E-05
    48  2.906542525E-05
    49  5.090071203E-07
    50  4.366128232E-04
    51 -2.466883191E-04
    52 -1.879431110E-04
    53 -3.247877060E-06
    54 -1.816194559E-03
    55  3.378066087E-04
    56  2.602101140E-04
    57  5.212299157E-06
    58  1.734581581E-05
    59 -1.629079760E-05
    60  2.156920602E-05
    61  9.540129783E-06
    62  3.308436566E-05
    63  2.516969085E-02
    64 -4.683843742E-03
    65 -3.492346308E-03
    66 -6.438309529E-05
    67 -6.741434846E-03
    68 -5.558247127E-03
    69 -7.549733216E-05
    70 -1.927262878E-04
    71 -2.978618629E-04
    72 -2.929542186E-04
    73 -1.860813266E-04
    74  9.879056231E-05
    75  5.242116998E-04
    76  6.570977214E-03
    77  1.344800073E-04
    78 -1.487675888E-03
    79 -3.474054081E-03
    80 -1.024436007E-04
    81 -3.191482408E-04
    82 -3.867479372E-04
    83  1.433619218E-04
    84 -1.455689020E-04
    85  1.360994433E-01
    86  1.741250776E-02
    87  4.820108129E-03
    88 -1.814874709E-02
    89 -6.636961328E-03
    90 -5.431602399E-03
    91 -6.024809104E-05
    92  3.031574683E-05
    93 -7.178322270E-06
    94 -6.534299816E-04
    95  4.270530305E-04
    96 -1.712036503E-04
    97  1.979154382E-04
    98  1.304296983E-03
    99  1.203466452E-03
   100 -1.715769174E-03
   101 -1.723763618E-03
   102  5.896978365E-05
   103 -4.188124126E-05
   104  6.781821596E-05
   105 -1.162990315E-04
   106  8.177076059E-05
   107 -2.926247403E-02
   108  1.104080116E-02
   109 -5.278691813E-03
   110  1.088197465E-03
   111 -2.825079702E-05
   112 -7.184150797E-05
   113 -2.856573309E-05
   114 -2.177071614E-05
   115 -4.885807936E-07
   116  7.926476112E-04
   117  3.210661718E-05
   118  5.128638987E-05
   119 -6.748572697E-06
   120 -6.118742484E-03
   121  3.329615635E-03
   122  2.444166016E-03
   123  6.411716863E-05
   124  6.535051115E-05
   125 -1.027358953E-05
   126 -1.232405168E-05
   127 -6.734717658E-05
   128 -1.086395389E-04
   129 -2.262299062E-02
   130  1.437293101E-02
   131 -3.677898940E-03
   132  4.419133232E-03
   133  5.627431308E-01
   134  4.629295977E-01
   135  8.644589468E-05
   136  6.573857366E-05
   137  1.039373709E-06
   138  2.122226981E-02
   139 -8.721468012E-04
   140 -6.631592416E-04
   141 -1.082037241E-05
   142 -2.776450649E-02
   143 -7.466155159E-03
   144 -5.675257759E-03
   145 -1.003049982E-04
   146 -7.228248176E-04
   147  4.245541341E-04
   148 -5.446842047E-04
   149 -1.117440272E-04
   150 -3.777449004E-04
   151 -1.011784972E-01
   152 -1.328961844E-02
   153 -1.009631361E-02
   154 -2.043795151E-04
   155 -6.745866052E-03
   156 -5.561953684E-03
   157 -2.106869765E-04
   158 -2.478341135E-05
   159  2.943257759E-04
   160 -2.917003435E-04
   161  5.410159361E-05
   162 -1.996155463E-04
   163 -5.260393094E-04
   164  6.557756095E-03
   165 -1.453025161E-03
   166  4.805200723E-04
   167  3.451881592E-03
   168 -8.530346669E-05
   169  4.569727921E-04
   170  2.079473669E-04
   171 -2.028868867E-04
   172 -5.963563524E-05
   173  1.354084229E-01
   174  8.980873750E-03
   175  1.519898710E-02
   176  1.837987530E-02
   177 -6.449913340E-03
   178 -5.277613785E-03
   179 -5.399988383E-05
   180  2.259951428E-05
   181 -3.397952994E-05
   182 -6.481355828E-04
   183  4.473601540E-04
   184 -1.968860681E-04
   185  1.061623177E-04
   186  1.308012676E-03
   187  1.933891935E-04
   188 -4.735537159E-04
   189  2.668193067E-03
   190  6.982959964E-05
   191 -1.116081793E-04
   192 -8.101887023E-06
   193 -7.865476258E-05
   194  8.005304870E-05
   195 -2.839859676E-02
   196  9.747750681E-03
   197 -3.653976105E-03
   198  6.335328587E-03
   199  1.018099904E-04
   200  7.651295639E-05
   201  2.387376581E-05
   202  1.821977442E-05
   203  3.301867043E-07
   204  6.728236213E-05
   205 -1.217340533E-04
   206 -6.016663040E-05
   207 -1.090238178E-05
   208 -4.016094852E-04
   209 -1.176319608E-04
   210 -3.751981026E-04
   211  8.201606926E-05
   212 -3.135188838E-05
   213  1.556408208E-05
   214  9.278839406E-06
   215  5.829108468E-05
   216  3.651268890E-05
   217 -2.036570540E-02
   218  6.062410609E-03
   219  1.914560891E-05
   220  1.370578269E-03
   221 -6.673291368E-03
   222 -5.461333774E-03
   223  1.287604913E-05
   224 -6.626308801E-05
   225  6.567715564E-06
   226 -6.568836035E-04
   227 -4.718103969E-05
   228  4.597160077E-04
   229 -1.931089771E-04
   230  1.325747518E-03
   231 -1.360320063E-03
   232  1.591319694E-03
   233  1.728374206E-03
   234  5.876922138E-05
   235 -5.327399416E-05
   236  5.553068483E-05
   237  1.431775944E-04
   238  9.788099946E-06
   239 -2.892307472E-02
   240 -2.102228078E-03
   241  1.198120058E-02
   242 -9.112591972E-04
   243  1.016172770E-04
   244  7.638017782E-05
   245  2.385744068E-05
   246  1.811277640E-05
   247  2.847638423E-07
   248  6.709448462E-05
   249 -9.026756254E-05
   250 -1.012150838E-04
   251  8.280934248E-06
   252 -4.036764572E-04
   253 -3.932000636E-04
   254 -1.044805283E-05
   255 -8.809287433E-05
   256 -3.186330896E-05
   257 -1.193684060E-05
   258 -1.035091180E-05
   259 -3.117175905E-05
   260  6.177719661E-05
   261 -2.067673563E-02
   262  1.652242037E-03
   263  5.915100859E-03
   264 -1.299536725E-03
   265  1.276125622E-04
   266 -1.210180517E-03
   267 -1.552303549E-03
   268 -1.471333545E-04
   269  2.332543767E-04
   270  8.648294510E-05
   271 -4.018955401E-04
   272 -5.083226500E-05
   273  1.745094416E-04
   274  2.949483361E-04
   275 -1.132556336E-05
   276 -3.826352080E-05
   277  6.402627993E-05
   278  1.406403966E-03
   279 -1.270071726E-05
   280  1.418419418E-04
   281  1.278600570E-04
   282 -3.486605950E-06
   283 -1.554161114E-05
   284 -2.815675220E-05
   285  1.331432449E-03
   286 -1.262805121E-05
   287  1.417215843E-04
   288  1.330683303E-04
   289 -1.643487158E-05
   290  4.373253005E-07
   291  2.791066808E-05
   292  1.335776502E-03
   293 -7.570142933E-05
   294 -6.095520509E-04
   295 -2.614196596E-03
   296 -2.056175204E-04
   297 -3.266279711E-05
   298  2.683099683E-04
   299  4.449225287E-03
   300 -5.020187188E-05
   301  1.699746394E-04
   302  3.164665506E-04
   303 -6.134822226E-05
   304  2.772037471E-05
   305  3.369852899E-05
   306  1.421163609E-03
   307  1.276499941E-04
   308 -1.208376520E-03
   309 -1.546995651E-03
   310  1.117054428E-04
   311 -1.090925942E-04
   312  2.428688096E-04
   313 -4.679338208E-04
   314  7.208879823E-05
   315 -2.176308538E-03
   316  2.703170318E-03
   317 -1.689802139E-03
   318  8.254634541E-04
   319 -6.200236630E-04
   320  2.657414199E-03
   321  7.206804401E-05
   322 -2.175299189E-03
   323  2.706947520E-03
   324  3.337087350E-04
   325 -1.856181008E-03
   326  6.029625235E-04
   327  2.685168185E-03
   328 -7.540448007E-05
   329 -6.118155195E-04
   330 -2.598968605E-03
   331 -8.238479839E-05
   332 -1.861732575E-04
   333 -2.720871715E-04
   334  4.425718046E-03
   335 -5.079191347E-05
   336  1.740354276E-04
   337  2.971743988E-04
   338 -3.885408766E-05
   339  4.839987032E-08
   340 -6.487560934E-05
   341  1.429286431E-03
   342  1.273831184E-04
   343 -1.208970007E-03
   344 -1.568414915E-03
   345  1.869243284E-04
   346 -2.032614666E-04
   347 -8.616244606E-05
   348 -4.348347143E-04
   349  3.247440198E-06
   350  7.074322682E-05
   351  5.267075076E-04
   352  1.871306693E-05
   353 -6.841193814E-06
   354 -2.312496416E-05
   355 -1.568192396E-03
   356  3.245324229E-06
   357  7.116344675E-05
   358  5.286064345E-04
   359  6.943115108E-06
   360  7.835649236E-06
   361  2.877300498E-05
   362 -1.563968092E-03
   363 -6.189371207E-06
   364 -2.972735590E-06
   365  6.179777045E-04
   366 -2.451582992E-05
   367  2.240120814E-05
   368 -1.196512884E-05
   369 -8.548156295E-05
   370  1.275118341E-04
   371 -1.208077050E-03
   372 -1.547250194E-03
   373 -7.135004427E-05
   374  1.397481987E-04
   375 -2.423189390E-04
   376 -4.675097293E-04
   377 -5.032726274E-05
   378  1.705252473E-04
   379  3.192284157E-04
   380  1.085426896E-05
   381 -6.602988184E-05
   382 -3.434538824E-05
   383  1.428050187E-03
   384  3.225795005E-06
   385  7.105911953E-05
   386  5.292696923E-04
   387 -1.948502194E-06
   388  1.951189078E-05
   389  2.339293439E-05
   390 -1.564955813E-03
   391  3.376746304E-06
   392  7.011910310E-05
   393  5.357178248E-04
   394  9.901259296E-06
   395  4.823895390E-06
   396 -2.844683642E-05
   397 -1.561477152E-03
   398 -6.364326427E-06
   399 -1.706667127E-06
   400  6.111805285E-04
   401  1.490333570E-05
   402 -2.978904104E-05
   403  1.186421484E-05
   404 -1.006862586E-04
Ene=   -1.0158141883E+01
Spin= Alpha
Occup=   2.0000000
     1 -1.216375056E-03
     2 -1.009002774E-03
     3 -1.441856674E-06
     4 -1.263499006E-04
     5 -2.525559057E-04
     6  4.606390653E-05
     7  5.319054474E-06
     8  1.451806965E-04
     9  1.733385110E-04
    10  1.119963043E-03
    11  1.923962987E-04
    12 -2.008176438E-03
    13 -5.303191627E-03
    14 -1.701280318E-04
    15 -2.701528141E-04
    16 -1.325304433E-04
    17  5.866239167E-05
    18 -8.595969756E-05
    19  3.304236609E-02
    20  1.684857866E-03
    21 -2.032144275E-02
    22 -4.356862357E-03
    23 -1.877764099E-01
    24 -1.544286825E-01
    25  2.764124779E-05
    26 -5.911998249E-06
    27 -1.243732538E-05
    28 -7.703181903E-03
    29 -1.584158417E-04
    30  9.376711599E-05
    31  7.870562134E-05
    32  1.063740020E-02
    33  2.188481312E-03
    34 -2.585060758E-03
    35 -1.542700838E-03
    36  2.211162676E-05
    37 -1.196509838E-04
    38 -1.117896161E-04
    39 -8.683512504E-05
    40  4.526538416E-05
    41  1.857612044E-02
    42  3.893209576E-03
    43  6.941889225E-04
    44 -2.473461261E-03
    45 -3.420069424E-03
    46 -2.799800603E-03
    47 -1.849407325E-05
    48  4.547256425E-07
    49 -5.721303560E-07
    50 -3.415394564E-04
    51  1.892146768E-04
    52  5.914015416E-05
    53  1.503364304E-05
    54  5.430762164E-04
    55  5.193213994E-05
    56 -4.609364059E-04
    57 -2.423817408E-04
    58  6.961598106E-05
    59 -3.162813706E-05
    60  3.390192258E-05
    61 -1.217997020E-05
    62  3.943373254E-05
    63 -1.025401211E-02
    64  1.869677303E-03
    65  6.719025989E-04
    66  3.068992201E-04
    67 -1.383009580E-03
    68 -1.154424059E-03
    69  1.473339151E-04
    70 -1.309186253E-04
    71  4.695503849E-05
    72  2.017385867E-04
    73 -8.858955784E-05
    74  3.014598104E-05
    75  6.645001019E-05
    76 -9.115167623E-04
    77  2.663720662E-03
    78 -2.741103672E-03
    79  1.932498281E-03
    80 -5.879085137E-05
    81 -1.885624122E-04
    82  4.733020019E-05
    83 -2.955130960E-04
    84  8.619986750E-05
    85  1.153523369E-02
    86  2.368160747E-03
    87 -7.189133142E-04
    88  1.488829220E-03
    89  2.971415055E-01
    90  2.443989283E-01
    91 -1.022926251E-05
    92 -1.000951376E-05
    93  2.136305041E-06
    94  1.177401721E-02
    95  4.227060222E-05
    96 -3.182425945E-06
    97  1.336654465E-04
    98 -1.664249201E-02
    99  6.873256341E-04
   100 -2.404200936E-03
   101  5.076107939E-03
   102  1.227435299E-06
   103  1.932584505E-04
   104  1.009381817E-04
   105 -4.493735114E-04
   106  1.117061108E-04
   107 -4.530339064E-02
   108 -3.502042247E-04
   109 -4.645247318E-03
   110  6.547596212E-03
   111 -6.352503818E-04
   112 -5.400562860E-04
   113 -8.310120821E-05
   114  3.985394232E-05
   115  2.000059419E-04
   116  2.431386970E-04
   117  6.819576274E-05
   118 -3.349856456E-05
   119 -1.365579546E-04
   120 -9.927715651E-04
   121 -9.062394103E-04
   122  4.730861902E-04
   123  5.567219619E-03
   124 -1.369360145E-04
   125  1.279922539E-04
   126  2.293483706E-04
   127 -8.574372701E-05
   128 -3.055275527E-05
   129  8.146497731E-03
   130 -9.459552008E-04
   131  1.822560662E-03
   132  7.779291631E-03
   133  3.818177147E-03
   134  3.156462369E-03
   135  2.397400330E-05
   136  8.489273849E-06
   137 -7.551101061E-06
   138 -6.553768430E-05
   139 -2.052228724E-04
   140 -1.158043087E-04
   141  5.258690477E-05
   142 -1.384141625E-05
   143 -1.256231061E-04
   144  2.957874027E-04
   145  1.780597346E-04
   146 -3.767969960E-05
   147  5.746115087E-05
   148 -5.365655520E-05
   149 -2.868867857E-05
   150 -3.453710081E-05
   151 -5.650139195E-03
   152 -8.469802500E-04
   153  1.541407836E-04
   154  5.105107343E-04
   155 -2.480543199E-03
   156 -2.051255191E-03
   157 -8.606119513E-05
   158  2.457272475E-04
   159 -6.492231942E-05
   160  1.091695144E-05
   161 -1.943563368E-05
   162 -2.055735354E-04
   163 -1.035007581E-04
   164  1.341783797E-03
   165 -1.709539218E-03
   166  3.922613942E-03
   167 -1.292396487E-03
   168 -1.902725820E-07
   169  3.043696278E-05
   170  2.535809249E-04
   171  3.552223053E-04
   172 -7.331675121E-05
   173  3.308206475E-02
   174  1.833414606E-03
   175  5.341839135E-03
   176  2.701862479E-03
   177 -1.907711023E-01
   178 -1.568900918E-01
   179 -1.810977171E-05
   180  1.712856418E-05
   181  2.750659412E-06
   182 -7.844161362E-03
   183  1.560820413E-04
   184 -1.247839577E-04
   185  2.294016041E-06
   186  1.122135700E-02
   187 -1.406953137E-03
   188  3.364306502E-03
   189  1.615013039E-03
   190  3.771232972E-05
   191  1.560258469E-04
   192  1.090245007E-04
   193  6.832992548E-05
   194  5.392448910E-06
   195  2.023834716E-02
   196  2.355472112E-03
   197  4.573676654E-03
   198  3.597166654E-03
   199 -3.112776469E-05
   200 -2.716504813E-05
   201 -1.372040589E-05
   202  4.722489875E-06
   203  2.311975670E-05
   204  3.488036758E-05
   205  6.468303320E-05
   206 -2.155282392E-05
   207 -7.837089645E-05
   208 -4.743839963E-04
   209  1.379064498E-04
   210 -4.776698283E-05
   211  1.684397445E-04
   212  6.057341646E-05
   213  2.419692640E-05
   214 -4.975092914E-05
   215 -1.191505819E-05
   216  2.385510825E-05
   217 -3.119909259E-03
   218  6.526647423E-04
   219  1.722808597E-04
   220  2.069021167E-03
   221  3.961869454E-01
   222  3.258811464E-01
   223 -4.328962527E-06
   224 -2.213022375E-05
   225  1.882152856E-05
   226  1.549898474E-02
   227 -5.887872402E-05
   228  1.433295830E-04
   229 -3.566979674E-04
   230 -2.181746745E-02
   231 -2.390244686E-03
   232  1.807342726E-03
   233 -6.747919993E-03
   234 -1.276090795E-05
   235 -2.138210501E-04
   236 -2.266312701E-04
   237  6.034081261E-04
   238 -1.764396772E-04
   239 -7.056485665E-02
   240 -5.391409911E-03
   241  1.846666169E-03
   242 -1.124602174E-02
   243 -1.001125929E-04
   244 -8.306764029E-05
   245  2.809177601E-06
   246 -2.608650364E-05
   247 -1.561350425E-05
   248  4.110910078E-05
   249 -1.148912587E-05
   250  1.387731197E-04
   251  4.165400882E-05
   252 -4.924463349E-04
   253  2.682106595E-06
   254  1.659220076E-04
   255 -3.207379444E-04
   256  7.997499002E-05
   257  4.539182209E-05
   258 -6.728835422E-06
   259  4.884065100E-05
   260  1.696754051E-05
   261  1.385691925E-02
   262  2.293726360E-04
   263 -2.792889142E-03
   264 -1.073997838E-03
   265  5.113747209E-05
   266 -9.067574489E-05
   267 -2.524196305E-03
   268  3.852899059E-04
   269  9.389783981E-07
   270  3.596942988E-04
   271  6.220962304E-04
   272  1.828224342E-05
   273 -3.985800114E-06
   274 -2.647807340E-03
   275 -3.055807165E-04
   276 -1.236972926E-04
   277 -4.195843702E-04
   278 -1.506759689E-03
   279  9.438433283E-06
   280 -2.031216709E-04
   281 -5.867142012E-04
   282 -3.005857371E-05
   283  1.476189347E-04
   284 -3.224355272E-05
   285  3.082466488E-04
   286  4.750873539E-05
   287 -4.938847705E-04
   288 -8.699101942E-04
   289  1.787730815E-04
   290 -3.650490944E-05
   291  3.248833305E-05
   292  3.893375064E-04
   293 -2.452235885E-05
   294  1.558862098E-05
   295 -6.116415937E-04
   296 -9.778235843E-05
   297  5.760775749E-05
   298 -1.654920382E-05
   299 -1.001680303E-03
   300 -5.403053771E-06
   301 -5.378395083E-04
   302  3.006748941E-03
   303  2.014726390E-04
   304  7.054119681E-04
   305  5.676642644E-04
   306  2.935770151E-03
   307  1.034712033E-05
   308 -8.061822754E-04
   309  2.462760239E-03
   310 -2.002796070E-05
   311 -9.468776227E-04
   312  3.705347296E-05
   313 -1.584744638E-04
   314  3.999984568E-05
   315 -4.368756840E-04
   316 -5.522214433E-04
   317 -1.311102817E-04
   318 -2.581843251E-05
   319  5.642730835E-05
   320  4.040457532E-04
   321  8.943358777E-06
   322 -2.290061181E-04
   323 -1.945850632E-04
   324 -1.127571395E-05
   325 -9.374424872E-05
   326 -6.193756767E-05
   327  5.627337421E-04
   328 -3.120416057E-05
   329 -1.595186142E-04
   330 -7.203372369E-04
   331  1.088938648E-05
   332 -1.431783942E-04
   333 -4.834253604E-05
   334  4.017624726E-04
   335  4.851099807E-05
   336 -2.180789491E-04
   337 -2.740712539E-03
   338 -1.906763998E-04
   339 -3.045260364E-04
   340  3.997025174E-04
   341 -1.289984265E-03
   342  1.385649268E-05
   343  1.720525454E-04
   344 -2.040011884E-03
   345  7.835240689E-05
   346  4.245568305E-04
   347 -3.287955077E-04
   348  6.874978280E-04
   349  6.948613268E-05
   350 -2.616673132E-04
   351 -3.333314935E-04
   352  1.098102838E-04
   353 -5.943307014E-06
   354  3.548942649E-05
   355 -2.148472986E-03
   356 -7.807623597E-05
   357  2.942590402E-04
   358  2.640448259E-04
   359 -1.069325560E-04
   360  1.612666077E-05
   361 -1.547655668E-05
   362  1.430258081E-03
   363  1.617361859E-05
   364 -6.869921581E-05
   365 -7.151375953E-05
   366  3.619808737E-05
   367 -2.308480934E-05
   368 -2.206645463E-05
   369 -3.540339083E-04
   370  2.483178233E-05
   371 -1.172908128E-03
   372  2.802254822E-03
   373 -1.255018618E-03
   374  3.151381988E-04
   375 -9.962801971E-05
   376  4.430875776E-04
   377  1.031651493E-05
   378 -9.406558873E-04
   379  3.273891183E-03
   380  1.009844956E-03
   381  4.076844873E-05
   382 -7.877263330E-04
   383  2.582564211E-03
   384  8.266187973E-05
   385 -3.620260781E-04
   386 -5.722439970E-04
   387  4.288901458E-05
   388  1.301479923E-04
   389 -4.338535906E-05
   390 -1.939979730E-03
   391 -9.080451092E-05
   392  3.189939234E-04
   393  2.055552846E-04
   394 -1.286955131E-05
   395 -1.125470332E-04
   396  2.192123835E-05
   397  1.841411905E-03
   398  2.963830701E-05
   399 -1.624293613E-04
   400 -2.134032740E-04
   401 -2.934758216E-05
   402  6.603201619E-05
   403  2.518932178E-05
   404 -3.959050340E-04
Ene=   -1.0158132085E+01
Spin= Alpha
Occup=   2.0000000
     1  2.631529588E-03
     2  2.125865445E-03
     3  1.139433782E-04
     4  1.476115918E-04
     5  1.460216700E-04
     6  8.507591771E-04
     7 -1.133401678E-04
     8 -3.013728948E-04
     9 -8.979591843E-05
    10 -9.270678300E-03
    11  7.152318012E-04
    12  4.490847733E-03
    13 -1.926471436E-03
    14  1.085045803E-04
    15  7.184680169E-06
    16  2.714367610E-04
    17  4.277705851E-05
    18  7.669738196E-05
    19 -1.093564571E-01
    20  5.627549381E-04
    21  8.265072984E-02
    22 -1.750536498E-02
    23 -1.037255636E-01
    24 -8.531718081E-02
    25 -6.714287407E-05
    26 -5.110329133E-05
    27  4.051491751E-05
    28 -4.086284780E-03
    29  3.865232615E-04
    30  2.450170499E-04
    31 -3.731354166E-04
    32  7.129088841E-03
    33  3.749119326E-03
    34  3.085240950E-04
    35 -9.763588791E-04
    36  3.981110601E-05
    37 -2.337803155E-04
    38 -1.243716231E-04
    39  6.658922210E-05
    40  1.685810826E-05
    41  2.364854148E-02
    42  6.729371080E-03
    43 -2.443422144E-04
    44 -5.564557723E-03
    45  2.362870903E-04
    46  1.933201117E-04
    47  6.145781457E-05
    48 -7.883600174E-05
    49  1.053356966E-05
    50  2.570062556E-05
    51 -3.682793973E-04
    52  4.599087545E-04
    53 -1.371979708E-04
    54 -3.518940261E-05
    55 -1.958112872E-03
    56  2.578807658E-03
    57  1.472534791E-03
    58 -3.530190675E-06
    59  3.696161244E-05
    60  1.743100142E-05
    61  1.882242450E-04
    62 -5.451281566E-05
    63  1.673946411E-03
    64 -2.949096610E-03
    65  3.365311646E-03
    66 -2.164266222E-03
    67 -3.611963042E-03
    68 -2.949088919E-03
    69  2.703804064E-04
    70 -1.320299206E-04
    71  9.909549446E-05
    72 -6.723210470E-04
    73 -4.308032669E-04
    74  7.056062420E-05
    75  8.520821027E-05
    76  7.795320141E-03
    77  2.584601967E-03
    78 -4.850044922E-04
    79 -1.924919052E-03
    80  1.678195503E-04
    81 -2.652573276E-04
    82 -2.800295515E-05
    83 -2.534659718E-04
    84  1.460358444E-04
    85  7.537192883E-02
    86  1.180301656E-02
    87  3.473768859E-03
    88 -1.423627336E-02
    89  4.213535681E-01
    90  3.466288021E-01
    91 -3.605420154E-05
    92  4.854257151E-05
    93 -8.387797456E-05
    94  1.595073785E-02
    95  2.235261595E-04
    96 -3.763888364E-04
    97  8.892135141E-04
    98 -2.233921220E-02
    99  1.047378169E-03
   100 -2.343022074E-03
   101  7.099681197E-03
   102 -1.608764899E-05
   103  3.266972576E-04
   104  2.279411411E-04
   105 -6.653274230E-04
   106  1.717312948E-04
   107 -1.054583285E-01
   108  1.472642105E-03
   109 -5.278251808E-03
   110  1.955701240E-02
   111 -2.476031056E-03
   112 -1.995800896E-03
   113 -1.808909248E-04
   114 -4.853274330E-05
   115  2.081299679E-04
   116 -8.745006979E-04
   117  3.203201297E-04
   118  1.390135012E-05
   119 -1.335380079E-04
   120  9.257033035E-03
   121 -4.774643775E-03
   122  1.107641721E-03
   123 -5.334627474E-04
   124 -1.177588644E-04
   125  2.967616640E-04
   126  1.509252731E-05
   127 -4.030186537E-05
   128 -9.646797513E-05
   129  1.055947081E-01
   130 -7.856485399E-02
   131  2.183169972E-02
   132 -1.549628925E-02
   133 -3.090353014E-04
   134 -2.556633659E-04
   135 -3.936852487E-05
   136  4.773475677E-05
   137  4.970901813E-05
   138  7.755986465E-06
   139  1.648725160E-04
   140 -1.785576475E-04
   141 -3.673994092E-04
   142 -1.216321598E-05
   143  1.554139050E-03
   144 -2.041939745E-03
   145 -1.110034339E-03
   146  5.141481511E-06
   147 -6.664998456E-05
   148 -4.958927709E-05
   149  1.403733538E-04
   150 -3.274364849E-05
   151  4.667080863E-04
   152  3.074860716E-03
   153 -3.863886913E-03
   154 -3.517794667E-03
   155  3.938373572E-03
   156  3.219913631E-03
   157  9.883954110E-06
   158 -2.555787947E-04
   159  7.044190710E-05
   160  6.535999429E-04
   161  6.650440725E-05
   162  4.306024940E-04
   163  1.189238148E-04
   164 -7.826109762E-03
   165 -9.817673558E-04
   166 -1.737474321E-03
   167 -2.354405944E-03
   168 -2.060928602E-04
   169 -8.446526792E-05
   170 -2.066120161E-04
   171 -2.042577499E-04
   172 -3.857914151E-05
   173 -7.812610745E-02
   174 -6.902495920E-03
   175 -9.979350090E-03
   176 -1.486158887E-02
   177  1.417458285E-02
   178  1.166056007E-02
   179  7.034635258E-05
   180  5.209794303E-05
   181  4.231775597E-05
   182  5.446101661E-04
   183 -3.651523845E-04
   184 -2.753525172E-04
   185 -3.554420798E-04
   186 -2.137927268E-03
   187 -2.019570684E-03
   188 -2.179771312E-03
   189 -2.919561056E-04
   190 -3.678762923E-05
   191 -7.299207446E-05
   192 -1.110470888E-04
   193  1.094225044E-04
   194 -5.345796106E-05
   195 -9.591778266E-03
   196 -1.953258108E-03
   197 -4.227984247E-03
   198 -4.519483749E-03
   199 -2.958446896E-04
   200 -2.393491539E-04
   201 -4.886365812E-05
   202  2.259178284E-05
   203 -2.746642621E-05
   204  2.245611083E-05
   205  2.946655493E-04
   206 -1.197662143E-04
   207  1.418715932E-04
   208 -3.396349171E-05
   209  6.847012341E-05
   210 -2.317775472E-05
   211  5.768837733E-04
   212  8.629398828E-05
   213 -1.243140450E-04
   214  1.306189054E-05
   215 -9.472791513E-05
   216  7.866727768E-05
   217  7.244298544E-02
   218 -1.409975465E-02
   219  3.355551461E-03
   220 -4.122061550E-03
   221 -3.583293994E-01
   222 -2.947951811E-01
   223 -3.929353394E-05
   224  4.913848829E-05
   225 -8.799551041E-05
   226 -1.339580742E-02
   227  3.046111243E-04
   228 -3.401312895E-04
   229  9.086711442E-04
   230  1.873662673E-02
   231  1.416653557E-03
   232 -1.398930947E-03
   233  5.987969843E-03
   234  3.081348463E-05
   235  2.782115032E-04
   236  2.344127819E-04
   237 -5.914269383E-04
   238  1.684719426E-04
   239  9.662326800E-02
   240  3.357178255E-03
   241 -3.483601296E-03
   242  1.805024293E-02
   243  3.083556160E-04
   244  2.498439449E-04
   245 -6.412886735E-06
   246  5.389105529E-05
   247 -3.401038128E-05
   248 -2.835483540E-05
   249  2.796586513E-05
   250 -3.244684683E-04
   251  1.653292862E-04
   252  1.074915325E-04
   253  9.004244135E-06
   254 -1.266999185E-04
   255  5.331023215E-04
   256 -8.111032072E-05
   257 -7.530967783E-06
   258 -1.363039404E-04
   259 -1.273147104E-04
   260 -7.394305518E-06
   261 -7.361756046E-02
   262  7.485732582E-04
   263  1.456298012E-02
   264 -4.457567367E-03
   265 -1.535597446E-04
   266  1.321045752E-03
   267  1.416075041E-03
   268  4.306350163E-04
   269 -2.134085687E-04
   270  3.821275475E-05
   271  7.978762349E-05
   272  1.126458747E-04
   273 -5.717393167E-04
   274 -9.409953860E-04
   275 -2.695757466E-04
   276 -3.405410776E-05
   277 -1.862543539E-04
   278  5.858567146E-04
   279  1.280146866E-04
   280 -9.665162706E-04
   281 -9.495217480E-04
   282  1.311642273E-04
   283  1.300052139E-04
   284 -1.269385414E-06
   285  2.695294121E-04
   286 -1.332549979E-04
   287  1.028168530E-03
   288  1.036562117E-03
   289 -1.509386350E-04
   290 -1.299587934E-04
   291  1.129124939E-05
   292 -3.005311400E-04
   293 -2.226553855E-05
   294 -5.855466076E-04
   295 -3.862610715E-04
   296 -1.294062753E-04
   297 -2.511990125E-05
   298  2.110845201E-04
   299  4.925694816E-03
   300  4.340651162E-05
   301 -1.485926875E-03
   302  1.505634607E-03
   303  3.837571869E-04
   304  1.058253651E-03
   305  9.580337387E-04
   306 -1.280201565E-03
   307  7.184512519E-05
   308 -1.603726092E-03
   309  1.476305213E-03
   310 -4.603886643E-05
   311 -1.469335606E-03
   312  1.984043079E-04
   313  2.271280548E-03
   314 -1.390431600E-04
   315  9.445577241E-04
   316  1.554322138E-03
   317  1.680848635E-04
   318  1.755691108E-04
   319  2.446500704E-05
   320  5.711618336E-04
   321  1.348481524E-04
   322 -8.869130899E-04
   323 -1.511467924E-03
   324 -2.011509201E-04
   325 -1.065210845E-04
   326 -3.237565961E-06
   327 -6.109673080E-04
   328  2.638500508E-05
   329  6.024966672E-04
   330  4.741434197E-04
   331  7.798671222E-05
   332  1.027269294E-04
   333  2.321520082E-04
   334 -4.860617930E-03
   335 -1.112057623E-04
   336  7.327783835E-04
   337  7.695347673E-05
   338 -3.920110862E-05
   339  1.467031316E-04
   340  3.247457246E-05
   341 -1.289237121E-03
   342  1.514467311E-04
   343 -1.095064096E-03
   344 -2.151971251E-03
   345  1.245500674E-04
   346 -2.239942951E-04
   347 -1.003250018E-04
   348 -6.426195500E-05
   349  5.832782640E-05
   350 -4.323395384E-04
   351 -9.310576913E-04
   352  1.154448114E-04
   353  4.848186464E-05
   354  4.665967617E-05
   355  7.526461542E-04
   356 -5.401528446E-05
   357  8.987539966E-05
   358 -2.011298786E-04
   359 -2.250151395E-05
   360  1.278243167E-05
   361 -3.574547508E-05
   362  1.962306784E-03
   363  5.757167186E-05
   364 -4.060736699E-04
   365 -5.842315050E-04
   366  8.298406705E-05
   367 -9.549294757E-05
   368 -7.483130643E-06
   369 -2.084804017E-04
   370 -7.785866815E-05
   371  1.534508533E-03
   372 -7.830412214E-04
   373  1.247102554E-03
   374 -3.019915609E-04
   375  2.335930389E-04
   376 -2.443484991E-03
   377 -5.031693031E-05
   378  1.465233324E-03
   379 -6.783640324E-04
   380 -9.796483244E-04
   381 -1.136509647E-04
   382  8.452105516E-04
   383  1.742909534E-03
   384 -3.477147219E-05
   385  3.451868478E-04
   386  8.565558048E-04
   387 -7.243971115E-05
   388 -6.819384523E-05
   389  3.390105844E-05
   390 -1.244935124E-03
   391  3.178942734E-05
   392 -8.200969267E-09
   393  3.261283542E-04
   394 -1.303033309E-05
   395 -9.478319143E-06
   396 -3.091573185E-05
   397 -1.406389559E-03
   398 -6.141173546E-05
   399  4.252817175E-04
   400  6.087716453E-04
   401  6.951192703E-05
   402 -1.095265559E-04
   403  5.947386275E-06
   404  2.601527416E-04
Ene=   -1.0158120797E+01
Spin= Alpha
Occup=   2.0000000
     1  3.561479568E-03
     2  2.956419180E-03
     3  2.154959523E-04
     4  1.081057219E-04
     5 -1.858624650E-04
     6 -1.719228011E-04
     7 -1.742825654E-04
     8 -2.235640144E-04
     9  1.941428346E-04
    10 -3.017506075E-03
    11  3.287335241E-03
    12  1.036594043E-03
    13 -1.013811110E-03
    14  2.195262084E-04
    15 -2.483233265E-04
    16  4.672370117E-05
    17  1.560086539E-04
    18  1.161935833E-05
    19 -9.445128477E-02
    20  3.107861083E-03
    21  4.800601474E-02
    22 -2.037997616E-02
    23 -4.887608952E-01
    24 -4.020789837E-01
    25 -3.571915168E-05
    26  9.952125142E-05
    27  1.930508871E-05
    28 -1.843811855E-02
    29  5.679625836E-04
    30 -9.266332837E-04
    31 -3.974835457E-04
    32  2.568659279E-02
    33  4.727627107E-03
    34 -5.718319742E-03
    35 -4.146744106E-03
    36  9.776698755E-07
    37 -7.926032291E-04
    38 -5.680490457E-04
    39 -4.206201142E-04
    40  1.405040647E-04
    41  1.152197917E-01
    42  1.097698082E-02
    43 -1.546188736E-02
    44 -7.426481324E-03
    45  1.100139829E-02
    46  9.008868752E-03
    47  4.781332470E-05
    48  8.760937438E-06
    49  2.670466218E-05
    50  1.055938852E-03
    51 -5.399697430E-04
    52 -2.172984171E-04
    53 -1.161791429E-04
    54 -1.642777411E-03
    55  5.161087005E-04
    56  5.465089817E-04
    57 -1.916017511E-03
    58 -1.818703418E-04
    59  1.399447241E-04
    60 -1.136154175E-04
    61  2.203398825E-05
    62 -9.837649813E-05
    63  2.956784459E-02
    64 -5.435841171E-03
    65 -1.993191208E-03
    66 -2.771792682E-04
    67  8.479767871E-03
    68  7.002013742E-03
    69 -1.614029645E-04
    70 -2.493875154E-04
    71  1.082927128E-04
    72  1.484696398E-04
    73  4.568090395E-04
    74  2.464165608E-04
    75 -4.996802475E-04
    76 -6.184807426E-03
    77 -2.382368555E-03
    78 -2.702916632E-03
    79  1.575212598E-03
    80 -2.767011140E-04
    81  2.379631134E-04
    82 -1.570830606E-04
    83 -2.825905435E-04
    84 -1.703200817E-04
    85 -1.212563566E-01
    86 -1.697488009E-02
    87 -6.553156448E-03
    88  1.405726394E-02
    89 -2.206964304E-01
    90 -1.815770595E-01
    91  7.575449730E-05
    92 -1.285263651E-05
    93  4.727457922E-05
    94 -8.014914229E-03
    95 -5.070496301E-04
    96  2.573052640E-04
    97 -6.156768678E-04
    98  1.063428902E-02
    99 -1.562888467E-03
   100  2.164398215E-04
   101 -3.279868463E-03
   102 -1.269831022E-06
   103 -1.427027424E-04
   104 -1.403067760E-04
   105  5.542859590E-04
   106 -1.506043323E-04
   107  6.119123767E-02
   108 -8.014541297E-03
   109  3.506708051E-03
   110 -7.462368065E-03
   111  2.012675762E-03
   112  1.706668010E-03
   113  1.318039592E-04
   114  3.905591424E-05
   115 -5.799912757E-05
   116 -6.967288828E-04
   117 -1.358607609E-04
   118 -3.285522230E-06
   119  4.826525566E-05
   120  2.620938824E-03
   121 -9.375295600E-04
   122  3.363508434E-03
   123  2.655058932E-04
   124  9.369527131E-05
   125 -1.556676885E-04
   126  7.502249865E-05
   127 -1.736259099E-05
   128 -3.545365998E-05
   129 -2.894013809E-02
   130  2.069873214E-03
   131 -4.448223770E-04
   132 -2.347714250E-03
   133 -1.093990083E-02
   134 -9.046637281E-03
   135 -5.457397534E-05
   136 -4.736305482E-05
   137 -4.996100809E-05
   138  2.254311896E-04
   139  5.117430051E-04
   140  4.826662613E-04
   141  3.016636645E-04
   142 -3.196245595E-05
   143 -1.584048842E-04
   144 -2.668966404E-04
   145  1.494861010E-03
   146  1.618988856E-04
   147 -2.790651200E-05
   148  1.931875649E-04
   149  4.070880553E-05
   150  1.422570561E-04
   151  1.713227989E-02
   152  1.191709958E-03
   153  1.206753187E-03
   154  3.717316898E-03
   155  3.136796738E-03
   156  2.636576700E-03
   157 -3.580342363E-05
   158 -8.136383675E-05
   159 -5.631213761E-05
   160 -7.906727306E-04
   161 -2.171687732E-05
   162  1.458927323E-04
   163  1.837523208E-04
   164  4.884813168E-03
   165 -1.751405772E-03
   166  6.783203791E-04
   167  1.798325052E-03
   168 -5.241342345E-05
   169  2.622599767E-05
   170 -3.045894950E-05
   171 -3.909267054E-05
   172 -1.395046454E-04
   173 -1.160184910E-02
   174 -2.600100743E-03
   175  1.858066228E-03
   176  5.660136147E-03
   177 -1.180938033E-01
   178 -9.713819036E-02
   179 -3.052540266E-06
   180  1.643754256E-06
   181 -9.231738322E-06
   182 -4.524502424E-03
   183 -7.518804620E-05
   184  1.423125557E-04
   185  1.366284133E-04
   186  6.774875510E-03
   187 -3.343551724E-04
   188  2.178030643E-03
   189  7.992365504E-04
   190  1.836515055E-05
   191  2.553768553E-04
   192  2.159943973E-04
   193  1.486189070E-04
   194 -2.644700274E-05
   195  1.930811045E-02
   196 -2.642127899E-03
   197  3.190089327E-03
   198 -1.942401126E-03
   199  9.823645849E-05
   200  8.535417877E-05
   201  2.329212265E-05
   202  9.822890671E-06
   203  1.836396949E-05
   204 -1.059846389E-04
   205 -1.341584974E-04
   206 -2.103758173E-05
   207 -8.481240693E-05
   208  1.421313367E-03
   209 -4.292779357E-04
   210  1.650931736E-04
   211 -4.699266976E-04
   212 -3.323511493E-05
   213  7.038664248E-05
   214 -9.540214982E-06
   215  5.539259059E-05
   216  1.209725749E-05
   217  5.509386545E-03
   218 -2.496118683E-03
   219  9.339670394E-04
   220 -1.915592562E-04
   221 -1.227269262E-01
   222 -1.009725017E-01
   223 -2.840874243E-05
   224 -1.702908889E-05
   225 -4.407061122E-05
   226 -4.423729986E-03
   227  2.121615850E-04
   228  2.511067334E-05
   229  5.460472001E-04
   230  7.005350018E-03
   231  1.868311546E-03
   232  4.385920273E-04
   233  1.953550415E-03
   234  3.926198431E-05
   235  1.904914517E-04
   236  1.667386746E-04
   237 -3.472117663E-04
   238  1.218413635E-04
   239  3.619573012E-02
   240  2.840103679E-03
   241 -3.869932988E-03
   242  5.651461358E-03
   243  2.830030349E-04
   244  2.349516317E-04
   245  5.903842388E-06
   246  5.945174020E-05
   247 -1.220456768E-05
   248 -1.217110863E-04
   249 -1.611048071E-05
   250 -3.464745760E-04
   251  7.918477855E-05
   252  1.471672894E-03
   253  2.524310192E-04
   254 -7.975216016E-04
   255 -1.356022382E-04
   256 -9.799340168E-05
   257  3.933359006E-05
   258 -8.071155022E-05
   259 -1.497871004E-04
   260  3.327269833E-05
   261 -3.872974797E-02
   262  5.188208517E-04
   263  6.301543028E-03
   264 -1.982871633E-03
   265 -8.041502976E-05
   266  2.106459323E-03
   267 -2.065094145E-03
   268  1.623962157E-03
   269 -2.952543331E-04
   270  6.397441171E-04
   271 -2.343215410E-03
   272 -9.623919466E-05
   273  2.236315797E-03
   274 -1.837725401E-03
   275 -6.850258302E-04
   276 -9.347427539E-04
   277 -1.340889000E-03
   278 -1.978024701E-03
   279 -1.781060193E-04
   280  1.752980718E-03
   281  2.933957243E-03
   282 -3.384223752E-04
   283 -2.381682757E-04
   284 -6.574721431E-05
   285 -1.235250481E-03
   286  6.784020913E-06
   287  3.415577004E-04
   288  1.522073106E-03
   289 -1.051123057E-04
   290 -1.003349595E-04
   291  5.037641276E-05
   292 -8.187658519E-04
   293  1.008274418E-04
   294  6.420824661E-04
   295  2.289491807E-03
   296  2.750708821E-04
   297  8.917346918E-05
   298 -3.028484733E-04
   299 -2.560319211E-03
   300 -1.239817990E-04
   301  1.834047219E-03
   302  6.923333293E-05
   303 -3.272403557E-04
   304 -4.706940194E-04
   305 -7.440975154E-04
   306 -1.671280209E-03
   307 -1.528071217E-05
   308  1.010805188E-03
   309 -1.070816971E-03
   310  7.957146070E-05
   311  8.391847706E-04
   312 -1.630194166E-04
   313 -1.773170403E-03
   314 -1.159689893E-04
   315  1.286948086E-03
   316  1.565317582E-03
   317  3.388829803E-04
   318  1.324891850E-04
   319  4.288229464E-05
   320 -1.294252925E-03
   321 -3.245822428E-05
   322  7.274015905E-04
   323  6.375131920E-04
   324  1.024535875E-04
   325  2.117180323E-04
   326 -7.416072393E-05
   327 -1.634026142E-03
   328  6.593878557E-05
   329 -1.960651718E-04
   330  1.660402547E-03
   331  9.728547510E-05
   332  3.419580996E-05
   333  1.525294904E-05
   334  4.393253543E-03
   335 -3.520983541E-06
   336  4.786061695E-04
   337 -9.309205210E-04
   338 -2.932864085E-04
   339 -7.434331049E-05
   340  2.972660817E-04
   341 -3.106361901E-03
   342 -6.610764555E-05
   343  1.005647928E-03
   344 -1.879363572E-04
   345 -5.445315399E-07
   346  4.858975153E-04
   347 -8.505285728E-05
   348  6.510038340E-05
   349  1.108704473E-06
   350  3.501059456E-05
   351  2.774658695E-04
   352 -2.743496247E-05
   353 -1.661842088E-05
   354  5.870166202E-06
   355  7.913509005E-04
   356  2.490686476E-05
   357 -1.195082287E-04
   358 -8.604921672E-06
   359  6.790670760E-07
   360  8.537682159E-07
   361 -4.530670455E-06
   362  1.195590277E-03
   363 -5.090883970E-05
   364  2.214790254E-04
   365  2.708557677E-04
   366 -9.474604830E-05
   367  5.071855036E-05
   368 -1.329473027E-05
   369  1.078192824E-03
   370 -1.389281199E-04
   371  1.595783924E-03
   372  1.210250333E-03
   373  5.341431388E-04
   374 -1.367168909E-04
   375  3.319311795E-04
   376 -6.874657444E-04
   377  8.335251088E-06
   378  5.764543595E-04
   379 -8.081151431E-06
   380 -3.382529520E-04
   381 -1.209733638E-04
   382  3.397510250E-04
   383 -1.388452363E-03
   384  6.358532336E-05
   385 -1.695972300E-04
   386  1.999556066E-04
   387 -1.412704561E-05
   388  3.456623276E-05
   389 -4.524223461E-06
   390 -5.097334292E-04
   391 -3.901375652E-05
   392  2.883916896E-04
   393  8.161323054E-04
   394 -5.813263610E-05
   395 -1.037191555E-04
   396 -4.620110081E-07
   397  8.817261705E-04
   398 -8.712996866E-05
   399  4.742412584E-04
   400  6.401370270E-04
   401  4.645261648E-05
   402 -1.463920098E-04
   403  9.631358289E-05
   404  1.179621386E-03
Ene=   -1.0158120357E+01
Spin= Alpha
Occup=   2.0000000
     1 -2.419651878E-04
     2 -1.507732940E-04
     3 -6.624844630E-05
     4  4.669207868E-05
     5  1.652944264E-04
     6 -8.242956621E-04
     7  8.006422515E-05
     8  3.135566438E-05
     9 -1.687795412E-04
    10  6.224076732E-03
    11  1.385398588E-03
    12 -3.446093102E-03
    13  4.341585638E-04
    14 -4.435505155E-05
    15  1.089776912E-04
    16  1.323806948E-04
    17 -1.040152398E-04
    18 -6.945846309E-05
    19  4.031742741E-02
    20 -1.987129890E-03
    21 -3.979908487E-02
    22  1.784083982E-02
    23  1.785977793E-01
    24  1.469373034E-01
    25  3.279310715E-05
    26 -6.169247651E-05
    27 -6.664878968E-06
    28  6.654598388E-03
    29 -2.743321004E-04
    30  4.357957278E-04
    31  1.402973822E-04
    32 -8.886958924E-03
    33 -1.001486974E-03
    34  2.469421504E-03
    35  1.800080597E-03
    36  3.194989902E-06
    37  2.001983866E-04
    38  1.533338666E-04
    39  9.215457655E-05
    40 -1.852876673E-05
    41 -5.248040709E-02
    42 -4.795608126E-03
    43  5.892105818E-03
    44  7.609547539E-03
    45  6.014314642E-03
    46  4.925130678E-03
    47 -1.299051335E-05
    48  5.667199619E-05
    49 -4.935152873E-05
    50  5.750716881E-04
    51 -2.711190625E-05
    52 -4.690099952E-04
    53  2.175512634E-04
    54 -9.091234444E-04
    55  6.691437840E-04
    56 -2.788188417E-04
    57  3.336515432E-03
    58 -9.950266046E-05
    59 -5.481382412E-06
    60 -1.211363191E-04
    61 -1.244950693E-04
    62 -1.411914188E-05
    63  1.529922053E-02
    64 -2.749812684E-04
    65 -4.344485955E-03
    66  5.492615371E-04
    67 -1.282533952E-03
    68 -1.008168692E-03
    69 -3.130646539E-05
    70  1.555143218E-04
    71 -1.463060967E-05
    72 -9.484192332E-04
    73 -7.797598387E-05
    74 -2.336389968E-04
    75  9.379696745E-05
    76  8.789856784E-03
    77  1.539714756E-03
    78 -5.047101589E-04
    79 -2.870300486E-03
    80  9.216154120E-05
    81 -1.006826477E-04
    82  6.478971659E-05
    83  1.561925732E-04
    84 -7.266390827E-05
    85  5.363029698E-02
    86  1.061331456E-02
    87  2.857827362E-04
    88 -1.386865897E-02
    89 -4.757873418E-02
    90 -3.914209801E-02
    91 -7.401785921E-05
    92 -2.613579760E-05
    93  3.199750807E-05
    94 -1.737479307E-03
    95  4.058591725E-04
    96  1.263638941E-04
    97 -3.587748698E-04
    98  3.786233792E-03
    99  2.017492761E-03
   100  2.106485607E-03
   101 -9.050555719E-04
   102  3.910079862E-05
   103 -1.901375226E-04
   104 -1.086884575E-04
   105  1.448846914E-04
   106 -4.733598557E-06
   107  1.647445367E-02
   108  1.296753861E-03
   109  2.841036692E-03
   110 -4.302170918E-03
   111  3.251045376E-03
   112  2.668063618E-03
   113  1.248641785E-04
   114  1.930087315E-04
   115  2.456339442E-04
   116  3.546251523E-04
   117 -2.596042599E-04
   118 -1.268939652E-04
   119 -2.578473497E-04
   120 -6.430083173E-03
   121  3.386819839E-03
   122  1.167559956E-03
   123  1.367378173E-03
   124  2.191168869E-04
   125  8.420456170E-05
   126  2.560265908E-04
   127 -1.358602898E-04
   128  1.362945997E-04
   129 -1.063913257E-01
   130  6.456495766E-02
   131 -1.429520578E-02
   132  2.868073115E-02
   133 -5.880727049E-03
   134 -4.863023279E-03
   135 -3.227170357E-05
   136 -2.383188043E-05
   137  8.386312488E-05
   138  1.212214413E-04
   139  3.697422365E-04
   140  1.487129389E-04
   141 -4.908130836E-04
   142 -3.724868847E-06
   143 -4.173122281E-04
   144  3.543522655E-04
   145 -2.592056142E-03
   146  8.367703846E-05
   147 -1.875262044E-04
   148 -2.714895415E-05
   149  5.558570124E-06
   150  8.386573765E-05
   151  9.476938024E-03
   152  7.278592914E-04
   153  7.419962096E-04
   154 -6.297590201E-03
   155  7.554650447E-03
   156  6.212282403E-03
   157 -3.174352997E-04
   158 -1.299696689E-05
   159 -1.106590116E-04
   160  6.026433300E-04
   161  4.247742801E-04
   162  2.868250725E-04
   163  4.729124572E-04
   164 -9.497170627E-03
   165 -2.658738427E-03
   166 -1.941550335E-03
   167 -2.867772832E-03
   168 -2.754518527E-04
   169  1.071959189E-04
   170 -2.716073181E-04
   171  2.402663621E-04
   172 -2.527008689E-04
   173 -1.264165473E-01
   174 -1.020653061E-02
   175 -1.682732248E-02
   176 -1.894067122E-02
   177 -5.160054644E-01
   178 -4.244976862E-01
   179  9.602709822E-05
   180 -7.953294758E-05
   181 -2.149788705E-05
   182 -1.944267190E-02
   183 -7.938462099E-04
   184  8.828355811E-04
   185  4.283248929E-04
   186  2.696227842E-02
   187 -4.738959911E-03
   188  6.185378034E-03
   189  4.534329845E-03
   190  3.530832092E-05
   191  7.637336648E-04
   192  6.007982310E-04
   193  4.047092163E-04
   194 -1.140979457E-04
   195  1.271301777E-01
   196 -1.257301043E-02
   197  1.606858909E-02
   198  1.069751687E-02
   199  3.090982825E-04
   200  2.533540001E-04
   201  6.085241942E-05
   202 -2.117263272E-05
   203  7.887704985E-06
   204 -7.813417363E-05
   205 -3.512361965E-04
   206  1.202893254E-04
   207 -6.536016296E-05
   208  8.205887776E-04
   209 -5.586338135E-04
   210  4.378544739E-04
   211  3.924655882E-04
   212 -1.035411133E-04
   213  5.660630857E-05
   214 -6.865316582E-05
   215  1.472654196E-04
   216 -7.448866149E-05
   217 -5.894397222E-02
   218  1.072336257E-02
   219 -2.422489314E-03
   220  3.166240237E-03
   221 -1.279753861E-01
   222 -1.052966404E-01
   223  3.338849393E-05
   224  9.590565849E-05
   225 -1.552226329E-05
   226 -4.583808638E-03
   227 -5.385509663E-05
   228 -6.430983653E-04
   229  2.559779535E-04
   230  5.176881750E-03
   231 -1.752862901E-03
   232 -1.959134512E-03
   233  1.673640099E-03
   234 -2.276004781E-05
   235  3.526277224E-05
   236 -1.260502974E-05
   237 -3.466236873E-04
   238  7.818192814E-05
   239  3.471657466E-02
   240 -1.030288344E-03
   241 -7.344014496E-03
   242  2.420286343E-03
   243 -1.016890449E-04
   244 -7.917840163E-05
   245  1.614312045E-05
   246 -2.169626663E-05
   247 -9.911459861E-06
   248 -4.433835692E-05
   249 -6.182264576E-05
   250  1.179046899E-04
   251  2.911404489E-05
   252  7.423691065E-04
   253 -1.176157617E-04
   254 -3.279621745E-05
   255  5.667946846E-04
   256  3.364956046E-05
   257 -3.344207421E-05
   258 -1.344383971E-05
   259  6.285832681E-05
   260  2.817124823E-05
   261  4.136130005E-02
   262 -1.782859100E-04
   263 -9.145453256E-03
   264  1.998589456E-03
   265 -7.098694297E-06
   266 -3.121058515E-04
   267  8.254524832E-04
   268 -5.231636318E-04
   269  5.829785891E-05
   270 -2.938560554E-04
   271  1.612439412E-03
   272  4.405361280E-05
   273 -7.899292287E-04
   274  7.639416511E-05
   275  2.881892252E-04
   276  2.894848793E-04
   277  5.064528232E-04
   278 -2.592535239E-03
   279  1.069632232E-04
   280 -6.034068413E-04
   281  5.148301833E-05
   282  5.152028047E-05
   283  5.306250141E-05
   284 -2.221103481E-05
   285 -2.258144764E-04
   286 -1.989963596E-04
   287  1.731865516E-03
   288  2.375549000E-03
   289 -2.914852033E-04
   290 -2.351977073E-04
   291  3.609651094E-05
   292 -8.965725335E-04
   293  1.674760996E-05
   294 -5.774506058E-04
   295  5.674301887E-04
   296 -9.285273763E-05
   297  4.882915815E-05
   298  1.519451794E-04
   299  6.205513146E-03
   300  8.364581462E-05
   301 -3.184286267E-04
   302 -1.366973740E-04
   303 -7.203090185E-05
   304 -1.518639993E-04
   305 -3.718396500E-05
   306 -2.890805436E-04
   307 -1.647899823E-04
   308  1.430752837E-03
   309  2.021761499E-03
   310 -2.646347481E-05
   311  2.761274221E-04
   312 -3.070641492E-04
   313 -1.999333680E-05
   314  5.372236515E-05
   315 -8.400450889E-05
   316 -4.451715805E-04
   317  3.298339414E-05
   318 -5.809867474E-05
   319  6.484355282E-05
   320 -1.177814300E-03
   321 -1.338784661E-04
   322  1.170576278E-03
   323  1.644451554E-03
   324  2.203248668E-04
   325  2.224072617E-04
   326  3.108952922E-06
   327 -4.159250080E-04
   328  7.390750556E-05
   329  8.129415274E-04
   330  1.586974162E-03
   331  1.132392175E-04
   332  2.441410376E-04
   333  3.283274936E-04
   334 -5.258717888E-03
   335 -9.771688551E-05
   336  2.269794737E-03
   337 -1.701766443E-03
   338 -1.133544473E-03
   339 -4.891614378E-04
   340  1.393104162E-03
   341 -2.344901671E-04
   342 -7.160201362E-05
   343  2.010278670E-03
   344 -2.138503133E-03
   345  1.784938731E-04
   346  1.702423866E-03
   347 -6.810560744E-04
   348 -2.803507118E-03
   349  7.006541161E-05
   350 -1.781410587E-04
   351  1.399175175E-04
   352  4.210644271E-05
   353 -2.292786779E-05
   354 -2.688056637E-06
   355 -1.276666432E-03
   356 -5.879868902E-05
   357  4.224888239E-04
   358  9.810130347E-04
   359 -1.390433439E-04
   360 -3.543502532E-05
   361  4.980944858E-06
   362  8.759235153E-05
   363 -7.817975442E-05
   364  4.739480987E-04
   365  6.450739292E-04
   366 -1.001717609E-04
   367  8.022427368E-05
   368 -1.075851151E-04
   369  7.802967959E-04
   370  8.147421628E-05
   371 -4.348292374E-05
   372 -1.845458513E-03
   373  4.515425611E-04
   374 -4.397406135E-05
   375 -3.621801317E-05
   376 -1.322722877E-03
   377 -1.465774442E-04
   378  1.607651592E-03
   379  2.751863800E-04
   380 -2.902640976E-04
   381 -1.440662177E-04
   382  5.279425691E-04
   383 -1.288223594E-03
   384 -3.209616764E-05
   385  9.322795136E-05
   386  9.987363467E-05
   387 -8.331356641E-06
   388 -3.557072238E-05
   389 -1.055381631E-05
   390  1.360201298E-03
   391  4.839353784E-05
   392 -3.212114244E-04
   393 -5.329915850E-04
   394  3.959753777E-05
   395  6.451822371E-05
   396  1.051942528E-05
   397  1.107705413E-03
   398  3.622479660E-06
   399 -9.777742755E-05
   400 -1.548194710E-04
   401 -1.139828016E-05
   402 -1.594817382E-05
   403 -4.684413125E-05
   404  4.501848794E-04
Ene=   -1.0157783770E+01
Spin= Alpha
Occup=   2.0000000
     1  3.286054072E-03
     2  2.693840511E-03
     3 -3.200041770E-04
     4  1.163059008E-04
     5 -1.061676376E-04
     6  3.843132949E-04
     7  2.654125810E-04
     8 -2.689257023E-04
     9  1.367717513E-04
    10 -6.755126345E-03
    11 -3.392574101E-03
    12  2.933590104E-03
    13 -1.606116747E-03
    14 -1.302147622E-04
    15  1.689562096E-04
    16  5.670854469E-07
    17  3.490462961E-04
    18 -1.028407221E-04
    19 -8.806174022E-02
    20 -1.345722064E-02
    21  4.986943701E-02
    22 -1.712645699E-02
    23 -6.549247692E-03
    24 -5.411654907E-03
    25 -2.535094518E-05
    26 -1.243197180E-05
    27  7.309095417E-05
    28  9.637430916E-05
    29  3.125077477E-04
    30 -3.619891685E-05
    31 -4.770527854E-04
    32  4.592163977E-04
    33 -5.550571994E-04
    34  6.087855334E-04
    35 -2.113991273E-03
    36  7.808124828E-05
    37 -2.097888263E-04
    38 -5.303794314E-05
    39 -2.498276712E-05
    40  2.880594556E-05
    41  2.718552837E-05
    42  8.446863515E-04
    43  1.164255156E-03
    44 -1.001038503E-03
    45 -5.627996523E-01
    46 -4.629736860E-01
    47  7.430879565E-05
    48  5.656968659E-05
    49  8.900129225E-07
    50 -2.160827977E-02
    51 -9.274785134E-04
    52 -7.052700661E-04
    53 -1.135743741E-05
    54  3.152693363E-02
    55 -8.444264832E-03
    56 -6.419256567E-03
    57 -1.074878698E-04
    58 -7.725786017E-04
    59  4.606370259E-04
    60 -5.910019650E-04
    61 -1.262638955E-04
    62 -4.282218792E-04
    63  1.549578328E-01
    64 -2.209069556E-02
    65 -1.688490171E-02
    66 -2.568315274E-04
    67  2.774189466E-04
    68  2.722142542E-04
    69 -4.126047145E-05
    70 -3.791221316E-05
    71 -1.522625413E-05
    72 -7.639356465E-04
    73  5.600781648E-05
    74  9.044764019E-05
    75  1.079696249E-04
    76  5.899805556E-03
    77  2.938121047E-03
    78  1.979610127E-03
    79 -5.221117191E-04
    80 -4.262694206E-05
    81 -3.503737364E-05
    82 -1.615471478E-06
    83  4.305972523E-05
    84  1.133199821E-04
    85  4.857467320E-02
    86  1.208421578E-02
    87  3.496940998E-03
    88 -1.228536681E-02
    89 -6.453106608E-03
    90 -5.332743218E-03
    91 -4.796738136E-05
    92  1.750025386E-05
    93  5.944939434E-05
    94  1.022402646E-04
    95  2.661476919E-04
    96  2.541962052E-05
    97 -5.052720904E-04
    98  4.333646381E-04
    99  1.137056682E-03
   100 -1.631294506E-03
   101 -1.082787137E-03
   102  9.375097705E-05
   103 -1.429933194E-04
   104 -2.963034817E-05
   105  1.551822671E-04
   106 -1.291054161E-05
   107  1.413769655E-04
   108  1.752929967E-03
   109  9.470121832E-05
   110 -5.411628204E-04
   111  3.288815392E-03
   112  2.696073190E-03
   113  2.475026221E-05
   114 -3.406009570E-04
   115  1.024683185E-04
   116  3.842697750E-04
   117 -1.849697310E-04
   118  3.287524102E-04
   119 -1.359054420E-04
   120 -6.760652869E-03
   121  1.878640477E-03
   122 -4.071510763E-03
   123  1.584696288E-03
   124 -1.346804592E-04
   125 -4.676815526E-05
   126 -1.540256405E-04
   127 -3.537211049E-04
   128  9.515694913E-05
   129 -8.768783346E-02
   130  4.361544725E-02
   131 -2.643398093E-02
   132  1.736665923E-02
   133  1.842037768E-03
   134  1.545007183E-03
   135  4.035871104E-05
   136  3.074752123E-05
   137  5.590574592E-07
   138 -2.309751498E-04
   139 -2.510579642E-04
   140 -1.911049878E-04
   141 -3.326187798E-06
   142  8.133472927E-04
   143  3.449902544E-04
   144  2.687670753E-04
   145  7.469270934E-06
   146  3.434911164E-05
   147 -1.913410327E-05
   148  2.492577007E-05
   149  4.516867125E-06
   150  1.514701487E-05
   151 -1.274948435E-02
   152 -1.301396839E-03
   153 -9.637491351E-04
   154  2.079890042E-06
   155  2.785275364E-04
   156  2.732025612E-04
   157 -4.794088389E-05
   158 -2.959388856E-05
   159  1.405294997E-05
   160 -7.651351636E-04
   161  1.043310589E-04
   162  3.045165230E-05
   163 -1.059716984E-04
   164  5.909996940E-03
   165  2.687948661E-03
   166  2.298240102E-03
   167  6.017239524E-04
   168 -4.163563811E-05
   169  1.386091974E-05
   170  3.547103878E-05
   171  2.201713690E-05
   172  1.184873840E-04
   173  4.916460206E-02
   174  6.520248963E-03
   175  1.051996408E-02
   176  1.266225667E-02
   177 -6.658507314E-03
   178 -5.501795476E-03
   179 -1.772435902E-05
   180 -2.012259278E-05
   181 -7.361787874E-05
   182  9.563696716E-05
   183  4.155658406E-05
   184  3.048829048E-04
   185  4.816177317E-04
   186  4.297181184E-04
   187  4.130342377E-04
   188 -7.270447652E-04
   189  2.104797866E-03
   190  8.518136168E-05
   191  1.057217239E-04
   192  1.858040338E-04
   193  3.705055543E-05
   194  7.903420655E-06
   195 -7.634880501E-04
   196  1.523609367E-03
   197  3.962176839E-04
   198  1.013904668E-03
   199  3.578674492E-04
   200  2.918548037E-04
   201  6.127290313E-05
   202 -1.908009928E-05
   203  1.938228778E-05
   204 -8.789117888E-05
   205 -3.474175505E-04
   206  9.682713394E-05
   207 -1.066885557E-04
   208  8.226436251E-04
   209 -6.080220015E-04
   210 -2.204982819E-04
   211 -7.695698765E-05
   212 -3.294390923E-05
   213  8.574043243E-05
   214 -4.240808196E-06
   215  1.554019626E-04
   216 -1.147048887E-04
   217 -4.276180252E-02
   218  7.264206465E-03
   219 -2.826363863E-03
   220  2.473194845E-03
   221 -6.326567554E-03
   222 -5.228554705E-03
   223  5.051344320E-06
   224 -5.000874392E-05
   225 -5.998856042E-05
   226  1.060940873E-04
   227  8.715452314E-05
   228  2.428838870E-04
   229  5.097167255E-04
   230  4.386359477E-04
   231 -1.287417890E-03
   232  1.526436212E-03
   233  1.083315978E-03
   234  9.840261489E-05
   235  6.301819642E-05
   236  1.308732792E-04
   237 -1.388082584E-04
   238  6.599604753E-05
   239  4.960220374E-04
   240  5.779295795E-04
   241  1.591613584E-03
   242  6.276382028E-04
   243  3.619201949E-04
   244  2.952424715E-04
   245 -1.645832685E-06
   246  6.431773197E-05
   247 -1.855594751E-05
   248 -8.756952319E-05
   249 -1.435232639E-06
   250 -3.617519698E-04
   251  1.019485111E-04
   252  8.127173628E-04
   253 -3.756459861E-04
   254 -5.218710950E-04
   255  6.360841794E-05
   256 -3.512471497E-05
   257 -2.136571453E-05
   258 -8.093951095E-05
   259 -1.928605615E-04
   260 -1.654911083E-05
   261 -4.316545724E-02
   262 -7.429389830E-04
   263  7.847130732E-03
   264 -2.396847971E-03
   265  5.557672407E-05
   266 -8.714437602E-05
   267  5.930072099E-04
   268  4.461486482E-05
   269 -4.180685151E-05
   270  7.747320457E-05
   271 -2.179386814E-04
   272 -1.609999503E-04
   273  1.429267631E-03
   274  2.283256880E-03
   275  1.608607438E-04
   276 -2.247329773E-04
   277 -2.347204390E-04
   278 -1.211117481E-03
   279 -8.449334701E-05
   280  2.136651749E-03
   281 -2.853743422E-03
   282 -3.245189979E-04
   283 -1.003140754E-03
   284 -1.662607263E-03
   285 -1.951180650E-03
   286 -8.444017398E-05
   287  2.136189431E-03
   288 -2.856000274E-03
   289 -1.079616514E-03
   290 -6.436236606E-05
   291  1.645070873E-03
   292 -1.949179248E-03
   293  8.576675448E-06
   294 -1.652128580E-04
   295  6.388495113E-04
   296 -8.402666602E-05
   297 -7.041222474E-05
   298 -1.596435598E-05
   299  6.530808983E-03
   300 -1.609720961E-04
   301  1.429077696E-03
   302  2.265383060E-03
   303 -4.219581603E-05
   304  4.432986056E-05
   305 -3.571495819E-04
   306 -1.211548539E-03
   307  5.527553241E-05
   308 -8.392903812E-05
   309  5.722397413E-04
   310 -4.949555955E-05
   311  8.305242673E-05
   312  2.058612153E-05
   313 -1.767918556E-04
   314  3.705544670E-06
   315 -6.272090189E-06
   316 -1.153799976E-03
   317 -3.437625000E-05
   318  2.602306067E-05
   319 -1.518252978E-05
   320 -5.735048200E-04
   321  3.462876892E-06
   322 -3.947595286E-06
   323 -1.155874650E-03
   324  1.567214103E-05
   325 -4.012230769E-05
   326  1.491240551E-05
   327 -5.671581438E-04
   328  8.256109021E-06
   329 -1.626116624E-04
   330  6.270945935E-04
   331 -9.063973251E-05
   332 -6.196102613E-05
   333  1.385816231E-05
   334  6.563062004E-03
   335 -1.606042223E-04
   336  1.426899325E-03
   337  2.283975431E-03
   338 -1.774039094E-04
   339  2.121009817E-04
   340  2.348115952E-04
   341 -1.225741972E-03
   342  5.562145488E-05
   343 -8.558926662E-05
   344  5.929001246E-04
   345 -2.710680669E-05
   346  5.579274289E-05
   347 -7.745295441E-05
   348 -2.143553478E-04
   349 -6.501030666E-05
   350  3.835349462E-04
   351  8.655239302E-04
   352 -1.042645443E-04
   353  2.575458258E-05
   354 -1.082452913E-04
   355  1.159656831E-03
   356 -6.506218418E-05
   357  3.833124245E-04
   358  8.674068798E-04
   359 -1.354750681E-04
   360  6.445345061E-05
   361  2.785327742E-05
   362  1.162148731E-03
   363  8.709598416E-05
   364 -2.332467033E-04
   365  2.301584915E-04
   366  7.251527015E-05
   367 -4.226675881E-06
   368  1.766342443E-05
   369 -1.903975657E-03
   370  5.532460586E-05
   371 -8.569757285E-05
   372  5.730456612E-04
   373  6.640760988E-05
   374 -6.953864559E-05
   375 -2.033572689E-05
   376 -1.640804511E-04
   377 -1.614398662E-04
   378  1.431992651E-03
   379  2.251589713E-03
   380  2.609761026E-05
   381 -5.685846957E-05
   382  3.567983170E-04
   383 -1.217461856E-03
   384 -6.518029287E-05
   385  3.846832727E-04
   386  8.572763616E-04
   387 -4.785324408E-06
   388 -1.087708020E-04
   389  1.068776457E-04
   390  1.163871140E-03
   391 -6.535794503E-05
   392  3.855687918E-04
   393  8.527013842E-04
   394  2.634008340E-05
   395 -1.475577375E-04
   396 -2.928820211E-05
   397  1.158694312E-03
   398  8.685563413E-05
   399 -2.311846827E-04
   400  2.207190721E-04
   401  1.566980086E-05
   402  7.101457627E-05
   403 -1.651650233E-05
   404 -1.895778233E-03
Ene=   -1.0153992053E+01
Spin= Alpha
Occup=   2.0000000
     1 -2.987176652E-03
     2 -2.506318264E-03
     3 -2.037457820E-07
     4  4.316943473E-04
     5 -1.225531922E-04
     6  6.315545883E-04
     7  5.196178909E-06
     8 -7.817302080E-04
     9  2.232383635E-04
    10 -5.443330492E-04
    11 -4.013091913E-04
    12  2.226821431E-03
    13 -7.247846321E-04
    14  2.247728175E-04
    15 -9.380619859E-07
    16  2.629856466E-04
    17  4.618377291E-04
    18  1.644113523E-06
    19  1.188910554E-01
    20  1.078240523E-02
    21 -1.947180917E-03
    22  3.000976302E-03
    23  2.883675079E-04
    24  2.364589335E-04
    25  2.793128339E-05
    26  4.391808228E-06
    27 -2.849156176E-05
    28  2.140184239E-05
    29 -1.939255724E-04
    30 -4.470248697E-05
    31  2.199607605E-04
    32 -1.772529965E-03
    33 -6.913631333E-05
    34  2.389382195E-03
    35  1.187466014E-05
    36 -5.298356318E-05
    37  1.293976468E-04
    38  3.818336484E-05
    39 -5.390006244E-05
    40 -1.732085523E-05
    41 -1.962885879E-02
    42 -4.185578953E-03
    43  2.581783138E-03
    44  2.375663243E-03
    45  3.586690191E-04
    46  2.965204174E-04
    47 -2.921309691E-05
    48  1.544291228E-05
    49 -1.101342894E-05
    50 -1.348801358E-05
    51  2.327179234E-04
    52 -1.051416771E-04
    53  8.274814599E-05
    54 -8.251540693E-04
    55  2.379011224E-04
    56  2.572012949E-03
    57 -6.755013934E-04
    58  6.171645790E-05
    59 -7.253909125E-05
    60  3.308298234E-05
    61 -8.245641141E-05
    62  8.220448269E-05
    63 -5.602886633E-02
    64  1.395066613E-02
    65  1.133364791E-03
    66  2.872029476E-03
    67  3.742722923E-05
    68  4.547455078E-05
    69  1.410120862E-06
    70  2.078718771E-05
    71 -5.934639732E-06
    72 -2.313066421E-04
    73 -2.746177545E-05
    74 -1.160929427E-04
    75  5.784493900E-05
    76  2.235119884E-03
    77  4.075406580E-05
    78  1.013155302E-03
    79 -7.242060976E-04
    80  8.393131901E-06
    81  7.722932782E-06
    82 -8.518600254E-06
    83  8.687818174E-06
    84  1.552067313E-05
    85  2.341343462E-02
    86  4.114491428E-03
    87 -1.301668682E-03
    88 -2.705305157E-03
    89 -5.410682146E-05
    90 -5.057941725E-05
    91 -6.582122700E-07
    92  7.460427086E-06
    93 -1.121436535E-05
    94  1.479860694E-04
    95 -5.033037613E-06
    96 -3.902083506E-05
    97  3.990715708E-05
    98 -1.803246311E-03
    99  3.152720758E-05
   100 -6.625318851E-04
   101  6.933538996E-04
   102 -4.259996013E-05
   103 -1.605579133E-06
   104 -9.817574194E-06
   105 -4.165651695E-05
   106 -4.079411079E-07
   107 -4.854631234E-04
   108  1.183980804E-03
   109  1.884826793E-03
   110 -1.815762239E-03
   111 -1.189258999E-04
   112 -7.871057611E-05
   113  3.580014925E-05
   114  1.792553782E-05
   115  3.003110118E-06
   116 -2.805243459E-04
   117 -1.170193274E-04
   118 -1.097226396E-04
   119  4.874050402E-06
   120  3.177699393E-03
   121  6.141644547E-04
   122  1.079801024E-03
   123 -1.646587977E-04
   124  1.720547288E-05
   125 -7.210423129E-06
   126 -1.965647724E-06
   127 -2.280350194E-05
   128 -1.837558871E-05
   129  3.039168887E-02
   130  1.985003570E-02
   131 -9.768558396E-04
   132  4.859956248E-03
   133 -1.006560495E-04
   134 -9.247880589E-05
   135  9.945576857E-06
   136  1.462038254E-05
   137 -2.065161998E-06
   138  2.098871953E-04
   139 -2.358158346E-05
   140 -6.626528273E-05
   141  1.408407699E-05
   142 -2.712399915E-03
   143 -5.951442462E-04
   144 -9.745657288E-04
   145  1.300446905E-04
   146  2.423579387E-06
   147 -2.557944879E-06
   148 -2.138258359E-05
   149 -4.847758968E-05
   150 -3.065379688E-05
   151 -1.404530345E-02
   152 -3.675102616E-03
   153 -1.671207303E-04
   154 -8.349633631E-04
   155  3.751511808E-05
   156  4.539127834E-05
   157  1.251084043E-06
   158  2.101013089E-05
   159 -5.388369524E-06
   160 -2.288836256E-04
   161 -1.488037793E-05
   162 -1.319621152E-04
   163  3.267245237E-06
   164  2.214882017E-03
   165 -1.429631399E-04
   166  1.230955690E-03
   167  4.865093555E-05
   168 -1.236322754E-05
   169 -8.630413030E-06
   170  1.602318702E-05
   171  4.957008876E-06
   172  4.012078327E-06
   173  2.216758409E-02
   174  2.367147147E-03
   175  6.156774803E-04
   176  4.191638395E-03
   177 -5.403940219E-05
   178 -5.031759667E-05
   179 -4.217709141E-06
   180  1.171886680E-05
   181  4.542415944E-06
   182  1.452284397E-04
   183  6.819687880E-06
   184 -5.316584134E-05
   185 -1.308478723E-05
   186 -1.778522717E-03
   187  2.223354250E-04
   188 -9.084337804E-04
   189 -1.838668299E-04
   190 -1.874745490E-05
   191  9.071652567E-06
   192 -4.370945255E-05
   193 -3.371893117E-05
   194  1.185742191E-05
   195  4.051152087E-04
   196  3.780530027E-04
   197  2.764717908E-03
   198  9.790669458E-04
   199  2.891812379E-02
   200  2.378802936E-02
   201 -9.635858293E-06
   202  1.149992190E-05
   203 -5.442220914E-06
   204  1.111734631E-03
   205  1.127488298E-04
   206 -4.897466328E-05
   207  3.961887967E-05
   208 -2.086196972E-03
   209  8.691718203E-04
   210 -1.758576581E-04
   211  2.490407824E-04
   212  3.875785532E-05
   213 -4.061912221E-05
   214  2.527743413E-05
   215 -3.421766120E-05
   216  4.900574251E-05
   217 -3.585979780E-02
   218  7.445780030E-03
   219 -4.026955250E-03
   220  2.828010829E-03
   221  2.923039632E-04
   222  2.398165359E-04
   223  1.426335956E-05
   224  2.111697356E-05
   225  3.081823054E-05
   226  1.965989073E-05
   227 -9.207366676E-05
   228 -1.702470118E-04
   229 -2.241963169E-04
   230 -1.752765575E-03
   231  2.141275262E-04
   232  2.025108668E-03
   233 -1.228438274E-03
   234 -5.374429704E-05
   235 -6.726180003E-05
   236 -1.193577146E-04
   237  3.552225534E-05
   238 -3.760424689E-05
   239 -1.938907034E-02
   240 -2.568958443E-03
   241  4.702096608E-04
   242 -4.782860552E-03
   243  5.622008843E-01
   244  4.625214946E-01
   245  6.331123632E-06
   246 -1.508359260E-05
   247  5.635165843E-06
   248  2.007915272E-02
   249 -3.662739194E-05
   250  1.150102486E-03
   251 -3.341166019E-04
   252 -1.474280161E-02
   253  2.226111141E-04
   254  3.643507903E-03
   255 -9.843912468E-04
   256  3.128976091E-04
   257  1.066170743E-06
   258  3.643132378E-04
   259  6.430526828E-04
   260 -5.015725342E-06
   261 -4.555284592E-02
   262  1.633747920E-04
   263  7.254049111E-03
   264 -2.030501082E-03
   265  7.151976194E-05
   266 -5.708338110E-04
   267 -1.707924425E-03
   268 -1.815874639E-04
   269 -1.062734294E-04
   270  5.160212105E-05
   271 -1.998587195E-04
   272  9.053915950E-05
   273 -7.882470292E-04
   274 -1.868573073E-03
   275 -4.384234923E-06
   276 -4.560164112E-05
   277  2.207322206E-04
   278 -4.775880858E-04
   279  8.171064907E-05
   280 -7.106133580E-04
   281 -1.516804436E-03
   282  1.075702021E-04
   283 -5.348697642E-05
   284  1.899986009E-04
   285 -8.976860453E-04
   286  8.187724302E-05
   287 -7.115746685E-04
   288 -1.511943389E-03
   289  1.681817161E-04
   290 -1.288437852E-04
   291 -7.533747026E-05
   292 -8.996636978E-04
   293  9.513581290E-06
   294 -1.587933459E-04
   295 -9.601459075E-04
   296 -2.318252770E-05
   297 -4.082761661E-05
   298  4.904318050E-05
   299 -2.789186298E-04
   300 -1.123757895E-05
   301  2.072701420E-04
   302 -1.257869097E-03
   303 -1.916710148E-05
   304  4.918436528E-06
   305 -1.258804112E-05
   306  5.308558915E-04
   307 -5.110941716E-06
   308 -8.441190582E-05
   309 -7.272250233E-04
   310 -2.410700025E-06
   311 -1.586493335E-05
   312  2.230888262E-06
   313  1.882626683E-03
   314 -1.877260659E-05
   315  2.778526212E-04
   316 -1.005860635E-03
   317  3.018720733E-05
   318 -5.061129395E-06
   319  8.350686180E-06
   320 -5.596447317E-04
   321 -6.120578415E-06
   322 -4.065857754E-05
   323 -3.393041101E-04
   324  3.030778839E-06
   325 -2.111851906E-06
   326  1.356928939E-06
   327  2.493275981E-04
   328  1.020620527E-05
   329 -1.639576364E-04
   330 -9.324752557E-04
   331 -6.130470591E-06
   332 -6.248748922E-05
   333 -2.677161044E-05
   334 -3.270177440E-04
   335 -1.140802916E-05
   336  2.080290605E-04
   337 -1.263169711E-03
   338 -2.194352078E-05
   339  8.241147832E-06
   340 -6.678778320E-07
   341  5.645388623E-04
   342 -5.507583101E-06
   343 -8.248033144E-05
   344 -7.481698616E-04
   345 -3.066048429E-06
   346 -1.510927096E-05
   347  5.076268501E-06
   348  1.871886149E-03
   349  2.843849854E-05
   350 -2.261383231E-04
   351  5.488778228E-05
   352  3.718007839E-05
   353  5.814013006E-05
   354  8.908537517E-05
   355 -1.637479876E-04
   356  2.830229974E-05
   357 -2.249371074E-04
   358  5.165206430E-05
   359  7.619421652E-05
   360  9.440990075E-06
   361 -8.230421532E-05
   362 -1.687695864E-04
   363 -6.075928855E-06
   364 -2.330160443E-06
   365 -1.399415459E-04
   366 -2.766376304E-05
   367 -8.126997816E-05
   368  1.680630591E-05
   369 -1.560161507E-03
   370  7.153673915E-05
   371 -5.716774539E-04
   372 -1.700569326E-03
   373 -1.563898068E-04
   374 -1.377035001E-04
   375 -5.969402329E-05
   376 -2.279078656E-04
   377  9.063809421E-05
   378 -7.887797301E-04
   379 -1.853278867E-03
   380  7.989679483E-05
   381 -1.501761360E-04
   382 -1.479683646E-04
   383 -4.781294583E-04
   384  2.051728694E-04
   385 -2.858211672E-03
   386  4.406346332E-03
   387  1.284543972E-03
   388  1.178752243E-04
   389 -1.500250251E-03
   390  1.878370539E-03
   391  2.052497245E-04
   392 -2.858927252E-03
   393  4.412645592E-03
   394  5.738817942E-04
   395  9.996384981E-04
   396  1.608227189E-03
   397  1.882580788E-03
   398  2.171970589E-04
   399 -2.926280360E-03
   400  5.310561040E-03
   401 -1.867333640E-03
   402  3.848084680E-04
   403 -5.359304296E-04
   404  2.813415735E-03
Ene=   -1.0153989297E+01
Spin= Alpha
Occup=   2.0000000
     1  1.883157152E-04
     2  1.791715431E-04
     3  2.710890631E-05
     4 -1.474002944E-05
     5  1.030105467E-05
     6 -3.472902580E-04
     7 -1.383949128E-04
     8 -2.514387187E-06
     9 -3.055756443E-05
    10  3.251188612E-03
    11  1.247899060E-03
    12  6.829743384E-05
    13  2.662315731E-04
    14 -5.576254796E-06
    15  3.170569028E-06
    16 -2.168624519E-05
    17 -3.729143055E-05
    18 -2.792131546E-05
    19  1.855360429E-02
    20  3.277946159E-03
    21  1.965680166E-02
    22 -4.651030152E-03
    23 -8.626618237E-05
    24 -7.700272931E-05
    25  7.605254887E-06
    26 -7.808313026E-06
    27 -1.513193401E-06
    28  1.464500801E-04
    29 -3.068267468E-05
    30  2.610660813E-05
    31 -1.038593125E-05
    32 -1.629592151E-03
    33 -8.159666541E-04
    34  2.159783915E-04
    35  1.822671094E-04
    36 -1.260545016E-05
    37  2.772746999E-05
    38 -2.464063539E-05
    39  4.005017607E-05
    40 -5.500490482E-06
    41  1.444057982E-03
    42  3.143892160E-03
    43 -4.855183764E-04
    44 -1.087933754E-03
    45  3.196127544E-04
    46  2.641720702E-04
    47  9.918873474E-06
    48 -3.424789212E-05
    49  1.196531154E-05
    50 -1.134679644E-05
    51 -6.187724120E-05
    52  2.657956833E-04
    53 -8.952700820E-05
    54 -7.519791489E-04
    55  2.520553327E-03
    56 -7.337852587E-04
    57  7.824748876E-04
    58  5.702596868E-05
    59 -4.777444187E-06
    60  7.341132903E-05
    61  1.233444334E-04
    62  1.851142619E-05
    63 -5.070865092E-02
    64  3.460541050E-03
    65  1.316259621E-02
    66 -2.998456737E-03
    67  3.407201753E-05
    68  4.117098887E-05
    69  2.043135265E-05
    70 -6.636703036E-06
    71  6.274179898E-06
    72 -2.073613946E-04
    73 -1.287261733E-04
    74  3.309157085E-05
    75 -1.093407065E-05
    76  2.005259911E-03
    77  1.153183193E-03
    78 -5.717766514E-04
    79  2.906703715E-05
    80 -1.364936567E-05
    81 -1.312365646E-05
    82  1.389359866E-05
    83 -3.000066114E-06
    84  4.343023638E-06
    85  2.075631843E-02
    86  9.679423792E-04
    87  2.394563064E-03
    88 -4.034753440E-03
    89  2.965993788E-04
    90  2.438526076E-04
    91  2.489796322E-05
    92  7.862815388E-06
    93 -2.942061457E-05
    94  5.898493163E-06
    95 -1.929750987E-04
    96 -4.265613408E-05
    97  2.179312961E-04
    98 -1.587975996E-03
    99  1.999856569E-03
   100 -2.831318832E-04
   101  1.194111989E-03
   102 -4.527227691E-05
   103  1.340826370E-04
   104  3.563757108E-05
   105 -4.752036700E-05
   106 -1.599693000E-05
   107 -1.974620230E-02
   108 -4.332084893E-04
   109 -2.851277307E-03
   110  4.997790150E-03
   111 -2.991265866E-03
   112 -2.511858320E-03
   113  4.124946713E-04
   114 -1.197205492E-04
   115  1.280461980E-04
   116  6.630761498E-04
   117 -7.405383636E-04
   118  2.297537429E-04
   119 -2.338676454E-04
   120 -8.670817699E-04
   121  1.977384007E-03
   122 -1.107956086E-03
   123  7.649025189E-04
   124  2.185419493E-04
   125 -2.633494076E-04
   126  7.572513481E-05
   127 -3.897465066E-04
   128  2.445563952E-04
   129  1.165413872E-01
   130 -8.780215261E-04
   131  1.111103550E-02
   132 -3.257850421E-03
   133 -9.105776743E-05
   134 -8.364906565E-05
   135  1.588070799E-05
   136  4.116538386E-06
   137  2.370933775E-06
   138  1.892590314E-04
   139 -6.830790089E-05
   140  2.164494068E-06
   141 -1.584406219E-05
   142 -2.445446569E-03
   143 -1.034471329E-03
   144 -2.158875528E-04
   145 -1.782743411E-04
   146  2.732592526E-06
   147  2.085473075E-05
   148 -2.730780530E-06
   149  3.073359405E-05
   150 -4.853758667E-05
   151 -1.270841120E-02
   152 -7.777745740E-04
   153 -3.516078050E-03
   154  8.323733476E-04
   155  3.494734495E-05
   156  4.189260728E-05
   157  2.032520612E-05
   158 -6.550212676E-06
   159  6.784782674E-06
   160 -2.069405743E-04
   161 -1.175391623E-04
   162  1.940988445E-05
   163 -6.021274248E-05
   164  2.002319537E-03
   165  9.951655322E-04
   166 -3.763083409E-04
   167  7.261766546E-04
   168  9.894816413E-06
   169  7.271277755E-06
   170 -1.094151858E-05
   171 -1.037610159E-07
   172  1.761556074E-05
   173  2.036037880E-02
   174 -5.299904630E-04
   175  4.110323152E-03
   176  2.223913530E-03
   177  2.950342774E-04
   178  2.426421590E-04
   179  1.167511276E-05
   180  2.419348180E-05
   181  2.865669280E-05
   182  5.191529406E-06
   183 -9.238991279E-05
   184 -1.671994511E-04
   185 -2.234324895E-04
   186 -1.584307003E-03
   187  2.264004169E-03
   188 -6.150201367E-04
   189  3.645757621E-05
   190 -5.593424012E-05
   191 -7.106100381E-05
   192 -1.105758218E-04
   193  4.073614114E-05
   194 -4.171216876E-05
   195 -1.936824058E-02
   196  1.283872812E-03
   197 -4.981444263E-03
   198 -2.510119528E-03
   199  5.622008041E-01
   200  4.625217167E-01
   201 -1.173749798E-05
   202  9.069588968E-06
   203 -5.237806021E-06
   204  2.007159613E-02
   205  1.086793243E-03
   206 -3.436339070E-04
   207  3.452843762E-04
   208 -1.461223743E-02
   209  3.487039594E-03
   210 -7.587659104E-04
   211  1.011411506E-03
   212  3.026863062E-04
   213 -3.623626816E-04
   214  9.981458550E-05
   215 -5.460234036E-04
   216  3.267655283E-04
   217 -4.221253323E-02
   218  6.290173866E-03
   219 -1.411753430E-03
   220  1.832538428E-03
   221 -8.362081351E-05
   222 -7.474441759E-05
   223  5.344333711E-06
   224 -4.946543857E-06
   225  8.110762615E-06
   226  1.455992042E-04
   227 -2.877566888E-05
   228  2.347854043E-05
   229 -1.739864902E-05
   230 -1.622729237E-03
   231 -6.438788129E-04
   232  1.754151383E-06
   233 -5.749623766E-04
   234 -3.706683738E-05
   235  1.833843933E-05
   236  1.104843524E-05
   237  3.154545977E-05
   238 -1.814240763E-05
   239  2.161586662E-03
   240  2.414188063E-03
   241  5.128994402E-04
   242  2.477073095E-03
   243 -2.891692434E-02
   244 -2.379278286E-02
   245  7.778346417E-06
   246 -1.086890075E-05
   247  4.923815382E-06
   248 -9.532865303E-04
   249 -1.257499008E-05
   250  3.961153943E-06
   251 -4.386445814E-06
   252 -5.755099547E-04
   253  4.396332984E-05
   254  5.165468185E-04
   255 -1.352165688E-04
   256  7.290922603E-06
   257 -1.355138868E-05
   258  7.518999634E-06
   259 -1.072796689E-05
   260  2.443757532E-05
   261 -3.124419466E-02
   262 -1.869817699E-03
   263  7.558831706E-03
   264 -2.578543769E-03
   265 -1.253480075E-05
   266 -2.552422227E-05
   267 -5.535173556E-04
   268  3.532659244E-06
   269  1.211860132E-05
   270 -1.076066462E-05
   271  1.921682150E-03
   272 -2.052454017E-05
   273  2.889513938E-04
   274 -1.070249277E-03
   275  2.483138469E-06
   276 -1.875846688E-05
   277 -2.245115835E-05
   278  5.893755901E-04
   279  7.382059014E-05
   280 -6.410401070E-04
   281 -1.362251950E-03
   282 -9.194266240E-05
   283  2.020057518E-04
   284  5.715070004E-05
   285 -7.895144934E-04
   286  7.393617754E-05
   287 -6.422420875E-04
   288 -1.361280578E-03
   289 -3.720153700E-05
   290  1.341569265E-04
   291 -1.821422945E-04
   292 -8.215530484E-04
   293  8.833339859E-06
   294 -1.447697696E-04
   295 -8.556948660E-04
   296 -5.992547121E-05
   297  1.478733359E-05
   298  2.073921834E-05
   299 -2.782489675E-04
   300  9.225965473E-05
   301 -8.141023488E-04
   302 -1.740559979E-03
   303 -1.244356596E-04
   304  1.154296390E-04
   305  1.494520738E-04
   306 -5.361654836E-04
   307  7.260099188E-05
   308 -5.666525274E-04
   309 -1.627810948E-03
   310 -1.761162758E-04
   311 -1.134855001E-04
   312  5.542820028E-05
   313 -3.874374259E-04
   314 -4.231792037E-06
   315 -6.930521287E-05
   316 -2.354987894E-04
   317 -4.370535423E-06
   318  4.006576249E-06
   319 -2.085488339E-06
   320  3.080205808E-04
   321 -1.811177839E-05
   322  2.825482966E-04
   323 -9.714721373E-04
   324  2.983534019E-06
   325  3.089257487E-05
   326 -8.071513670E-06
   327 -5.836047409E-04
   328  8.946818467E-06
   329 -1.459364340E-04
   330 -8.524773105E-04
   331 -4.441977615E-05
   332 -4.618768602E-06
   333 -4.754666983E-05
   334 -2.837352263E-04
   335  9.216816900E-05
   336 -8.135766905E-04
   337 -1.736486450E-03
   338 -3.956755104E-05
   339  9.903977240E-06
   340 -2.223554387E-04
   341 -5.207553628E-04
   342  7.240489933E-05
   343 -5.654845444E-04
   344 -1.640771751E-03
   345 -1.506086395E-04
   346 -1.452729098E-04
   347 -5.663147622E-05
   348 -4.222867401E-04
   349  2.032648499E-04
   350 -2.849306754E-03
   351  4.418982042E-03
   352  4.315290378E-04
   353  1.188179711E-03
   354  1.520634090E-03
   355  1.903070152E-03
   356  2.033901417E-04
   357 -2.850337665E-03
   358  4.425372686E-03
   359  1.140317191E-03
   360  3.055624559E-04
   361 -1.586576567E-03
   362  1.909036422E-03
   363  2.188685679E-04
   364 -2.940233180E-03
   365  5.347039800E-03
   366 -1.348761291E-04
   367 -1.910103535E-03
   368  5.118296677E-04
   369  2.990500848E-03
   370 -1.275991473E-05
   371 -2.431711180E-05
   372 -5.700535078E-04
   373  1.932858716E-07
   374  1.606592131E-05
   375  3.487689544E-06
   376  1.920385087E-03
   377 -2.069613257E-05
   378  2.899005796E-04
   379 -1.078799535E-03
   380 -8.877463515E-06
   381 -4.516520086E-06
   382  2.755167059E-05
   383  5.980758435E-04
   384  7.488042751E-06
   385  6.716632545E-05
   386 -3.959602242E-04
   387 -6.474147742E-05
   388  9.272413998E-06
   389  6.650424033E-05
   390 -3.580227060E-04
   391  7.308973278E-06
   392  6.848250917E-05
   393 -4.070361970E-04
   394 -3.086739316E-05
   395 -3.269541329E-05
   396 -8.189522071E-05
   397 -3.645651614E-04
   398 -2.851850077E-05
   399  2.995337123E-04
   400 -6.907513886E-04
   401  1.067346440E-04
   402 -4.431951890E-05
   403  3.697336910E-05
   404 -1.863491365E-03
Ene=   -8.7246847843E-01
Spin= Alpha
Occup=   2.0000000
     1 -4.337298013E-02
     2 -6.675200206E-02
     3  4.910030664E-04
     4 -1.155677025E-02
     5  3.394109201E-03
     6  1.705299314E-01
     7  8.236765912E-04
     8 -1.732620316E-02
     9  5.102816092E-03
    10  1.090371486E-01
    11 -8.483939414E-04
    12 -9.713358707E-03
    13  2.613656030E-03
    14  3.459194163E-07
    15  7.210419040E-05
    16  2.102593856E-05
    17  1.735717802E-04
    18 -1.087566546E-04
    19 -3.294221417E-01
    20 -1.578801656E-02
    21  8.695639785E-02
    22 -2.913577962E-02
    23 -3.361684866E-02
    24 -5.163934058E-02
    25  9.471557478E-03
    26 -1.028018374E-02
    27 -7.603472219E-03
    28  1.310048998E-01
    29  1.640773986E-02
    30 -1.798433589E-02
    31 -1.326173880E-02
    32  6.505666912E-02
    33  4.785032424E-03
    34 -6.103220477E-03
    35 -2.246037244E-03
    36 -1.788826112E-04
    37 -3.859079784E-03
    38 -1.771006009E-03
    39 -1.768597576E-03
    40 -2.168338812E-04
    41  1.678962522E-01
    42  1.624938498E-02
    43 -1.566056904E-02
    44 -1.200097662E-02
    45 -3.578717407E-02
    46 -5.497748084E-02
    47 -1.261921061E-02
    48 -9.596921289E-03
    49 -1.584794330E-04
    50  1.393439320E-01
    51 -2.232530301E-02
    52 -1.697681287E-02
    53 -2.801096535E-04
    54  7.154019614E-02
    55 -7.950323223E-03
    56 -6.030469865E-03
    57 -1.103788719E-04
    58 -3.772732299E-03
    59  1.997030912E-03
    60 -2.537745266E-03
    61 -3.416276730E-04
    62 -1.106175313E-03
    63  3.063747728E-01
    64 -4.322905801E-02
    65 -3.149498111E-02
    66 -2.690720361E-04
    67 -3.817536249E-02
    68 -5.867163179E-02
    69  9.789379230E-03
    70  2.304441555E-03
    71 -1.115023790E-02
    72  1.490781613E-01
    73  1.609408940E-02
    74  3.779942367E-03
    75 -1.834087674E-02
    76  8.932129836E-02
    77  9.578277519E-03
    78  1.754554366E-03
    79 -1.217027644E-02
    80 -8.094385054E-04
    81  1.515566120E-03
    82  1.841925436E-04
    83 -5.783185364E-04
    84 -2.702737666E-04
    85 -1.886431602E-01
    86 -1.991511144E-02
    87 -2.607971935E-03
    88  2.391630892E-02
    89 -3.361508582E-02
    90 -5.163610303E-02
    91 -2.378330980E-03
    92  5.427164289E-03
    93 -1.476906885E-02
    94  1.309853448E-01
    95 -4.241092736E-03
    96  9.380847214E-03
    97 -2.574592296E-02
    98  6.524040561E-02
    99 -2.614747491E-03
   100  3.645209615E-03
   101 -6.781588045E-03
   102  9.587788833E-04
   103 -1.301992066E-03
   104 -1.800960443E-03
   105  3.762768662E-03
   106 -1.112616302E-03
   107  1.787972740E-01
   108 -4.084568614E-03
   109  1.054261277E-02
   110 -2.580914793E-02
   111 -4.337805077E-02
   112 -6.675958304E-02
   113 -1.094888478E-02
   114  3.604887283E-03
   115 -3.522492392E-03
   116  1.705453445E-01
   117 -1.639615619E-02
   118  5.489424484E-03
   119 -5.306617696E-03
   120  1.091555069E-01
   121 -9.442364912E-03
   122  1.824680715E-03
   123 -2.675368462E-03
   124 -2.601254401E-06
   125 -4.218068101E-05
   126 -6.220708870E-05
   127 -2.041928512E-04
   128 -3.219275283E-06
   129 -3.290879166E-01
   130  8.547789421E-02
   131 -4.060318785E-02
   132  2.805959056E-02
   133 -3.140830006E-02
   134 -4.824180507E-02
   135  1.255762712E-02
   136  9.547788508E-03
   137  1.585793799E-04
   138  1.224739530E-01
   139  2.153496053E-02
   140  1.637131723E-02
   141  2.629604667E-04
   142  5.855402727E-02
   143  5.085007571E-03
   144  3.856302975E-03
   145  1.630838922E-04
   146  1.892592450E-03
   147 -1.522083284E-03
   148  1.995968966E-03
   149  7.454342294E-04
   150  2.600767262E-03
   151  1.475734333E-01
   152  1.949170792E-02
   153  1.478245526E-02
   154  4.825645705E-04
   155 -3.817552153E-02
   156 -5.867160563E-02
   157  4.658432028E-03
   158  8.678319486E-03
   159  1.133243610E-02
   160  1.490700286E-01
   161  7.646813639E-03
   162  1.427430125E-02
   163  1.864035758E-02
   164  8.943239929E-02
   165  4.022955701E-03
   166  8.668383513E-03
   167  1.239508800E-02
   168 -8.571363305E-04
   169 -5.621174468E-04
   170 -1.409477607E-03
   171  3.489606780E-04
   172 -5.010478496E-04
   173 -1.747466721E-01
   174 -6.687791113E-03
   175 -1.577002057E-02
   176 -2.275459144E-02
   177 -3.361738930E-02
   178 -5.164040882E-02
   179 -7.494710807E-03
   180  1.178313406E-02
   181  7.630177198E-03
   182  1.310097205E-01
   183 -1.315257018E-02
   184  2.045450504E-02
   185  1.330715147E-02
   186  6.510406158E-02
   187 -4.636476873E-03
   188  6.236078294E-03
   189  2.281103006E-03
   190 -3.493061923E-05
   191  2.749632438E-03
   192  3.212758381E-03
   193  1.396630140E-03
   194 -1.181050155E-03
   195  1.596881247E-01
   196 -1.087336048E-02
   197  1.881132201E-02
   198  1.092289515E-02
   199 -1.615060441E-02
   200 -2.476859777E-02
   201 -1.017594398E-02
   202  2.930449868E-03
   203 -3.155221063E-03
   204  6.213428126E-02
   205 -1.761298086E-02
   206  5.115658346E-03
   207 -5.469376280E-03
   208  3.412907029E-02
   209 -4.883624262E-03
   210  1.233587419E-03
   211 -1.496891660E-03
   212 -1.535936424E-03
   213  1.843819801E-03
   214 -5.467649082E-04
   215  2.697684426E-03
   216 -1.724195374E-03
   217 -3.430045503E-02
   218  5.891703539E-03
   219 -2.161802797E-04
   220  1.641361423E-03
   221 -3.361192651E-02
   222 -5.163234873E-02
   223  4.358029865E-03
   224 -3.924546855E-03
   225  1.479291737E-02
   226  1.309988683E-01
   227  7.484238401E-03
   228 -6.908763231E-03
   229  2.578324325E-02
   230  6.495854391E-02
   231  2.780388160E-03
   232 -3.499166744E-03
   233  6.697855103E-03
   234  1.031395693E-03
   235  2.004752344E-03
   236  8.152114362E-04
   237 -3.819644875E-03
   238  9.487970578E-04
   239  1.645230195E-01
   240  8.714974105E-03
   241 -5.760909786E-03
   242  2.329965031E-02
   243 -1.614759442E-02
   244 -2.476400020E-02
   245  5.332683682E-05
   246 -1.062465763E-02
   247  3.026925430E-03
   248  6.211866220E-02
   249  1.349328813E-04
   250 -1.839987444E-02
   251  5.250826442E-03
   252  3.422459155E-02
   253 -1.282895182E-04
   254 -5.116916644E-03
   255  1.431188340E-03
   256 -1.574858228E-03
   257  2.463013251E-05
   258 -1.851771572E-03
   259 -3.224350052E-03
   260 -5.821718436E-05
   261 -2.915645536E-02
   262  1.206674600E-03
   263  4.988111025E-03
   264 -1.064135532E-03
   265  1.706334469E-02
   266  2.173636626E-02
   267 -2.607846038E-03
   268  4.441836396E-03
   269 -1.720003903E-03
   270  7.060200983E-04
   271 -6.439772982E-03
   272  1.722457626E-02
   273  2.147830835E-02
   274 -2.424632978E-03
   275 -6.042291398E-04
   276 -2.989844125E-03
   277 -3.723043972E-03
   278 -7.462166551E-03
   279  1.852987521E-02
   280  2.358681596E-02
   281 -2.654102992E-03
   282 -2.054354852E-03
   283 -3.163161100E-03
   284 -3.535543698E-03
   285 -6.091795132E-03
   286  1.853013157E-02
   287  2.359146150E-02
   288 -2.677436229E-03
   289 -3.652849700E-03
   290 -1.176654132E-03
   291  3.464539676E-03
   292 -5.605276129E-03
   293  1.728316673E-02
   294  2.162227058E-02
   295  9.968101171E-04
   296  3.245025635E-03
   297  6.958512313E-04
   298 -3.840278502E-03
   299  1.855350467E-03
   300  1.721976079E-02
   301  2.150735820E-02
   302 -2.639621995E-03
   303 -1.314755509E-03
   304 -2.049337522E-03
   305 -4.151949982E-03
   306 -7.068323755E-03
   307  1.705897091E-02
   308  2.173725732E-02
   309 -2.803364465E-03
   310 -1.375475063E-04
   311  4.347070666E-03
   312 -2.062395185E-03
   313 -6.075405269E-03
   314  1.573173386E-02
   315  1.970820384E-02
   316 -4.764401992E-03
   317  4.294941077E-03
   318 -4.068726047E-04
   319  1.095627652E-03
   320 -4.675916066E-03
   321  1.573266930E-02
   322  1.968771397E-02
   323 -4.740660101E-03
   324  7.743260175E-04
   325  4.258537013E-03
   326 -1.032659845E-03
   327 -4.772742295E-03
   328  1.728062156E-02
   329  2.165361104E-02
   330  7.232677705E-04
   331  1.478911037E-03
   332  2.893825982E-03
   333  3.901751811E-03
   334  2.106723569E-03
   335  1.722326353E-02
   336  2.147811959E-02
   337 -2.348366733E-03
   338 -3.101734937E-03
   339  1.732042542E-04
   340  3.676526963E-03
   341 -7.513143457E-03
   342  1.706857301E-02
   343  2.170629944E-02
   344 -2.305250614E-03
   345 -4.583189327E-04
   346  4.748526723E-03
   347 -6.545066480E-04
   348 -6.061339561E-03
   349  8.647247095E-03
   350  9.978844597E-03
   351 -1.408713473E-03
   352 -1.103907837E-03
   353 -9.593694641E-04
   354 -1.700870303E-03
   355  5.002071296E-04
   356  8.647875642E-03
   357  9.979670286E-03
   358 -1.511323371E-03
   359 -1.796763861E-03
   360 -9.576508168E-05
   361  1.339172744E-03
   362  4.328083263E-04
   363  8.634514932E-03
   364  9.767102533E-03
   365 -1.600292115E-03
   366 -5.347806557E-04
   367  2.034939825E-03
   368 -6.999524010E-04
   369 -4.599063072E-04
   370  1.705935379E-02
   371  2.172148972E-02
   372 -2.583264155E-03
   373  4.120052773E-03
   374 -1.320532011E-03
   375  2.112483303E-03
   376 -5.495131660E-03
   377  1.721975780E-02
   378  2.148661551E-02
   379 -2.661212975E-03
   380 -2.392652725E-03
   381 -7.691586116E-04
   382  4.104572716E-03
   383 -7.642190701E-03
   384  8.646176604E-03
   385  9.970524122E-03
   386 -1.374944568E-03
   387 -1.246252541E-03
   388 -8.264333194E-04
   389  1.670778275E-03
   390  4.719647328E-04
   391  8.648026383E-03
   392  9.961065526E-03
   393 -1.324918103E-03
   394 -5.510500274E-04
   395 -1.688531687E-03
   396 -1.367215477E-03
   397  5.350340986E-04
   398  8.633077888E-03
   399  9.758022129E-03
   400 -1.515114899E-03
   401  1.806051523E-03
   402 -1.067432997E-03
   403  7.151636672E-04
   404 -6.494411440E-04
Ene=   -7.9260793002E-01
Spin= Alpha
Occup=   2.0000000
     1  5.549967320E-02
     2  8.575971308E-02
     3  1.122095258E-02
     4 -7.956990735E-03
     5  4.816582314E-03
     6 -2.234843568E-01
     7  1.794086498E-02
     8 -1.234420492E-02
     9  7.593518773E-03
    10 -1.432425017E-01
    11  6.261233693E-03
    12 -5.606120295E-03
    13  3.027836619E-03
    14 -7.477074919E-04
    15  1.671808290E-03
    16 -2.929813406E-04
    17  2.628170219E-03
    18 -2.359244408E-03
    19  4.550713579E-01
    20 -2.636815220E-02
    21 -3.248694903E-01
    22  8.617172766E-02
    23  3.414886822E-02
    24  5.265509898E-02
    25 -7.320281414E-03
    26 -6.110294967E-03
    27  1.574520649E-02
    28 -1.353607108E-01
    29 -1.380695159E-02
    30 -8.105229673E-03
    31  2.568955219E-02
    32 -8.022705639E-02
    33 -4.467886918E-03
    34  6.618561950E-04
    35  1.015256374E-02
    36 -2.702406952E-03
    37  4.878412694E-03
    38  9.998515570E-04
    39 -1.455341358E-03
    40 -1.683858562E-03
    41 -2.976110954E-01
    42 -1.967680182E-02
    43  5.112051071E-02
    44  2.775151241E-02
    45 -6.452025213E-06
    46 -1.020049461E-05
    47  1.913969210E-02
    48 -2.536808012E-02
    49  1.156895331E-02
    50  3.027666473E-05
    51  3.068212818E-02
    52 -4.066327132E-02
    53  1.854473699E-02
    54 -1.182132100E-05
    55  8.683985272E-03
    56 -1.148784353E-02
    57  5.235112941E-03
    58 -5.626421914E-05
    59 -2.653093281E-03
    60 -1.904749317E-03
    61 -8.631035560E-03
    62  2.428005846E-03
    63 -8.095330258E-03
    64 -4.231440850E-03
    65  8.577678546E-03
    66 -3.383658738E-03
    67  9.554511209E-06
    68  1.481939071E-05
    69  1.133120929E-02
    70 -1.501541141E-02
    71  6.850943013E-03
    72 -3.921963804E-05
    73  1.820232260E-02
    74 -2.411380658E-02
    75  1.100667364E-02
    76 -7.569404048E-06
    77  5.461228992E-03
    78 -7.324168404E-03
    79  3.336586864E-03
    80 -9.417908028E-04
    81  9.056595048E-04
    82  2.310369790E-03
    83  5.444145781E-03
    84 -2.118972785E-03
    85 -6.098917092E-03
    86 -2.764242449E-02
    87  3.481562196E-02
    88 -1.536355797E-02
    89 -3.414219615E-02
    90 -5.264432334E-02
    91  1.392350638E-02
    92 -2.628574037E-03
    93 -1.176033422E-02
    94  1.353239541E-01
    95  2.180311493E-02
    96 -2.474896846E-03
    97 -2.086934111E-02
    98  8.031838397E-02
    99  4.942509091E-03
   100 -1.308635858E-03
   101 -9.853149354E-03
   102  2.131330546E-03
   103 -4.994600740E-03
   104 -1.013567723E-04
   105  2.551971352E-03
   106  1.026955845E-03
   107  3.058837852E-01
   108 -2.610138076E-02
   109  9.376338125E-03
   110 -5.657630170E-02
   111 -5.550904557E-02
   112 -8.577408542E-02
   113  4.597294366E-03
   114 -1.299558190E-02
   115  4.736998270E-03
   116  2.235222826E-01
   117  6.992869738E-03
   118 -2.067318013E-02
   119  7.460861683E-03
   120  1.432193536E-01
   121  3.624801772E-03
   122 -7.539555414E-03
   123  2.966429707E-03
   124  7.869939753E-04
   125  2.070435084E-04
   126  1.639417645E-03
   127  3.483265586E-03
   128  6.374887587E-04
   129 -4.549238940E-01
   130  3.170042031E-01
   131 -5.890025272E-02
   132  8.872737056E-02
   133  1.004345003E-05
   134  1.596844068E-05
   135  4.116821873E-03
   136 -5.461264896E-03
   137  2.488503245E-03
   138 -5.171119172E-05
   139  5.577853595E-03
   140 -7.396976711E-03
   141  3.369497041E-03
   142  8.724882875E-05
   143  4.181249249E-03
   144 -5.530762414E-03
   145  2.532853350E-03
   146  8.420798340E-06
   147  4.837282119E-04
   148  3.456792695E-04
   149  1.571418753E-03
   150 -4.419341059E-04
   151  1.236215285E-03
   152  3.693665528E-03
   153 -5.017637224E-03
   154  2.205858990E-03
   155  8.423934339E-06
   156  1.306457027E-05
   157  1.133089991E-02
   158 -1.501701302E-02
   159  6.846710974E-03
   160 -3.565997343E-05
   161  1.820196455E-02
   162 -2.411849404E-02
   163  1.099285939E-02
   164  3.842712138E-06
   165  5.478130162E-03
   166 -7.313427319E-03
   167  3.327827102E-03
   168  1.017009060E-03
   169  2.523421509E-03
   170  1.530671936E-04
   171  5.718682671E-03
   172 -1.021698989E-03
   173 -4.453094818E-03
   174 -2.692279715E-02
   175  3.466746897E-02
   176 -1.656953479E-02
   177 -3.414284663E-02
   178 -5.264552463E-02
   179  7.599146601E-03
   180  5.227491741E-03
   181  1.593655557E-02
   182  1.353290980E-01
   183  1.110145457E-02
   184  1.082476848E-02
   185  2.601082137E-02
   186  8.028544213E-02
   187  3.646834610E-04
   188  4.361127090E-03
   189  1.020500365E-02
   190  2.857246418E-03
   191  2.211622447E-03
   192  4.413822195E-03
   193 -3.632342753E-04
   194  2.095389775E-03
   195  3.036159177E-01
   196 -4.525344554E-02
   197  3.300756865E-02
   198  2.797849903E-02
   199 -4.025822757E-02
   200 -6.203005760E-02
   201 -1.729274566E-02
   202  3.280955476E-03
   203 -4.879279021E-03
   204  1.596044156E-01
   205 -2.973100373E-02
   206  6.009201851E-03
   207 -8.492421559E-03
   208  8.410211469E-02
   209 -6.563269284E-03
   210  4.134968565E-04
   211 -1.619231753E-03
   212 -2.281187089E-03
   213  2.631413257E-03
   214 -5.436341182E-04
   215  4.374723086E-03
   216 -1.968910386E-03
   217 -2.024325169E-01
   218  3.618748520E-02
   219 -1.271256493E-02
   220  1.190031578E-02
   221  3.414447173E-02
   222  5.264830301E-02
   223 -9.977698163E-04
   224 -1.396500737E-02
   225 -1.194836275E-02
   226 -1.353418600E-01
   227 -3.105312563E-03
   228 -2.140033166E-02
   229 -2.118015794E-02
   230 -8.025141704E-02
   231  1.092947184E-04
   232 -5.008166122E-03
   233 -9.906668654E-03
   234 -2.270682345E-03
   235 -1.371002292E-03
   236 -4.792204244E-03
   237  1.622115211E-03
   238 -2.101230628E-03
   239 -2.978050110E-01
   240 -7.924555702E-04
   241  2.783543230E-02
   242 -5.480182327E-02
   243  4.024820157E-02
   244  6.201474802E-02
   245  1.539868243E-03
   246  1.759313922E-02
   247 -4.640334086E-03
   248 -1.595717661E-01
   249  2.287846947E-03
   250  3.034987560E-02
   251 -8.089825769E-03
   252 -8.399727032E-02
   253  1.429398773E-03
   254  6.403707403E-03
   255 -1.488109518E-03
   256  2.340843557E-03
   257  1.847741864E-04
   258  2.564264058E-03
   259  4.790864289E-03
   260 -6.111689704E-04
   261  2.059550563E-01
   262  2.173221758E-03
   263 -3.921757783E-02
   264  1.167516970E-02
   265 -2.360328735E-02
   266 -2.778165850E-02
   267  1.329985743E-03
   268 -5.184695410E-03
   269  1.138289355E-03
   270 -6.226287969E-04
   271  7.198575923E-03
   272 -2.034474666E-02
   273 -2.426483137E-02
   274 -1.480318176E-03
   275  1.020810229E-03
   276  2.105008798E-03
   277  4.199625819E-03
   278 -9.606725585E-03
   279  3.734383504E-06
   280 -5.763895429E-06
   281  1.766683391E-04
   282  9.619428823E-04
   283 -1.276734248E-03
   284  5.807486113E-04
   285 -1.807066967E-04
   286  6.035533092E-06
   287 -8.677273984E-06
   288  1.601719397E-04
   289  9.621897089E-04
   290 -1.275712539E-03
   291  5.826360348E-04
   292 -2.017066535E-04
   293 -4.573670447E-06
   294 -2.834373136E-05
   295  1.172540127E-04
   296  5.757087122E-04
   297 -7.660256871E-04
   298  3.520276593E-04
   299 -1.354791821E-04
   300  2.033883307E-02
   301  2.427218312E-02
   302  1.305371268E-03
   303 -5.275078942E-04
   304 -2.758069771E-03
   305 -3.900338706E-03
   306  9.664240505E-03
   307  2.359484345E-02
   308  2.777833948E-02
   309 -1.401383605E-03
   310  6.553442830E-04
   311  4.862223356E-03
   312 -2.115474802E-03
   313 -7.125006400E-03
   314 -3.268888944E-03
   315 -3.000502765E-03
   316  6.161592150E-04
   317 -6.037400701E-04
   318 -2.788871773E-04
   319 -5.868558820E-05
   320  5.908988307E-04
   321  3.256045135E-03
   322  2.983835064E-03
   323 -5.032606763E-04
   324  4.323097343E-04
   325  5.034929170E-04
   326 -4.438711213E-05
   327 -1.042058222E-03
   328 -3.169022419E-06
   329 -2.379862673E-05
   330  1.109628705E-04
   331  5.770644852E-04
   332 -7.675504673E-04
   333  3.475068027E-04
   334  2.556537130E-06
   335  2.033957359E-02
   336  2.427282185E-02
   337  1.359481968E-03
   338 -2.367336093E-03
   339 -4.708335307E-04
   340  4.156571246E-03
   341  9.698339743E-03
   342  2.360090689E-02
   343  2.777264732E-02
   344 -1.364864834E-03
   345  2.994709966E-04
   346  5.305857645E-03
   347 -5.538370963E-04
   348 -7.201215538E-03
   349  2.444025232E-02
   350  2.941201797E-02
   351 -5.656870760E-03
   352 -2.501838178E-03
   353 -2.778160403E-03
   354 -4.322667016E-03
   355 -5.624413716E-03
   356  2.444262759E-02
   357  2.941401479E-02
   358 -5.666546180E-03
   359 -4.331149829E-03
   360 -5.006338095E-04
   361  3.695436454E-03
   362 -5.614857817E-03
   363  2.577475774E-02
   364  3.064987033E-02
   365 -7.638515662E-03
   366 -9.874897226E-04
   367  5.474602888E-03
   368 -1.780422476E-03
   369 -3.815400155E-03
   370 -2.359682314E-02
   371 -2.777358031E-02
   372  1.302898110E-03
   373 -4.826415531E-03
   374  6.946564085E-04
   375 -2.184893273E-03
   376  7.223474759E-03
   377 -2.034004120E-02
   378 -2.425413767E-02
   379 -1.514138554E-03
   380  2.860480800E-03
   381 -1.823049267E-04
   382 -3.857903511E-03
   383 -9.634099264E-03
   384 -2.443396749E-02
   385 -2.941516987E-02
   386  5.670530556E-03
   387  3.413682312E-03
   388  1.719593863E-03
   389 -4.248392770E-03
   390  5.695195867E-03
   391 -2.443644715E-02
   392 -2.941352490E-02
   393  5.644565603E-03
   394  1.580779520E-03
   395  3.994078175E-03
   396  3.769560460E-03
   397  5.608224630E-03
   398 -2.576769708E-02
   399 -3.064574293E-02
   400  7.743358726E-03
   401 -4.981442123E-03
   402  2.437368750E-03
   403 -1.830215144E-03
   404  3.958690947E-03
Ene=   -7.8013896213E-01
Spin= Alpha
Occup=   2.0000000
     1 -3.615082807E-02
     2 -5.589104966E-02
     3  1.864289147E-02
     4  1.138349670E-02
     5  1.031618391E-03
     6  1.459971975E-01
     7  2.966914219E-02
     8  1.798094663E-02
     9  1.676175676E-03
    10  9.111647095E-02
    11  1.530325321E-02
    12  2.736433424E-03
    13  2.740322998E-03
    14 -2.852234039E-03
    15  2.697332223E-03
    16 -2.350712111E-03
    17  9.460219266E-04
    18 -3.738001264E-03
    19 -3.825596464E-01
    20 -1.041735727E-01
    21  7.454655133E-02
    22 -4.482941159E-02
    23  4.775061099E-03
    24  7.383666742E-03
    25  1.189296955E-02
    26  1.960516306E-02
    27 -9.667732031E-03
    28 -1.949233180E-02
    29  1.802147722E-02
    30  3.109860007E-02
    31 -1.624352849E-02
    32 -7.896415058E-03
    33  6.208343606E-03
    34  1.002165306E-02
    35 -8.758538548E-03
    36  2.729759644E-03
    37 -3.322631218E-03
    38 -2.824203758E-05
    39  5.879330584E-03
    40  4.629032539E-04
    41 -8.042459005E-02
    42 -9.107718166E-04
    43  1.410932859E-02
    44  1.735620832E-02
    45 -4.871142960E-02
    46 -7.517392605E-02
    47 -4.643473778E-03
    48 -3.525072850E-03
    49 -5.965222697E-05
    50  1.941109181E-01
    51 -1.022669373E-02
    52 -7.768106167E-03
    53 -1.304278565E-04
    54  1.027365553E-01
    55 -3.830454869E-03
    56 -2.916990176E-03
    57 -4.774921941E-05
    58 -2.572849892E-03
    59  1.958223328E-03
    60 -2.555267987E-03
    61 -8.889752339E-04
    62 -3.088604510E-03
    63  6.713128083E-01
    64 -9.402998007E-02
    65 -7.205465747E-02
    66 -1.006598837E-03
    67  4.259877504E-02
    68  6.579233001E-02
    69  6.818063927E-03
    70  1.171446602E-02
    71  1.440502883E-02
    72 -1.710943134E-01
    73  9.540603798E-03
    74  1.843205347E-02
    75  2.463653233E-02
    76 -9.986207446E-02
    77  1.604697981E-03
    78  8.258550893E-03
    79  1.541543407E-02
    80 -3.138542577E-03
    81 -2.513517317E-03
    82 -4.654785657E-03
    83  1.734517574E-03
    84 -2.986249942E-04
    85  2.647663880E-01
    86  4.182608360E-02
    87 -3.109541693E-03
    88 -7.489638149E-02
    89  4.782518915E-03
    90  7.394882270E-03
    91  2.465455350E-02
    92  2.682051967E-03
    93 -1.946593701E-03
    94 -1.951622430E-02
    95  3.915843649E-02
    96  3.072540369E-03
    97 -3.454009170E-03
    98 -8.001307515E-03
    99  1.412585534E-02
   100 -4.728220437E-04
   101 -3.936891965E-03
   102  1.987208748E-03
   103 -6.272268383E-03
   104 -9.764307339E-04
   105 -1.972854301E-03
   106  2.258553487E-03
   107 -8.217156382E-02
   108  5.673625680E-03
   109  6.099040065E-03
   110  2.093441918E-02
   111 -3.613381640E-02
   112 -5.586492438E-02
   113  1.596506898E-02
   114  1.493802520E-02
   115 -5.916415892E-04
   116  1.459315053E-01
   117  2.528384126E-02
   118  2.380555689E-02
   119 -9.814740652E-04
   120  9.102179181E-02
   121  6.690784098E-03
   122  1.403829593E-02
   123 -2.463236743E-03
   124 -2.876631327E-03
   125  1.544788017E-03
   126 -3.177778632E-03
   127 -2.801833688E-03
   128 -2.682967045E-03
   129 -3.800164824E-01
   130  3.903468553E-02
   131 -1.201473643E-01
   132  4.268819751E-02
   133  5.799833558E-02
   134  8.950835738E-02
   135 -1.094465759E-02
   136 -8.318308294E-03
   137 -1.327833901E-04
   138 -2.317650069E-01
   139 -2.012798375E-02
   140 -1.530204430E-02
   141 -2.490979441E-04
   142 -1.232292295E-01
   143 -4.861365111E-03
   144 -3.645476783E-03
   145 -1.471307782E-05
   146 -2.958969063E-03
   147  1.815037640E-03
   148 -2.328285909E-03
   149 -5.391944812E-04
   150 -1.829568931E-03
   151 -2.241703670E-01
   152 -1.523803066E-02
   153 -1.122357472E-02
   154  9.338285431E-05
   155  4.261096866E-02
   156  6.581152852E-02
   157  1.333360741E-02
   158  3.617007107E-03
   159 -1.415308140E-02
   160 -1.711534768E-01
   161  2.069434209E-02
   162  4.566668453E-03
   163 -2.426126573E-02
   164 -9.980439295E-02
   165  8.658667089E-03
   166 -4.252717016E-04
   167 -1.521112937E-02
   168 -2.970729636E-03
   169  5.220412396E-03
   170  1.268833554E-03
   171 -1.709249291E-03
   172  5.547498037E-04
   173  2.734432408E-01
   174  8.429914572E-03
   175  4.002292034E-02
   176  7.735132163E-02
   177  4.795331706E-03
   178  7.414040785E-03
   179  2.191327100E-02
   180  6.096058528E-03
   181  1.008958284E-02
   182 -1.955193349E-02
   183  3.452373957E-02
   184  8.841203654E-03
   185  1.689807962E-02
   186 -8.192106386E-03
   187  1.125664919E-02
   188  3.154581448E-03
   189  8.939376191E-03
   190  2.822080418E-03
   191  8.019531881E-04
   192  3.246305657E-03
   193 -4.775169906E-03
   194  3.366736750E-03
   195 -8.867812571E-02
   196  1.582564571E-02
   197 -5.317084604E-03
   198 -1.716848996E-02
   199 -3.053176524E-02
   200 -4.707815198E-02
   201 -1.047799144E-02
   202  5.722661668E-03
   203 -4.015631885E-03
   204  1.214659956E-01
   205 -1.861482993E-02
   206  9.529466697E-03
   207 -6.954313447E-03
   208  6.884025578E-02
   209 -5.670842271E-03
   210  1.468037291E-03
   211 -1.712456883E-03
   212 -1.466167293E-03
   213  1.911556042E-03
   214 -8.645548121E-04
   215  2.133195988E-03
   216 -2.433222975E-03
   217  2.947932563E-02
   218 -4.113574918E-03
   219  8.226458374E-03
   220 -3.109672866E-03
   221  4.779150632E-03
   222  7.389635368E-03
   223  9.140863679E-03
   224  2.302187582E-02
   225  2.375930392E-03
   226 -1.949813219E-02
   227  1.336881075E-02
   228  3.687358330E-02
   229  4.121631992E-03
   230 -8.025775544E-03
   231  3.234834876E-03
   232  1.376918983E-02
   233  4.161250838E-03
   234  2.182201318E-03
   235  2.618037241E-03
   236  5.722757879E-03
   237  2.883922119E-03
   238  7.956982908E-04
   239 -8.084540022E-02
   240  7.878856429E-03
   241  3.625480977E-03
   242 -2.061770515E-02
   243 -3.054469844E-02
   244 -4.709800314E-02
   245  2.647963347E-03
   246 -1.167916651E-02
   247  3.919018869E-03
   248  1.215190094E-01
   249  4.094291929E-03
   250 -2.057861281E-02
   251  6.772246520E-03
   252  6.882105041E-02
   253 -1.367024159E-04
   254 -5.838063708E-03
   255  1.636863879E-03
   256 -1.500877840E-03
   257  3.002648908E-04
   258 -2.021278879E-03
   259 -3.112977623E-03
   260 -9.560970570E-04
   261  2.647065358E-02
   262  6.652149327E-03
   263 -5.739183328E-03
   264  3.223782216E-03
   265 -4.922734137E-03
   266 -6.637984999E-03
   267  5.696551230E-03
   268 -5.854245125E-04
   269  1.441399047E-03
   270 -6.576436375E-04
   271 -9.913671279E-04
   272  5.940176369E-04
   273  1.045407004E-03
   274  3.873472187E-03
   275  6.421565272E-04
   276  7.159051462E-04
   277 -6.135800796E-04
   278 -5.145881914E-03
   279  3.276798703E-02
   280  3.902838924E-02
   281 -9.745282090E-03
   282 -2.185317073E-03
   283 -4.148205514E-03
   284 -5.480301103E-03
   285 -1.796780856E-03
   286  3.276819319E-02
   287  3.902508445E-02
   288 -9.752361965E-03
   289 -4.667364329E-03
   290 -1.061167043E-03
   291  5.394043429E-03
   292 -1.715200649E-03
   293 -2.714487170E-02
   294 -3.341160813E-02
   295  9.085962435E-04
   296 -3.615383069E-03
   297 -2.992911029E-04
   298  5.323808454E-03
   299  2.646500661E-02
   300  5.904748810E-04
   301  1.025805781E-03
   302  3.856099307E-03
   303  1.075960914E-03
   304  1.411290445E-04
   305 -3.495930845E-04
   306 -5.008175407E-03
   307 -4.929121137E-03
   308 -6.635246884E-03
   309  5.581146681E-03
   310  1.267861939E-03
   311 -1.015792623E-03
   312  4.639923960E-04
   313 -9.568657471E-04
   314 -3.669354325E-02
   315 -4.320295899E-02
   316  4.333926547E-03
   317 -7.851263992E-03
   318  1.693447595E-03
   319 -2.272821018E-03
   320  9.710824166E-03
   321 -3.669443730E-02
   322 -4.319325329E-02
   323  4.325715775E-03
   324 -5.032580871E-04
   325 -8.044551165E-03
   326  2.167784883E-03
   327  9.760392613E-03
   328 -2.715630238E-02
   329 -3.339466621E-02
   330  7.247215106E-04
   331 -1.170536384E-03
   332 -3.338228162E-03
   333 -5.384399288E-03
   334  2.690442322E-02
   335  5.825743694E-04
   336  1.014230776E-03
   337  3.875744897E-03
   338  8.538175240E-04
   339  4.196997266E-04
   340  6.302821314E-04
   341 -5.328251597E-03
   342 -4.936605498E-03
   343 -6.655848176E-03
   344  5.717772455E-03
   345  1.221852400E-03
   346 -9.595842901E-04
   347  6.663752392E-04
   348 -9.016126565E-04
   349  2.014774176E-02
   350  2.387012009E-02
   351 -1.901407150E-03
   352 -1.799471988E-03
   353 -2.054297376E-03
   354 -3.541854449E-03
   355 -8.265780742E-04
   356  2.014862659E-02
   357  2.385905308E-02
   358 -1.847073557E-03
   359 -3.295133490E-03
   360 -1.909296337E-04
   361  3.016719367E-03
   362 -7.039872448E-04
   363  1.786538483E-02
   364  2.178253178E-02
   365 -4.010944381E-03
   366 -7.081846804E-04
   367  3.986862230E-03
   368 -1.294140719E-03
   369 -4.290689951E-03
   370 -4.924840628E-03
   371 -6.633950378E-03
   372  5.557299924E-03
   373 -6.320999516E-04
   374  1.498713110E-03
   375 -4.549264934E-04
   376 -8.395258314E-04
   377  5.882264705E-04
   378  1.049032886E-03
   379  3.736154891E-03
   380  4.179843058E-04
   381  9.946533368E-04
   382  3.692342249E-04
   383 -5.076174585E-03
   384  2.015566559E-02
   385  2.388183562E-02
   386 -1.942916244E-03
   387 -2.517564529E-03
   388 -1.227943779E-03
   389  3.489113408E-03
   390 -6.874271481E-04
   391  2.015604229E-02
   392  2.388308431E-02
   393 -1.977575597E-03
   394 -1.017042378E-03
   395 -3.089360333E-03
   396 -3.072858843E-03
   397 -7.459481424E-04
   398  1.787261093E-02
   399  2.180610967E-02
   400 -4.132063258E-03
   401  3.633297479E-03
   402 -1.766396140E-03
   403  1.331311658E-03
   404 -4.275169454E-03
Ene=   -7.6664074872E-01
Spin= Alpha
Occup=   2.0000000
     1 -6.446415542E-06
     2 -9.927602542E-06
     3  6.150944729E-03
     4 -7.640085351E-03
     5 -2.692743097E-02
     6  1.965803094E-05
     7  9.729806453E-03
     8 -1.207989988E-02
     9 -4.259248045E-02
    10  8.936453319E-05
    11  5.476454209E-03
    12 -6.855594910E-03
    13 -2.402230716E-02
    14 -1.017147356E-03
    15  5.117210760E-03
    16  5.913265537E-03
    17 -2.862159050E-03
    18  2.491381561E-05
    19  5.203612051E-03
    20 -1.601606027E-02
    21  1.885061715E-02
    22  7.031601385E-02
    23  4.329795060E-02
    24  6.687060173E-02
    25 -1.737587874E-03
    26  1.578916719E-02
    27 -1.100555594E-02
    28 -1.736260222E-01
    29 -3.237776881E-03
    30  2.716792393E-02
    31 -1.592205580E-02
    32 -9.040596524E-02
    33  2.260371727E-03
    34  9.495076315E-03
    35 -7.043326362E-03
    36  3.072164201E-03
    37 -6.832787703E-04
    38  3.535328963E-03
    39  4.271335768E-03
    40  4.689732726E-04
    41 -2.672228440E-01
    42 -2.553690506E-02
    43  2.331365702E-02
    44  1.549630806E-02
    45 -6.253390022E-06
    46 -1.018524993E-05
    47  2.356444996E-03
    48 -2.929311936E-03
    49 -1.032417436E-02
    50  3.882404090E-05
    51  3.319052719E-03
    52 -4.125962358E-03
    53 -1.454714211E-02
    54 -1.301049610E-04
    55 -2.610908216E-04
    56  3.845597823E-04
    57  1.345093499E-03
    58  4.473242837E-05
    59  2.034483986E-03
    60  1.558456382E-03
    61 -9.065856263E-04
    62  2.242664240E-04
    63 -4.410650686E-05
    64  7.013100603E-03
    65 -8.591626848E-03
    66 -2.739773802E-02
    67  5.651428853E-02
    68  8.731523122E-02
    69 -1.066013686E-02
    70 -1.116348476E-02
    71 -6.826936535E-03
    72 -2.273048328E-01
    73 -1.910635974E-02
    74 -1.827520828E-02
    75 -8.451141619E-03
    76 -1.335884430E-01
    77 -1.658479020E-02
    78 -9.752125530E-03
    79  6.083440728E-03
    80  4.477207998E-03
    81 -2.343634593E-03
    82  2.918262631E-03
    83  3.578614633E-04
    84  1.102352741E-03
    85  3.298542281E-01
    86  7.734940709E-02
    87  3.324538020E-02
    88 -5.448103611E-02
    89  4.329616035E-02
    90  6.686807865E-02
    91  1.703914679E-02
    92 -9.100165369E-03
    93  3.500125689E-04
    94 -1.736273334E-01
    95  2.806484922E-02
    96 -1.432310411E-02
    97  3.005878786E-03
    98 -9.031877862E-02
    99  1.161327111E-02
   100 -2.878616239E-03
   101 -1.425274055E-03
   102  3.343973487E-03
   103 -2.795488216E-03
   104  1.473000375E-03
   105 -3.422017854E-03
   106  2.826894613E-03
   107 -2.695869293E-01
   108  4.647636541E-03
   109 -1.649638110E-02
   110  3.420280349E-02
   111 -1.176645318E-06
   112 -1.832150125E-06
   113  6.151350490E-03
   114 -7.638899243E-03
   115 -2.692746532E-02
   116  2.255518071E-06
   117  9.728238631E-03
   118 -1.208106379E-02
   119 -4.259145132E-02
   120  4.981406187E-05
   121  5.495590106E-03
   122 -6.823481589E-03
   123 -2.401712433E-02
   124  1.281574349E-03
   125  7.010984049E-03
   126  3.377280318E-03
   127 -2.539279438E-03
   128  1.313676254E-03
   129  2.424033351E-03
   130 -1.654259512E-02
   131  1.859644726E-02
   132  7.106391074E-02
   133  4.189725614E-06
   134  6.592606798E-06
   135  7.254221969E-03
   136 -9.016202376E-03
   137 -3.176953526E-02
   138 -2.102210810E-05
   139  1.150340600E-02
   140 -1.430147595E-02
   141 -5.039302384E-02
   142  4.304544922E-05
   143  4.939941695E-03
   144 -6.076308696E-03
   145 -2.144418637E-02
   146 -1.742779631E-04
   147 -7.973483118E-03
   148 -6.108113336E-03
   149  3.551428098E-03
   150 -8.805478484E-04
   151  6.829598414E-04
   152 -7.629730161E-04
   153  1.528280555E-03
   154  5.267074697E-03
   155 -5.650620536E-02
   156 -8.730302082E-02
   157  1.371329973E-02
   158  7.368986112E-03
   159 -6.523999648E-03
   160  2.272813217E-01
   161  2.285135370E-02
   162  1.362430363E-02
   163 -7.926466580E-03
   164  1.334573960E-01
   165  1.371692831E-02
   166  1.329103110E-02
   167  6.413373427E-03
   168 -4.480020573E-03
   169  2.292100538E-03
   170 -2.959678640E-03
   171 -3.351408602E-04
   172 -1.107735594E-03
   173 -3.322571518E-01
   174 -5.247030751E-02
   175 -6.537322231E-02
   176 -5.624222121E-02
   177 -4.329437848E-02
   178 -6.686557077E-02
   179 -1.456842243E-02
   180  6.031190007E-03
   181 -1.116361008E-02
   182  1.736229324E-01
   183 -2.504717505E-02
   184  1.057708891E-02
   185 -1.618663065E-02
   186  9.029546287E-02
   187 -9.704341790E-03
   188  4.356748953E-04
   189 -7.272662644E-03
   190 -3.016471977E-03
   191  3.330315366E-03
   192 -1.622997251E-03
   193  3.347560365E-03
   194 -2.617232366E-03
   195  2.662131424E-01
   196 -1.620665220E-02
   197  3.097797590E-02
   198  1.457954215E-02
   199 -3.506052871E-06
   200 -5.550768740E-06
   201  9.183238755E-04
   202 -1.141923001E-03
   203 -4.025935665E-03
   204  1.807818217E-05
   205  1.353442280E-03
   206 -1.680675161E-03
   207 -5.938376087E-03
   208 -4.186664372E-05
   209  3.223666142E-04
   210 -3.913359354E-04
   211 -1.301466701E-03
   212  6.693797532E-04
   213  1.190855348E-03
   214 -2.204991599E-04
   215 -1.972977246E-04
   216  4.387711747E-04
   217 -7.389031499E-04
   218  1.175355224E-03
   219 -1.458549137E-03
   220 -4.424972600E-03
   221 -4.329658701E-02
   222 -6.686930249E-02
   223  4.209813470E-03
   224 -1.885324314E-02
   225  1.892088542E-04
   226  1.736426672E-01
   227  6.253589013E-03
   228 -3.089527729E-02
   229  2.733973861E-03
   230  9.020062742E-02
   231 -3.221952684E-04
   232 -1.203800260E-02
   233 -1.625381767E-03
   234 -3.389109693E-03
   235  6.857774748E-04
   236 -2.974625890E-03
   237 -4.437153923E-03
   238 -6.191114065E-04
   239  2.647285935E-01
   240  1.389268463E-02
   241 -1.016073782E-02
   242  3.306544799E-02
   243 -4.034411472E-06
   244 -6.544371629E-06
   245  9.195009603E-04
   246 -1.143212053E-03
   247 -4.025196142E-03
   248  2.355961304E-05
   249  1.356418333E-03
   250 -1.688717474E-03
   251 -5.933917062E-03
   252 -5.621409776E-05
   253  2.987406169E-04
   254 -3.339874488E-04
   255 -1.332329952E-03
   256 -6.397429876E-04
   257  1.137203225E-04
   258  1.220887009E-03
   259 -3.821746528E-04
   260 -2.946106598E-04
   261  7.723634615E-04
   262  1.108395104E-03
   263 -1.500246116E-03
   264 -4.430359749E-03
   265 -2.610960291E-02
   266 -3.064686236E-02
   267  6.218175337E-03
   268 -5.116791382E-03
   269  2.059971010E-03
   270 -2.142354647E-03
   271  7.143003077E-03
   272 -3.109393006E-02
   273 -3.708289576E-02
   274  7.754032863E-03
   275  1.688243409E-03
   276  4.616269511E-03
   277  4.662529467E-03
   278  2.491939188E-03
   279 -4.952011115E-03
   280 -7.798224391E-03
   281  2.551058779E-03
   282  7.916942204E-04
   283  7.533144388E-04
   284  3.418985346E-04
   285  1.056542111E-02
   286  4.961448627E-03
   287  7.819865006E-03
   288 -2.654881072E-03
   289 -9.445189735E-04
   290 -5.655305711E-04
   291  3.226764661E-04
   292 -1.047655557E-02
   293 -3.844630221E-02
   294 -4.888029815E-02
   295 -2.229501023E-03
   296 -6.041533774E-03
   297 -1.608400183E-03
   298  6.469661677E-03
   299  2.362417596E-02
   300 -3.108976755E-02
   301 -3.708841347E-02
   302  7.844836158E-03
   303  2.720785020E-03
   304  3.248463098E-03
   305  5.286124165E-03
   306  2.353093641E-03
   307 -2.610757767E-02
   308 -3.065838425E-02
   309  6.344767051E-03
   310  7.397121444E-04
   311 -5.702397997E-03
   312  1.398449703E-03
   313  7.263338360E-03
   314 -3.063008375E-06
   315 -7.072825086E-06
   316  5.414674696E-05
   317  3.238707855E-04
   318 -4.041039989E-04
   319 -1.422792554E-03
   320  3.039733440E-04
   321 -1.749665424E-06
   322 -4.257542878E-06
   323 -6.328989605E-06
   324  3.245212402E-04
   325 -4.044566637E-04
   326 -1.422445257E-03
   327 -9.172744059E-05
   328  3.844222290E-02
   329  4.887749376E-02
   330  2.266879619E-03
   331  3.060975111E-03
   332  5.312139667E-03
   333  6.584007652E-03
   334 -2.404836820E-02
   335  3.109026187E-02
   336  3.708475053E-02
   337 -7.816350142E-03
   338 -4.972558788E-03
   339 -4.485684365E-04
   340  4.578773518E-03
   341 -2.676026978E-03
   342  2.610908478E-02
   343  3.064329209E-02
   344 -6.161943012E-03
   345 -5.821459288E-04
   346  5.507317013E-03
   347 -2.085774081E-03
   348 -6.745864332E-03
   349 -2.106968959E-03
   350 -1.695346917E-03
   351 -4.829175333E-04
   352  9.870663915E-05
   353  2.060791552E-04
   354  5.244143347E-05
   355 -6.954075119E-04
   356  2.114184269E-03
   357  1.695919873E-03
   358  5.313674770E-04
   359 -1.351312605E-04
   360 -1.612474812E-04
   361  1.045075666E-04
   362  8.266895142E-04
   363  3.887095793E-07
   364  1.283604360E-05
   365 -1.081711326E-04
   366  6.430936793E-05
   367 -7.839616629E-05
   368 -2.798809837E-04
   369 -2.051081080E-04
   370  2.610756354E-02
   371  3.065644163E-02
   372 -6.235417212E-03
   373  5.275058823E-03
   374 -2.254722872E-03
   375  1.456197241E-03
   376 -7.281229772E-03
   377  3.109291262E-02
   378  3.708220199E-02
   379 -7.732968525E-03
   380 -3.942402411E-03
   381 -1.815417772E-03
   382  5.202748706E-03
   383 -2.343847453E-03
   384  2.112706879E-03
   385  1.700458662E-03
   386  4.220393566E-04
   387 -2.260611599E-04
   388 -4.042715924E-05
   389  4.939419812E-05
   390  7.196415253E-04
   391 -2.108018266E-03
   392 -1.692519271E-03
   393 -5.515002314E-04
   394  1.898455610E-04
   395  8.516293523E-05
   396  1.073523921E-04
   397 -7.087230023E-04
   398  3.203940948E-06
   399  3.742456811E-06
   400 -6.757754210E-05
   401  6.459196666E-05
   402 -7.894827696E-05
   403 -2.794909349E-04
   404  1.338115083E-04
Ene=   -6.8132385372E-01
Spin= Alpha
Occup=   2.0000000
     1 -3.063224379E-03
     2 -4.731927242E-03
     3  2.362209537E-02
     4 -4.582769746E-02
     5  1.838535845E-02
     6  1.229318346E-02
     7  3.686229526E-02
     8 -6.881658499E-02
     9  2.792686105E-02
    10 -1.589261663E-03
    11  1.871215622E-02
    12 -5.057161883E-02
    13  1.860720245E-02
    14  1.491422932E-03
    15  2.438989044E-03
    16  3.047411813E-03
    17  1.009532936E-02
    18 -2.790151083E-03
    19  1.820159653E-01
    20 -3.856998351E-02
    21 -1.310535197E-02
    22 -4.377627837E-03
    23 -6.175160138E-03
    24 -9.597993434E-03
    25  1.013406544E-02
    26 -6.799880601E-03
    27  3.629566115E-03
    28  2.590456878E-02
    29  1.485570861E-02
    30 -1.007551816E-02
    31  5.026902755E-03
    32  1.528158665E-02
    33  4.997557790E-03
    34 -6.025997249E-03
    35  1.693003532E-03
    36 -5.823601299E-04
    37 -8.946820665E-04
    38  1.306878878E-03
    39  1.889651409E-03
    40 -2.100879854E-03
    41 -7.634184011E-02
    42  3.042116735E-04
    43  2.489310503E-02
    44  1.072230981E-02
    45 -4.812542033E-02
    46 -7.471085606E-02
    47 -7.507255575E-03
    48 -5.713343169E-03
    49 -9.438566294E-05
    50  1.992087279E-01
    51 -1.222353911E-02
    52 -9.298583903E-03
    53 -1.548699413E-04
    54  1.013012352E-01
    55 -1.696691023E-04
    56 -1.792754299E-04
    57  1.809874010E-05
    58 -2.445784406E-05
    59 -8.141703518E-04
    60  1.126778139E-03
    61  9.103884163E-04
    62  3.230910307E-03
    63  1.028190462E-01
    64  7.060702596E-03
    65  3.934574211E-03
    66  4.160475964E-04
    67  2.149030021E-03
    68  3.251141770E-03
    69  1.412761683E-02
    70  1.384843199E-02
    71  6.984693609E-03
    72 -6.602118684E-03
    73  2.157160407E-02
    74  2.151125844E-02
    75  1.146946337E-02
    76 -1.792132374E-02
    77  2.015244887E-03
    78  8.135425155E-03
    79  1.447837730E-02
    80 -2.412807721E-03
    81 -1.364719838E-03
    82 -3.373262414E-03
    83  1.015922014E-03
    84 -5.771996852E-04
    85  1.958925603E-02
    86 -1.484388448E-02
    87 -3.230297181E-03
    88  1.894622891E-02
    89 -6.175369389E-03
    90 -9.598069209E-03
    91 -3.533292643E-03
    92  1.132137074E-02
    93 -4.628658595E-03
    94  2.589792575E-02
    95 -5.161224193E-03
    96  1.645856379E-02
    97 -7.066477480E-03
    98  1.535866313E-02
    99 -3.939329319E-03
   100  5.865468524E-03
   101 -3.749306320E-03
   102  1.664390923E-03
   103 -2.739649914E-04
   104 -2.099969483E-03
   105 -1.863035970E-03
   106  3.206150826E-04
   107 -7.536725128E-02
   108  1.800650177E-02
   109  3.083745003E-03
   110  2.046542451E-02
   111 -3.064498617E-03
   112 -4.734030924E-03
   113 -3.752046313E-02
   114  3.524808239E-02
   115 -1.855847270E-02
   116  1.230502524E-02
   117 -5.596613473E-02
   118  5.427411763E-02
   119 -2.816166438E-02
   120 -1.653379854E-03
   121 -4.339017613E-02
   122  3.177465807E-02
   123 -1.892642936E-02
   124  1.355211094E-03
   125 -3.751350354E-03
   126 -1.399814232E-03
   127 -1.004611171E-02
   128  2.876184863E-03
   129  1.780220220E-01
   130 -2.345927817E-02
   131 -3.451810270E-02
   132  4.532077497E-03
   133  2.799449109E-02
   134  4.341036158E-02
   135  4.599001219E-03
   136  3.501884413E-03
   137  5.686428388E-05
   138 -1.150005772E-01
   139  6.468622215E-03
   140  4.926155570E-03
   141  8.329266635E-05
   142 -5.665137029E-02
   143  6.853087121E-03
   144  5.205201707E-03
   145  4.842979901E-05
   146 -5.497414049E-04
   147 -5.284285887E-05
   148  1.036979231E-04
   149  3.294718168E-04
   150  1.183516082E-03
   151  4.733226241E-02
   152  2.526346760E-02
   153  1.937415341E-02
   154  1.360811618E-04
   155  2.149265900E-03
   156  3.251454493E-03
   157  1.721921993E-02
   158  1.000954012E-02
   159 -6.597978142E-03
   160 -6.599936769E-03
   161  2.665701620E-02
   162  1.519653033E-02
   163 -1.087436503E-02
   164 -1.796802420E-02
   165  8.604550298E-03
   166 -6.446089325E-05
   167 -1.437724109E-02
   168 -2.302713878E-03
   169  3.660288425E-03
   170  4.778607589E-04
   171 -1.225698289E-03
   172 -2.142883698E-05
   173  1.392795494E-02
   174 -6.532586521E-03
   175 -1.486250108E-02
   176 -1.957903064E-02
   177 -6.154913619E-03
   178 -9.566140494E-03
   179 -3.780916020E-03
   180  1.162952170E-02
   181 -3.551635705E-03
   182  2.580885932E-02
   183 -5.651352967E-03
   184  1.707496412E-02
   185 -4.914525764E-03
   186  1.535509985E-02
   187 -4.446947747E-03
   188  6.464402588E-03
   189 -1.667017676E-03
   190 -5.858057780E-04
   191 -1.055873366E-03
   192  1.243471888E-03
   193 -2.670009132E-03
   194 -8.342485342E-04
   195 -7.361616618E-02
   196  2.455575086E-02
   197 -5.618319858E-03
   198 -9.766082581E-03
   199  6.512986198E-02
   200  1.009776273E-01
   201 -6.267012427E-03
   202  6.965816505E-03
   203 -3.403713037E-03
   204 -2.672168814E-01
   205 -5.347359860E-03
   206  9.071677649E-03
   207 -3.790513082E-03
   208 -1.445032769E-01
   209 -1.631444204E-02
   210  6.618768670E-03
   211 -5.599798318E-03
   212 -2.974591415E-04
   213  6.217935683E-04
   214 -5.492363392E-04
   215  6.892861428E-05
   216 -1.484240649E-03
   217 -1.445944384E-01
   218  3.461567908E-02
   219 -6.386769504E-03
   220  9.678851292E-03
   221 -6.197444367E-03
   222 -9.632290058E-03
   223  9.884306499E-03
   224 -6.490476398E-03
   225  4.709408157E-03
   226  2.598946118E-02
   227  1.436156660E-02
   228 -9.461875452E-03
   229  7.183913986E-03
   230  1.539550276E-02
   231  4.509924382E-03
   232 -5.467361362E-03
   233  3.752397252E-03
   234  1.715660354E-03
   235  2.068504557E-03
   236 -3.665075007E-04
   237  1.724292522E-03
   238 -7.054661005E-04
   239 -7.085063801E-02
   240  7.681207940E-03
   241  1.557926324E-02
   242 -1.950995402E-02
   243  6.516755986E-02
   244  1.010360307E-01
   245  4.979450339E-03
   246 -7.948310134E-03
   247  3.388486784E-03
   248 -2.673675283E-01
   249  7.244739660E-03
   250 -7.633354872E-03
   251  3.814522645E-03
   252 -1.446488177E-01
   253  1.936623824E-03
   254 -1.751770417E-02
   255  5.418218438E-03
   256 -3.037736400E-04
   257  3.434273222E-04
   258 -7.492911352E-04
   259 -8.385755749E-04
   260 -1.227630071E-03
   261 -1.433353946E-01
   262  3.359750187E-03
   263  3.464246135E-02
   264 -9.134732535E-03
   265 -2.975070159E-03
   266 -2.865241031E-03
   267  4.178635595E-03
   268  1.269249680E-05
   269 -1.336635058E-04
   270  1.409264632E-04
   271  1.099030958E-03
   272  5.596027427E-03
   273  7.754577260E-03
   274  4.257118985E-04
   275  2.363416977E-04
   276 -1.199747828E-03
   277 -8.023502807E-04
   278 -2.345915390E-03
   279  3.378464793E-02
   280  4.296721945E-02
   281 -7.599286126E-03
   282 -2.446425305E-03
   283 -4.165206451E-03
   284 -5.083601348E-03
   285 -5.064126591E-03
   286  3.378689679E-02
   287  4.296716932E-02
   288 -7.573123204E-03
   289 -4.747799964E-03
   290 -1.304934634E-03
   291  4.993757142E-03
   292 -5.143914042E-03
   293 -4.568309560E-03
   294 -6.950206108E-03
   295 -3.757486566E-03
   296 -1.483724352E-04
   297  4.403795267E-04
   298  1.211096414E-03
   299 -1.520551844E-02
   300  5.600186826E-03
   301  7.763577370E-03
   302  3.593855646E-04
   303 -6.226934589E-04
   304 -6.100823313E-05
   305 -1.322116222E-03
   306 -2.454927662E-03
   307 -2.974716087E-03
   308 -2.871322665E-03
   309  4.149224136E-03
   310 -1.634786249E-04
   311  9.910347139E-05
   312  3.534684780E-05
   313  1.351643780E-03
   314 -2.417644487E-02
   315 -2.935385580E-02
   316  3.398748957E-03
   317 -4.009487527E-03
   318  1.255666279E-03
   319 -1.271374905E-03
   320  1.202825440E-02
   321 -2.418084211E-02
   322 -2.935713971E-02
   323  3.408840086E-03
   324  1.175665504E-04
   325 -4.214663297E-03
   326  1.223000348E-03
   327  1.206430424E-02
   328 -4.567848164E-03
   329 -6.959812549E-03
   330 -3.656203941E-03
   331  4.031842275E-04
   332 -2.458189874E-04
   333 -1.208571211E-03
   334 -1.539722243E-02
   335  5.581778464E-03
   336  7.734094945E-03
   337  4.208469984E-04
   338 -1.102918419E-03
   339  5.398052484E-04
   340  7.886053469E-04
   341 -2.311654732E-03
   342 -2.993849120E-03
   343 -2.882962409E-03
   344  4.115068907E-03
   345 -1.229699048E-04
   346  4.613168802E-05
   347 -1.413225225E-04
   348  1.039285328E-03
   349 -5.147927763E-02
   350 -6.498561935E-02
   351  1.048083397E-02
   352  2.910845859E-03
   353  5.968286155E-03
   354  7.605917918E-03
   355  1.703403175E-03
   356 -5.148357422E-02
   357 -6.498971129E-02
   358  1.047853354E-02
   359  6.390066683E-03
   360  1.636468793E-03
   361 -7.644958724E-03
   362  1.698872432E-03
   363 -5.602400009E-02
   364 -6.980048051E-02
   365  8.920422158E-03
   366  9.363615274E-05
   367 -1.019422308E-02
   368  2.917561115E-03
   369  1.668409271E-03
   370 -2.956110529E-03
   371 -2.835708496E-03
   372  4.052567424E-03
   373  5.593814163E-05
   374 -1.848703603E-04
   375 -3.572139249E-05
   376  1.114747897E-03
   377  5.615577282E-03
   378  7.787291747E-03
   379  3.640541945E-04
   380 -2.485952181E-04
   381 -6.001406043E-04
   382  1.313464017E-03
   383 -2.229535302E-03
   384 -5.151217890E-02
   385 -6.501370446E-02
   386  1.032270342E-02
   387  6.652695138E-03
   388  1.301007374E-03
   389 -7.490758712E-03
   390  1.758774042E-03
   391 -5.151643445E-02
   392 -6.501950756E-02
   393  1.030583585E-02
   394  3.164434910E-03
   395  5.629829701E-03
   396  7.769583185E-03
   397  1.753200348E-03
   398 -5.605347775E-02
   399 -6.982973498E-02
   400  8.826455274E-03
   401 -9.755581478E-03
   402  2.854369850E-03
   403 -3.040069155E-03
   404  1.851171762E-03
Ene=   -6.7685891034E-01
Spin= Alpha
Occup=   2.0000000
     1 -2.774648302E-03
     2 -4.215602430E-03
     3 -2.040944625E-02
     4 -4.138737864E-02
     5  7.081512264E-03
     6  9.148481305E-03
     7 -3.182738464E-02
     8 -6.198674014E-02
     9  1.031895714E-02
    10  8.893360605E-03
    11 -1.585116359E-02
    12 -5.931929541E-02
    13  1.322176303E-02
    14  5.992468561E-03
    15 -2.080999752E-03
    16  5.968061362E-03
    17  6.505317272E-03
    18  2.468829378E-03
    19  1.908394657E-01
    20 -1.413595495E-03
    21 -5.991924610E-02
    22  1.730295361E-02
    23 -3.463076149E-02
    24 -5.375264049E-02
    25 -6.441652972E-03
    26 -4.853181173E-03
    27 -3.702804483E-03
    28  1.431812769E-01
    29 -8.966801667E-03
    30 -7.706925114E-03
    31 -5.612323813E-03
    32  7.340454739E-02
    33 -6.198952649E-03
    34 -1.214032159E-03
    35  2.319374650E-03
    36  1.012161457E-03
    37 -8.028557265E-05
    38  2.041865931E-03
    39  4.233994357E-04
    40 -1.298157001E-05
    41 -5.299667594E-02
    42 -1.755214665E-02
    43  3.032347885E-02
    44 -5.063688451E-05
    45  1.831249399E-05
    46  2.838857451E-05
    47  4.290295601E-03
    48 -5.681760829E-03
    49  2.589873867E-03
    50 -7.591872855E-05
    51  6.086738464E-03
    52 -8.057949033E-03
    53  3.671333885E-03
    54 -1.148773434E-05
    55  4.817224464E-03
    56 -6.413182608E-03
    57  2.928235318E-03
    58  1.501221368E-05
    59  7.078536928E-04
    60  5.076025068E-04
    61  2.304359801E-03
    62 -6.496073104E-04
    63 -4.238898980E-03
    64 -2.474512391E-02
    65  3.394422188E-02
    66 -1.493458007E-02
    67 -2.933279252E-06
    68 -4.533462567E-06
    69 -2.002299842E-02
    70  2.652604941E-02
    71 -1.210043104E-02
    72  1.171703138E-05
    73 -3.140691023E-02
    74  4.161157832E-02
    75 -1.898172490E-02
    76  1.743730322E-05
    77 -1.238884833E-02
    78  1.637028908E-02
    79 -7.511517778E-03
    80  7.043784034E-04
    81 -1.455478168E-03
    82 -2.311497241E-03
    83 -6.640775449E-03
    84  2.316772276E-03
    85  3.806225937E-03
    86  4.057526231E-03
    87 -4.606415371E-03
    88  1.906527959E-03
    89  3.463216631E-02
    90  5.375462264E-02
    91  5.000793116E-03
    92  6.751550362E-03
    93  2.836016713E-03
    94 -1.431843262E-01
    95  7.589858207E-03
    96  9.516243872E-03
    97  4.790099081E-03
    98 -7.344290905E-02
    99  4.180363800E-03
   100  3.930203382E-03
   101 -3.561327308E-03
   102 -1.780233875E-03
   103 -1.277645941E-04
   104 -8.735645406E-04
   105  8.752243559E-04
   106 -8.185794788E-04
   107  5.298415312E-02
   108 -1.851925472E-02
   109  1.822815639E-02
   110 -2.287961968E-02
   111  2.777422861E-03
   112  4.219668819E-03
   113  4.524270671E-02
   114  8.481695082E-03
   115  7.915678826E-03
   116 -9.154328487E-03
   117  6.810081527E-02
   118  1.391966843E-02
   119  1.158843679E-02
   120 -8.937960928E-03
   121  6.124195623E-02
   122 -7.969858261E-04
   123  1.417408749E-02
   124 -5.922436646E-03
   125  5.364432815E-03
   126 -3.612268890E-03
   127  4.181364544E-03
   128 -5.476697214E-03
   129 -1.893226557E-01
   130  5.948600823E-02
   131 -1.356872399E-02
   132  1.633067284E-02
   133 -5.288607632E-06
   134 -8.470945435E-06
   135 -8.983095373E-03
   136  1.190243033E-02
   137 -5.425348920E-03
   138  2.870568853E-05
   139 -1.290152136E-02
   140  1.709162785E-02
   141 -7.787754656E-03
   142 -6.992153413E-05
   143 -6.172557815E-03
   144  8.133294941E-03
   145 -3.741738151E-03
   146 -1.566988529E-05
   147 -7.313764258E-04
   148 -5.260858105E-04
   149 -2.383209042E-03
   150  6.698020128E-04
   151 -2.724591322E-03
   152 -1.071531428E-02
   153  1.304280661E-02
   154 -6.120874180E-03
   155 -3.449796719E-07
   156 -4.817058000E-07
   157 -2.001722615E-02
   158  2.652552312E-02
   159 -1.209879290E-02
   160 -8.721413234E-07
   161 -3.140349198E-02
   162  4.161510051E-02
   163 -1.898177547E-02
   164  1.647469374E-05
   165 -1.235642307E-02
   166  1.635686786E-02
   167 -7.445210038E-03
   168 -7.910814439E-04
   169 -2.690163408E-03
   170 -6.637401402E-04
   171 -6.848206569E-03
   172  1.479335785E-03
   173  5.014006355E-04
   174  4.039063161E-03
   175 -5.723116739E-03
   176  2.727828881E-03
   177  3.462681742E-02
   178  5.374628889E-02
   179  6.460275827E-03
   180  4.946380860E-03
   181 -3.540971708E-03
   182 -1.431601630E-01
   183  9.921402344E-03
   184  6.636336717E-03
   185 -5.375786192E-03
   186 -7.344333510E-02
   187  2.794105307E-03
   188  5.622240793E-03
   189  2.420610436E-03
   190 -9.697037078E-04
   191  1.977628573E-03
   192 -6.110920127E-04
   193  3.327831859E-04
   194 -2.208179961E-04
   195  4.796667816E-02
   196 -2.369068551E-02
   197  2.393583585E-02
   198  1.668537956E-04
   199 -5.994938117E-02
   200 -9.297854229E-02
   201  1.013161188E-02
   202  1.584945698E-03
   203  1.860526895E-03
   204  2.466686843E-01
   205  1.143734415E-02
   206  3.171610819E-03
   207  1.710279602E-03
   208  1.274975736E-01
   209  1.929402653E-02
   210 -3.027011487E-03
   211  5.249333878E-03
   212  6.278699965E-04
   213 -5.069618350E-04
   214 -1.642827259E-04
   215 -1.473275877E-03
   216 -3.268633930E-04
   217  1.048149143E-01
   218 -2.728134135E-02
   219  1.237859128E-02
   220 -9.718819141E-03
   221 -3.462643463E-02
   222 -5.374587248E-02
   223 -7.892367981E-03
   224 -3.044281548E-03
   225  2.669638131E-03
   226  1.431633936E-01
   227 -1.128259766E-02
   228 -4.828145693E-03
   229  4.545564619E-03
   230  7.340878049E-02
   231 -4.826424217E-03
   232 -2.905123901E-03
   233 -3.657776597E-03
   234  1.756691941E-03
   235 -9.038763311E-04
   236  6.517088666E-05
   237  1.184270188E-03
   238  2.605538882E-04
   239 -4.573307365E-02
   240 -1.178460920E-02
   241  2.291642631E-02
   242 -2.087335830E-02
   243  5.990908704E-02
   244  9.291607080E-02
   245 -4.267769466E-03
   246 -9.354950018E-03
   247  1.678840355E-03
   248 -2.465023938E-01
   249 -6.147812918E-03
   250 -1.018836715E-02
   251  1.485029048E-03
   252 -1.274255572E-01
   253 -2.304397805E-03
   254 -1.943514544E-02
   255  5.003396002E-03
   256 -6.448203618E-04
   257 -2.806460680E-04
   258 -4.009338808E-04
   259 -1.094004722E-03
   260  1.050433742E-03
   261 -1.060761400E-01
   262 -4.461882836E-03
   263  3.005410606E-02
   264 -9.696331626E-03
   265  3.059665100E-02
   266  3.838355517E-02
   267 -5.409527617E-03
   268  5.233974926E-03
   269 -2.060130099E-03
   270  1.343774153E-03
   271 -6.525141567E-03
   272  2.251704795E-02
   273  2.803189206E-02
   274 -1.979739249E-03
   275 -1.539722599E-03
   276 -2.680217321E-03
   277 -3.483541552E-03
   278 -5.533097487E-03
   279 -1.500840689E-05
   280 -1.975537811E-05
   281  6.316190219E-05
   282  2.326588075E-04
   283 -3.054438133E-04
   284  1.418565516E-04
   285 -1.425969999E-04
   286 -1.074516401E-05
   287 -2.674610925E-05
   288  1.427030270E-04
   289  2.336343059E-04
   290 -3.066324045E-04
   291  1.379351509E-04
   292  1.748789639E-04
   293  3.300144277E-06
   294  1.683037549E-05
   295 -1.054643798E-04
   296 -9.112734461E-04
   297  1.209723926E-03
   298 -5.525161411E-04
   299  4.205261360E-05
   300 -2.251839632E-02
   301 -2.804392572E-02
   302  1.968206634E-03
   303  1.480275217E-03
   304  2.759101905E-03
   305  3.448566955E-03
   306  5.853131965E-03
   307 -3.059042168E-02
   308 -3.836787808E-02
   309  5.331766839E-03
   310  3.889994016E-04
   311 -5.390071702E-03
   312  2.056019340E-03
   313  6.532389997E-03
   314  7.957991800E-03
   315  8.909415169E-03
   316 -4.504961964E-03
   317  1.139763205E-03
   318  3.357480379E-04
   319  1.656106756E-04
   320 -3.240670474E-03
   321 -7.946668489E-03
   322 -8.907609511E-03
   323  4.643589055E-03
   324 -6.303421397E-04
   325 -1.008571420E-03
   326  1.424445656E-04
   327  3.103187097E-03
   328  5.693020607E-07
   329  3.129866077E-06
   330 -2.351711106E-05
   331 -9.123518315E-04
   332  1.208933559E-03
   333 -5.514376683E-04
   334 -5.704337949E-05
   335 -2.251118899E-02
   336 -2.804286540E-02
   337  2.142043434E-03
   338  3.049820589E-03
   339  8.080040146E-04
   340 -3.424665470E-03
   341  5.710674550E-03
   342 -3.059014201E-02
   343 -3.837517927E-02
   344  5.498815245E-03
   345  5.644202506E-04
   346 -5.608479982E-03
   347  1.285102439E-03
   348  6.189723847E-03
   349  5.054672196E-02
   350  6.389144729E-02
   351 -8.840552616E-03
   352 -2.582696352E-03
   353 -5.378670507E-03
   354 -7.652798839E-03
   355 -3.096740683E-03
   356  5.054606776E-02
   357  6.389386106E-02
   358 -8.895409227E-03
   359 -6.042557365E-03
   360 -1.069301452E-03
   361  7.517136424E-03
   362 -3.156557585E-03
   363  4.661134118E-02
   364  5.970288303E-02
   365 -8.339669779E-03
   366  2.166948047E-04
   367  8.924197615E-03
   368 -2.485556337E-03
   369  2.850384731E-03
   370  3.058821146E-02
   371  3.838370316E-02
   372 -5.557248165E-03
   373  5.056683099E-03
   374 -1.841945535E-03
   375  2.113812208E-03
   376 -6.063195951E-03
   377  2.251312597E-02
   378  2.805176740E-02
   379 -2.206416486E-03
   380 -3.109538198E-03
   381 -7.299737829E-04
   382  3.389415743E-03
   383 -5.502008699E-03
   384 -5.051607159E-02
   385 -6.384278467E-02
   386  8.799772399E-03
   387  5.989341569E-03
   388  1.141207653E-03
   389 -7.540338763E-03
   390  2.910250441E-03
   391 -5.051420868E-02
   392 -6.385128306E-02
   393  8.815075789E-03
   394  2.523678620E-03
   395  5.441307152E-03
   396  7.620091710E-03
   397  3.020437911E-03
   398 -4.657655994E-02
   399 -5.966055196E-02
   400  8.392311113E-03
   401 -8.610359214E-03
   402  2.207374135E-03
   403 -2.594655922E-03
   404 -2.826538421E-03
Ene=   -6.6673591093E-01
Spin= Alpha
Occup=   2.0000000
     1 -5.784220540E-05
     2 -9.009007635E-05
     3  6.966612164E-03
     4 -1.285671342E-02
     5 -4.469244626E-02
     6  2.397971315E-04
     7  1.096992941E-02
     8 -2.021640977E-02
     9 -7.026655312E-02
    10  2.062709162E-04
    11  5.426201626E-03
    12 -1.023898042E-02
    13 -3.564137082E-02
    14  1.102824011E-03
    15  8.113283798E-03
    16  5.871695897E-03
    17 -3.828157760E-03
    18  1.437346045E-03
    19  1.729562620E-03
    20  2.207709407E-04
    21  7.892339248E-05
    22 -5.909666122E-03
    23  5.271742988E-02
    24  8.193771788E-02
    25  6.238703218E-03
    26 -9.168235579E-03
    27 -4.817782439E-03
    28 -2.187276004E-01
    29  6.700366031E-03
    30 -1.017788540E-02
    31 -5.498785367E-03
    32 -1.325588991E-01
    33  8.560589745E-03
    34 -6.146316436E-03
    35 -2.503538583E-03
    36  1.672648171E-03
    37 -1.578341339E-04
    38 -5.381080429E-04
    39 -6.783919661E-04
    40 -1.755252720E-03
    41  1.362035672E-02
    42  7.303466032E-03
    43 -1.874188054E-02
    44 -1.932010495E-03
    45  4.263833520E-03
    46  6.627397547E-03
    47 -8.886402578E-04
    48 -6.749839787E-04
    49 -1.061843849E-05
    50 -1.768609206E-02
    51 -1.025762280E-03
    52 -7.800059608E-04
    53 -1.186932219E-05
    54 -1.024955566E-02
    55 -8.198117649E-04
    56 -6.387537459E-04
    57 -7.818709983E-06
    58  2.381387222E-03
    59  2.017691975E-03
    60 -2.698507773E-03
    61  3.593357779E-04
    62  1.419618438E-03
    63 -1.715647122E-03
    64  2.411371884E-04
    65 -9.610373844E-04
    66  3.909462681E-05
    67  5.535030524E-05
    68  8.590312235E-05
    69  2.715648081E-02
    70 -3.167618914E-02
    71  1.712712085E-02
    72 -2.176766986E-04
    73  4.303290712E-02
    74 -5.018995839E-02
    75  2.716281057E-02
    76 -3.011043175E-04
    77  1.698986744E-02
    78 -1.996410767E-02
    79  1.069003515E-02
    80 -4.419633953E-05
    81  3.166069202E-03
    82  1.255783023E-03
    83  9.893563418E-03
    84 -2.878854419E-03
    85 -2.245131761E-03
    86  1.695332219E-03
    87 -4.456815557E-03
    88  6.950965759E-04
    89 -5.715986210E-02
    90 -8.884256588E-02
    91  4.027874345E-03
    92 -4.299952536E-03
    93  1.163365157E-02
    94  2.371625329E-01
    95  4.520444380E-03
    96 -4.505378978E-03
    97  1.289823540E-02
    98  1.437674346E-01
    99  1.261201973E-03
   100 -6.537705857E-03
   101  9.332277780E-03
   102 -9.641913012E-04
   103  3.814259963E-04
   104 -1.207677387E-04
   105  4.748382572E-05
   106  1.847197051E-03
   107 -1.308633587E-02
   108  1.151602607E-02
   109 -6.585083085E-03
   110  1.559827156E-02
   111 -5.722094839E-05
   112 -8.928597162E-05
   113 -1.123714270E-02
   114  9.609894442E-03
   115  4.464088084E-02
   116  2.415343054E-04
   117 -1.766277782E-02
   118  1.512502916E-02
   119  7.018883038E-02
   120  1.343113840E-04
   121 -9.039319056E-03
   122  7.516440472E-03
   123  3.557782112E-02
   124  7.551776172E-04
   125 -7.796138164E-03
   126 -6.327262573E-03
   127  4.069900351E-03
   128 -5.449778636E-04
   129  1.880155860E-03
   130 -4.311033922E-03
   131  4.392485360E-04
   132  6.494178885E-03
   133  4.470982324E-03
   134  6.949122624E-03
   135  7.482738125E-04
   136  5.712882742E-04
   137  1.052903913E-05
   138 -1.856299161E-02
   139  7.861423802E-04
   140  6.026744070E-04
   141  1.308095642E-05
   142 -1.160654426E-02
   143  6.092960468E-04
   144  4.759672307E-04
   145 -1.880314008E-07
   146  2.395073485E-03
   147  1.957057032E-03
   148 -2.617611019E-03
   149  3.555921877E-04
   150  1.402980073E-03
   151 -3.587823757E-03
   152  5.990264856E-04
   153  4.148093344E-04
   154  3.147640729E-04
   155  5.600037074E-05
   156  8.708021696E-05
   157 -2.298940632E-02
   158  3.484973541E-02
   159 -1.707780756E-02
   160 -2.244422720E-04
   161 -3.642285943E-02
   162  5.521971832E-02
   163 -2.708400547E-02
   164 -2.718902331E-04
   165 -1.450147714E-02
   166  2.184357342E-02
   167 -1.065196696E-02
   168 -1.577512891E-04
   169 -2.180472229E-03
   170 -2.550086966E-03
   171 -9.960773918E-03
   172  2.699081918E-03
   173 -2.762023201E-03
   174 -3.901763885E-03
   175  1.918331392E-03
   176 -4.078068738E-04
   177  5.272312788E-02
   178  8.194625217E-02
   179 -7.240927806E-03
   180  8.407981741E-03
   181  4.802491391E-03
   182 -2.187422173E-01
   183 -8.102712273E-03
   184  9.112015425E-03
   185  5.480236955E-03
   186 -1.326978848E-01
   187 -3.620507897E-03
   188  9.860615691E-03
   189  2.525938972E-03
   190  1.687235984E-03
   191  4.869523462E-04
   192 -5.300271653E-05
   193 -3.314970466E-04
   194 -1.859164238E-03
   195  1.337020978E-02
   196 -1.515708766E-02
   197  1.241108667E-02
   198  1.799799475E-03
   199  2.040223455E-04
   200  3.167158153E-04
   201 -2.700326699E-03
   202  2.297194477E-03
   203  1.066993405E-02
   204 -8.461508105E-04
   205 -3.901497299E-03
   206  3.332657342E-03
   207  1.548536564E-02
   208 -4.418421953E-04
   209 -1.591429421E-03
   210  1.410866570E-03
   211  6.057470084E-03
   212 -1.220884723E-03
   213 -2.264048840E-03
   214  3.872025592E-04
   215  5.131300637E-04
   216 -6.716932856E-04
   217  1.501821807E-03
   218  2.035321282E-03
   219 -2.054753791E-03
   220 -9.275419502E-03
   221 -5.716203372E-02
   222 -8.884569328E-02
   223 -2.882718913E-03
   224  5.169566271E-03
   225 -1.161874709E-02
   226  2.371667060E-01
   227 -2.925418982E-03
   228  5.711434115E-03
   229 -1.287608233E-02
   230  1.438461784E-01
   231 -5.855350146E-03
   232  3.088926296E-03
   233 -9.363302767E-03
   234 -9.699616268E-04
   235  7.566639799E-05
   236 -3.636964328E-04
   237  9.057632060E-04
   238  1.612208667E-03
   239 -7.330149268E-03
   240 -3.186011605E-03
   241  1.271241200E-02
   242 -1.444698756E-02
   243  2.067698601E-04
   244  3.209835180E-04
   245  1.661627878E-03
   246 -3.086831062E-03
   247 -1.068130623E-02
   248 -8.549093990E-04
   249  2.414305600E-03
   250 -4.463353552E-03
   251 -1.550407720E-02
   252 -5.040460464E-04
   253  1.019074285E-03
   254 -1.803816411E-03
   255 -6.067743434E-03
   256 -1.165829326E-03
   257  2.482223495E-04
   258  2.313166483E-03
   259 -7.606486423E-04
   260 -3.506263700E-04
   261 -1.832835185E-03
   262 -1.474872156E-03
   263  2.906451883E-03
   264  9.102982407E-03
   265 -4.605942765E-02
   266 -5.417718088E-02
   267  2.243890430E-03
   268 -7.834579398E-03
   269  1.867185588E-03
   270 -2.769727668E-03
   271  4.200064024E-03
   272 -4.621103986E-02
   273 -5.651457450E-02
   274  7.672053497E-04
   275  2.803782258E-03
   276  4.708460227E-03
   277  6.729099137E-03
   278  8.731247296E-03
   279 -3.783989539E-03
   280 -4.559797897E-03
   281  5.714355563E-04
   282  1.402962684E-04
   283  4.141357925E-04
   284  5.466975920E-04
   285  7.026398543E-04
   286 -3.783885164E-03
   287 -4.564276941E-03
   288  5.845105647E-04
   289  4.454285793E-04
   290  3.138225001E-05
   291 -5.398332129E-04
   292  5.564544297E-04
   293 -5.102205865E-05
   294 -5.301828606E-05
   295  7.152380461E-05
   296  1.363018233E-03
   297 -1.592906880E-03
   298  8.719283127E-04
   299  5.520701014E-05
   300  5.006187181E-02
   301  6.105294087E-02
   302 -1.066050302E-03
   303 -2.591133855E-03
   304 -5.683679920E-03
   305 -7.019189405E-03
   306 -9.302040607E-03
   307  4.992301163E-02
   308  5.893049111E-02
   309 -2.476134285E-03
   310  1.698367210E-04
   311  9.011181254E-03
   312 -2.043791907E-03
   313 -4.617605077E-03
   314 -3.878807354E-03
   315 -4.667920391E-03
   316  1.684438853E-04
   317 -6.482772743E-04
   318  2.094651412E-04
   319 -2.588729474E-04
   320  4.766043576E-04
   321 -3.881277724E-03
   322 -4.656573829E-03
   323  9.271156439E-05
   324  2.358655470E-05
   325 -6.834950045E-04
   326  2.512857770E-04
   327  2.178367564E-04
   328 -5.157586831E-05
   329 -5.184039923E-05
   330  4.930821178E-05
   331 -1.157334286E-03
   332  1.750513304E-03
   333 -8.699926145E-04
   334  9.974679282E-05
   335 -4.621402464E-02
   336 -5.652123785E-02
   337  6.786622138E-04
   338  5.394128148E-03
   339  1.522233194E-03
   340 -6.626190246E-03
   341  8.384785510E-03
   342 -4.606582480E-02
   343 -5.417751227E-02
   344  2.230386990E-03
   345 -3.402326600E-04
   346 -8.081702797E-03
   347  2.667253714E-03
   348  4.457627153E-03
   349  5.434459421E-03
   350  5.477779784E-03
   351  9.791615754E-04
   352 -5.138201590E-04
   353 -5.718155702E-04
   354 -1.933573535E-04
   355  7.713128378E-03
   356 -6.241482815E-03
   357 -6.433017601E-03
   358 -7.779289490E-04
   359  6.795845574E-04
   360  3.723003101E-04
   361 -3.441566589E-04
   362 -8.285632743E-03
   363  2.852623469E-04
   364  2.787284380E-04
   365  3.577169016E-05
   366 -1.834080857E-04
   367  2.326129060E-04
   368  7.367763188E-04
   369  5.184345667E-04
   370  4.992309301E-02
   371  5.893953468E-02
   372 -2.586106410E-03
   373  8.694512315E-03
   374 -2.271792780E-03
   375  2.156371814E-03
   376 -4.969607443E-03
   377  5.006119606E-02
   378  6.106697963E-02
   379 -1.061748831E-03
   380 -6.280743848E-03
   381 -1.060945858E-03
   382  6.908354246E-03
   383 -8.953220261E-03
   384  5.431898655E-03
   385  5.476987984E-03
   386  9.558126899E-04
   387 -6.906753776E-04
   388 -3.448396249E-04
   389  1.778946471E-04
   390  7.700346687E-03
   391 -6.244138504E-03
   392 -6.420031547E-03
   393 -9.092592769E-04
   394  5.349897557E-04
   395  5.505545640E-04
   396  3.586170172E-04
   397 -8.367663436E-03
   398  2.824336790E-04
   399  2.739992780E-04
   400  7.449808547E-07
   401  1.861494471E-04
   402 -2.302014936E-04
   403 -7.367217334E-04
   404  7.377361185E-04
Ene=   -6.6668341184E-01
Spin= Alpha
Occup=   2.0000000
     1  8.354477685E-04
     2  1.301327668E-03
     3  4.535302814E-02
     4  4.285473879E-03
     5  5.681402916E-03
     6 -3.471184551E-03
     7  7.109973099E-02
     8  6.744557006E-03
     9  8.882585646E-03
    10 -2.642512888E-03
    11  3.808400589E-02
    12  3.626057362E-03
    13  4.937533551E-03
    14 -6.264515163E-03
    15  5.683091319E-03
    16 -2.968131225E-03
    17  4.135798289E-03
    18 -3.856309766E-03
    19 -6.258056311E-03
    20  4.178537939E-02
    21 -3.264934573E-03
    22  1.106954098E-02
    23  3.584569569E-02
    24  5.571529823E-02
    25  3.817748490E-03
    26 -6.145075665E-03
    27 -2.694247208E-03
    28 -1.487663583E-01
    29  4.021382324E-03
    30 -6.808888560E-03
    31 -2.683409737E-03
    32 -9.012038067E-02
    33  1.797376321E-03
    34 -4.661286683E-03
    35 -5.692867592E-03
    36 -2.707041392E-03
    37 -1.108889945E-03
    38  1.120041608E-03
    39  2.416322611E-04
    40  1.828178153E-03
    41  1.367547980E-02
    42  1.901948033E-03
    43 -8.093564801E-03
    44 -1.571117825E-02
    45 -6.139905978E-02
    46 -9.543720954E-02
    47  1.286252020E-02
    48  9.775541164E-03
    49  1.612622330E-04
    50  2.547262754E-01
    51  1.487642999E-02
    52  1.130883482E-02
    53  1.886478524E-04
    54  1.476632916E-01
    55  1.195196899E-02
    56  9.078392741E-03
    57  1.307322036E-04
    58  9.817436612E-04
    59 -2.548422515E-05
    60 -7.076118174E-06
    61 -1.971173468E-04
    62 -7.078699535E-04
    63 -8.238602854E-02
    64  2.286767748E-02
    65  1.658205224E-02
    66  1.520060014E-04
    67 -8.553575402E-04
    68 -1.329328451E-03
    69 -2.274342265E-02
    70 -3.225935684E-02
    71 -2.399759591E-02
    72  3.404701496E-03
    73 -3.596666114E-02
    74 -5.119286877E-02
    75 -3.830748712E-02
    76  4.273437506E-03
    77 -1.391409639E-02
    78 -1.965290151E-02
    79 -1.446802852E-02
    80  5.913155025E-03
    81  1.451796622E-03
    82  8.414982485E-03
    83 -3.660754719E-04
    84  4.079250574E-03
    85 -5.765393665E-03
    86  7.817170899E-03
    87  1.165558630E-02
    88  1.359960216E-02
    89  2.823662028E-02
    90  4.388902890E-02
    91 -2.266368553E-03
    92  2.056377641E-03
    93 -5.136659629E-03
    94 -1.172076405E-01
    95 -2.696960580E-03
    96  2.294634706E-03
    97 -5.376240574E-03
    98 -7.081745190E-02
    99 -9.510279903E-04
   100 -1.764500696E-03
   101 -6.267594250E-03
   102 -4.879115760E-04
   103  1.083841772E-03
   104 -1.365258189E-03
   105  1.220109671E-03
   106  3.254414183E-03
   107  1.622099528E-02
   108  1.681091062E-03
   109 -5.878306142E-03
   110 -1.610601699E-02
   111  8.342905008E-04
   112  1.299609087E-03
   113  1.634700204E-02
   114  4.262570883E-02
   115 -4.905163604E-03
   116 -3.467802704E-03
   117  2.564635274E-02
   118  6.681562536E-02
   119 -7.666166430E-03
   120 -2.563934297E-03
   121  1.382733697E-02
   122  3.581341306E-02
   123 -4.259937679E-03
   124 -6.357456691E-03
   125  1.412935652E-03
   126 -6.088503150E-03
   127 -5.627417203E-03
   128 -1.093240090E-03
   129 -6.829720299E-03
   130  1.122582956E-02
   131  3.981238929E-02
   132 -8.446458229E-03
   133 -6.465815601E-02
   134 -1.004944404E-01
   135 -1.086526321E-02
   136 -8.258337094E-03
   137 -1.385709747E-04
   138  2.684023984E-01
   139 -1.145646242E-02
   140 -8.707558274E-03
   141 -1.464581353E-04
   142  1.682034976E-01
   143 -8.952018938E-03
   144 -6.828032301E-03
   145 -1.030604198E-04
   146  1.596117670E-04
   147  3.678994616E-04
   148 -5.024748413E-04
   149 -2.293468831E-04
   150 -7.987438602E-04
   151  3.088418798E-02
   152 -1.487783246E-02
   153 -1.113615962E-02
   154 -2.414617680E-04
   155 -8.542215074E-04
   156 -1.327523194E-03
   157 -3.754654154E-02
   158 -1.357601483E-02
   159  2.324012198E-02
   160  3.399068408E-03
   161 -5.955611446E-02
   162 -2.142319723E-02
   163  3.710432469E-02
   164  4.284510777E-03
   165 -2.289842092E-02
   166 -8.291646715E-03
   167  1.399552826E-02
   168  5.693899086E-03
   169 -8.577486059E-03
   170  7.525856496E-04
   171  2.560900444E-03
   172  3.399064187E-03
   173 -5.074843783E-03
   174  1.426347022E-02
   175  3.894840134E-03
   176 -1.286614364E-02
   177  3.585178448E-02
   178  5.572511623E-02
   179 -4.941840916E-03
   180  5.291176058E-03
   181  2.678389838E-03
   182 -1.488015443E-01
   183 -5.524130633E-03
   184  5.668173763E-03
   185  2.663289336E-03
   186 -8.999383331E-02
   187 -4.131588700E-03
   188  2.896581018E-03
   189  5.707800291E-03
   190 -2.698410060E-03
   191 -6.750267764E-04
   192  1.442405526E-03
   193  7.626136530E-04
   194  1.677341010E-03
   195  1.348085172E-02
   196 -6.905029690E-03
   197  3.931408014E-03
   198  1.616100990E-02
   199 -3.148728968E-03
   200 -4.888483591E-03
   201  4.122452088E-03
   202  1.019932622E-02
   203 -1.125506379E-03
   204  1.304712937E-02
   205  5.710270563E-03
   206  1.478628114E-02
   207 -1.690590662E-03
   208  7.178277748E-03
   209  3.048470337E-03
   210  4.854039759E-03
   211 -2.255092209E-04
   212  6.777857173E-05
   213  2.434290200E-05
   214 -8.768241937E-04
   215 -1.577876901E-03
   216 -1.957490337E-03
   217  8.121998854E-03
   218 -4.981524603E-03
   219 -8.516197477E-03
   220  6.530823991E-04
   221  2.823480077E-02
   222  4.388588155E-02
   223  1.292170620E-03
   224 -2.792415108E-03
   225  5.126011135E-03
   226 -1.171894456E-01
   227  1.400491490E-03
   228 -3.275649576E-03
   229  5.361454207E-03
   230 -7.096056156E-02
   231 -2.026804229E-03
   232 -4.851396102E-04
   233  6.194486211E-03
   234 -4.875227718E-04
   235  1.090306231E-03
   236 -1.351032002E-03
   237  5.978450354E-04
   238  3.427964427E-03
   239  1.750635855E-02
   240 -5.596808304E-03
   241  2.741896681E-03
   242  1.599003111E-02
   243 -3.142972171E-03
   244 -4.879464402E-03
   245  1.090871259E-02
   246  1.229284249E-03
   247  1.314648708E-03
   248  1.302202136E-02
   249  1.574146966E-02
   250  1.522282516E-03
   251  1.960554216E-03
   252  7.212141425E-03
   253  5.513901920E-03
   254  1.621910257E-03
   255  3.343825449E-04
   256  8.431324338E-05
   257  8.108625339E-04
   258 -3.041574143E-04
   259  3.259381189E-04
   260 -2.496492814E-03
   261  1.380394643E-02
   262 -9.582583205E-03
   263 -3.849666141E-03
   264 -4.790942576E-04
   265 -3.117135009E-02
   266 -3.816494988E-02
   267  1.666828999E-03
   268 -5.389754670E-03
   269  1.330799991E-03
   270 -1.818664697E-03
   271  4.512523866E-03
   272 -3.112614077E-02
   273 -3.680088790E-02
   274  1.428784502E-03
   275  1.888035303E-03
   276  3.099522317E-03
   277  4.534194166E-03
   278  5.516803480E-03
   279  5.453838232E-02
   280  6.558501873E-02
   281 -6.002134814E-03
   282 -2.383261364E-03
   283 -5.490452222E-03
   284 -8.102045169E-03
   285 -1.088574256E-02
   286  5.453835319E-02
   287  6.558526723E-02
   288 -6.070061893E-03
   289 -6.054740642E-03
   290 -9.258474247E-04
   291  7.996840290E-03
   292 -1.118446842E-02
   293  8.107198977E-04
   294  7.210718571E-04
   295  2.225602433E-04
   296 -1.079989729E-03
   297 -1.642937733E-03
   298 -1.354610615E-03
   299 -1.263883447E-03
   300 -2.445619118E-02
   301 -2.864061646E-02
   302  1.208413161E-03
   303  1.208746740E-03
   304  2.785647261E-03
   305  3.396351649E-03
   306  4.556212336E-03
   307 -2.452414711E-02
   308 -3.034024253E-02
   309  1.236300021E-03
   310 -7.941325457E-05
   311 -4.478645888E-03
   312  1.107365387E-03
   313  4.148612472E-03
   314  5.613493510E-02
   315  6.735642095E-02
   316 -4.022185094E-04
   317  9.525388988E-03
   318 -3.205385104E-03
   319  3.080782195E-03
   320 -7.999516278E-03
   321  5.613351595E-02
   322  6.734138630E-02
   323 -3.623918286E-04
   324 -4.927220763E-04
   325  1.007125767E-02
   326 -2.966638735E-03
   327 -8.009318984E-03
   328  8.103591011E-04
   329  7.163551437E-04
   330  2.340717132E-04
   331 -1.892775663E-03
   332 -6.190506160E-04
   333  1.317630613E-03
   334 -1.142760489E-03
   335 -3.113024053E-02
   336 -3.680142857E-02
   337  1.501259976E-03
   338  3.564244583E-03
   339  1.045658076E-03
   340 -4.465573352E-03
   341  5.696152783E-03
   342 -3.117708574E-02
   343 -3.818537877E-02
   344  1.680529504E-03
   345 -1.880188729E-04
   346 -5.573387335E-03
   347  1.750277293E-03
   348  4.372772072E-03
   349  6.381087050E-03
   350  7.418099632E-03
   351 -1.239204888E-03
   352 -9.381770514E-05
   353 -4.793285304E-05
   354 -1.169070152E-03
   355  4.980434052E-03
   356  5.568015847E-03
   357  6.575240672E-03
   358 -1.338401625E-03
   359 -4.709790656E-04
   360  5.922877687E-04
   361  8.410697278E-04
   362  3.970759882E-03
   363 -3.905251333E-03
   364 -3.701936075E-03
   365 -1.268478493E-04
   366  1.831144649E-04
   367 -2.471905876E-04
   368  1.711021048E-04
   369 -8.495720610E-03
   370 -2.452182705E-02
   371 -3.032377781E-02
   372  1.182362862E-03
   373 -4.316955856E-03
   374  1.133904597E-03
   375 -1.163123158E-03
   376  4.113701449E-03
   377 -2.445597046E-02
   378 -2.864033104E-02
   379  1.156623675E-03
   380  3.060091163E-03
   381  4.600254422E-04
   382 -3.342080189E-03
   383  4.425342351E-03
   384  6.374693987E-03
   385  7.412515772E-03
   386 -1.326015192E-03
   387 -8.928295879E-05
   388 -9.145380064E-05
   389  1.165219021E-03
   390  5.112479436E-03
   391  5.561687969E-03
   392  6.581373591E-03
   393 -1.478030559E-03
   394  4.577451446E-04
   395 -6.008107089E-04
   396 -8.407248906E-04
   397  4.024882397E-03
   398 -3.909202579E-03
   399 -3.697504477E-03
   400 -1.781023221E-04
   401 -1.870944489E-04
   402  2.448673585E-04
   403 -1.709837820E-04
   404 -8.481771389E-03
Ene=   -5.8486797845E-01
Spin= Alpha
Occup=   2.0000000
     1 -6.370966472E-06
     2 -9.863289023E-06
     3 -1.166224079E-02
     4  1.447669586E-02
     5  5.104136494E-02
     6  1.992515183E-05
     7 -1.757887406E-02
     8  2.182520153E-02
     9  7.693555204E-02
    10  1.127295472E-04
    11 -1.139921680E-02
    12  1.410063536E-02
    13  4.975013480E-02
    14 -6.707075984E-04
    15 -4.747190191E-03
    16 -2.633931516E-03
    17  1.820737193E-03
    18 -7.944142835E-04
    19  1.073206741E-02
    20  2.044899194E-02
    21 -2.222177131E-02
    22 -7.834910927E-02
    23 -2.793447808E-02
    24 -4.356683811E-02
    25  1.435340714E-02
    26  4.229107377E-02
    27 -4.768710875E-03
    28  1.183222123E-01
    29  2.152026699E-02
    30  6.303370975E-02
    31 -8.290846521E-03
    32  5.946322118E-02
    33  8.546854744E-03
    34  3.544185332E-02
    35  8.868408724E-04
    36  2.118304898E-03
    37  7.585899425E-04
    38  3.602390822E-03
    39  6.570423909E-03
    40 -7.657666379E-04
    41 -3.599162821E-02
    42  3.171049824E-03
    43  3.796084619E-02
    44  2.029299988E-02
    45  3.888845414E-06
    46  5.861982053E-06
    47 -6.923888625E-03
    48  8.595883988E-03
    49  3.029855767E-02
    50 -1.205439205E-05
    51 -1.010575334E-02
    52  1.254747954E-02
    53  4.421382743E-02
    54  1.201360186E-05
    55 -4.094675298E-03
    56  5.041691031E-03
    57  1.801453876E-02
    58 -3.410214345E-05
    59 -1.514115719E-03
    60 -1.161114943E-03
    61  6.740362072E-04
    62 -1.666536763E-04
    63 -8.681148447E-03
    64 -9.680886027E-03
    65  1.445982413E-02
    66  5.374953150E-02
    67  5.058925630E-02
    68  7.908438539E-02
    69  3.461399789E-02
    70  2.227079541E-02
    71 -8.431684022E-03
    72 -2.178323863E-01
    73  4.925928789E-02
    74  3.330251394E-02
    75 -8.470341340E-03
    76 -1.366834876E-01
    77  3.321806080E-02
    78  1.828762454E-02
    79 -1.489162289E-02
    80 -3.127050865E-03
    81  2.806255264E-03
    82 -1.749950440E-03
    83 -9.471882599E-04
    84 -1.742433958E-03
    85  3.780830572E-01
    86  6.487571246E-02
    87 -9.589495963E-03
    88 -1.283684998E-01
    89 -2.793560245E-02
    90 -4.356803453E-02
    91  4.290885443E-02
    92  4.446818790E-03
    93  1.249840922E-02
    94  1.183125422E-01
    95  6.445004214E-02
    96  6.126718984E-03
    97  1.766971037E-02
    98  5.964137915E-02
    99  3.288811246E-02
   100  3.281472355E-03
   101  1.551404246E-02
   102  2.486162587E-03
   103 -2.807668937E-03
   104  2.768900733E-04
   105 -6.173073248E-03
   106  3.092045397E-03
   107 -3.090799090E-02
   108  2.578355515E-02
   109  9.525405189E-03
   110  3.264424506E-02
   111 -3.401117841E-06
   112 -5.354744093E-06
   113 -1.165341979E-02
   114  1.448067867E-02
   115  5.104269097E-02
   116  1.458778886E-05
   117 -1.756672413E-02
   118  2.182961879E-02
   119  7.693825547E-02
   120  4.435791578E-05
   121 -1.131122683E-02
   122  1.405949559E-02
   123  4.974870595E-02
   124  4.851801902E-04
   125 -3.793185898E-03
   126 -3.908405004E-03
   127  1.983677858E-03
   128 -1.492316250E-04
   129  2.635361801E-03
   130  2.108827226E-02
   131 -2.307984275E-02
   132 -7.876044877E-02
   133 -4.714922329E-06
   134 -7.505460769E-06
   135  1.485631262E-02
   136 -1.846581728E-02
   137 -6.508072205E-02
   138  2.430815380E-05
   139  2.288398782E-02
   140 -2.845291406E-02
   141 -1.002660336E-01
   142 -8.022575942E-05
   143  1.095104641E-02
   144 -1.361019745E-02
   145 -4.794538294E-02
   146 -1.891116746E-04
   147 -8.636441033E-03
   148 -6.617562555E-03
   149  3.845750142E-03
   150 -9.540141857E-04
   151 -3.507943949E-03
   152  8.383262693E-03
   153 -1.171144801E-02
   154 -3.963425853E-02
   155 -5.057752430E-02
   156 -7.906628226E-02
   157 -3.058002862E-02
   158 -2.729319001E-02
   159 -9.240034166E-03
   160  2.177913018E-01
   161 -4.512345786E-02
   162 -3.844893339E-02
   163 -9.645227525E-03
   164  1.364890749E-01
   165 -2.633267922E-02
   166 -2.698072002E-02
   167 -1.554238337E-02
   168  3.166364937E-03
   169 -9.996936924E-04
   170  3.132488931E-03
   171  1.416250510E-04
   172  1.942510211E-03
   173 -3.718547845E-01
   174 -5.553534168E-03
   175 -6.374392430E-02
   176 -1.279622502E-01
   177  2.793378214E-02
   178  4.356531083E-02
   179 -4.449770055E-02
   180 -2.457268260E-03
   181 -5.498186306E-03
   182 -1.183083002E-01
   183 -6.633200395E-02
   184 -3.776101882E-03
   185 -9.376008622E-03
   186 -5.956968368E-02
   187 -3.651325218E-02
   188  1.290054684E-03
   189  2.007456122E-04
   190 -2.019754503E-03
   191  3.792628009E-03
   192 -3.046970194E-04
   193  5.963570039E-03
   194 -2.770861590E-03
   195  3.187355677E-02
   196 -3.709684166E-02
   197  6.514938766E-03
   198  1.980183582E-02
   199 -4.705055129E-07
   200 -9.637958104E-07
   201 -4.133394688E-03
   202  5.135500524E-03
   203  1.810417871E-02
   204  9.053851243E-06
   205 -5.874218423E-03
   206  7.296022895E-03
   207  2.571860155E-02
   208 -7.723512643E-05
   209 -1.968810984E-03
   210  2.509691467E-03
   211  8.818910882E-03
   212 -1.472957542E-03
   213 -2.212413528E-03
   214  8.202792793E-04
   215  2.476656951E-04
   216 -9.245680457E-04
   217 -5.769767926E-03
   218 -2.044851252E-03
   219  3.530267649E-03
   220  1.525720522E-02
   221  2.793607312E-02
   222  4.356853059E-02
   223 -1.595147463E-02
   224 -4.028942355E-02
   225  1.176480573E-02
   226 -1.183069633E-01
   227 -2.341274542E-02
   228 -6.064961735E-02
   229  1.657321398E-02
   230 -5.972396361E-02
   231 -1.213220521E-02
   232 -3.108866843E-02
   233  1.492659110E-02
   234 -2.554920567E-03
   235 -5.178822215E-04
   236 -2.633330346E-03
   237 -6.909504626E-03
   238  5.828718149E-04
   239  3.425770623E-02
   240 -1.632306411E-02
   241 -2.307224471E-02
   242  3.336513127E-02
   243  6.644992051E-06
   244  9.944699656E-06
   245 -4.135331932E-03
   246  5.128239609E-03
   247  1.810490342E-02
   248 -1.629569842E-05
   249 -5.878713908E-03
   250  7.280552254E-03
   251  2.571821741E-02
   252 -1.461032103E-04
   253 -1.977287828E-03
   254  2.574100357E-03
   255  8.817129227E-03
   256  1.429175128E-03
   257  1.779143538E-04
   258 -2.377625864E-03
   259  6.570421331E-04
   260  7.000302315E-04
   261 -1.370546163E-03
   262 -3.256152114E-03
   263  4.401159393E-03
   264  1.457046357E-02
   265  2.459719243E-02
   266  3.318483016E-02
   267  2.813963284E-03
   268  4.451206633E-03
   269  8.759137775E-04
   270  7.622019438E-04
   271 -7.452328191E-03
   272  4.209644182E-02
   273  5.233731461E-02
   274 -2.432422192E-03
   275 -8.501415404E-04
   276 -1.979307055E-03
   277 -5.504263484E-03
   278 -1.110153911E-02
   279  1.834736377E-02
   280  2.292448019E-02
   281 -3.532472004E-03
   282 -1.523640755E-03
   283 -1.449731196E-03
   284 -6.581486349E-04
   285 -1.026561100E-02
   286 -1.835977085E-02
   287 -2.294521425E-02
   288  3.807884597E-03
   289  1.814432399E-03
   290  1.087748965E-03
   291 -6.170673836E-04
   292  1.031453617E-02
   293 -6.531119882E-02
   294 -7.996627136E-02
   295 -7.987310478E-03
   296 -5.412275422E-03
   297 -3.589892194E-04
   298  8.166933849E-03
   299  4.934958153E-02
   300  4.209792370E-02
   301  5.235705834E-02
   302 -2.621565494E-03
   303  1.439449213E-04
   304 -3.298907276E-03
   305 -4.902477699E-03
   306 -1.126288651E-02
   307  2.459684373E-02
   308  3.317902841E-02
   309  2.759168307E-03
   310  2.047198326E-03
   311  4.059242558E-03
   312 -6.904814623E-04
   313 -6.876840571E-03
   314  7.261058971E-06
   315  6.089495324E-06
   316  8.338048261E-05
   317  7.582522297E-04
   318 -9.418101417E-04
   319 -3.315311141E-03
   320  3.319535346E-06
   321  5.557838392E-06
   322 -2.264947467E-06
   323  8.751417994E-05
   324  7.564224992E-04
   325 -9.402781396E-04
   326 -3.316271836E-03
   327 -1.897207935E-04
   328  6.529404387E-02
   329  7.998755099E-02
   330  7.809625247E-03
   331  1.663310695E-03
   332  5.020080216E-03
   333  8.255749071E-03
   334 -4.943864872E-02
   335 -4.209694147E-02
   336 -5.234835027E-02
   337  2.410819906E-03
   338  2.224878074E-03
   339  3.552735571E-04
   340 -5.464365375E-03
   341  1.111746453E-02
   342 -2.459327269E-02
   343 -3.316109580E-02
   344 -2.734919306E-03
   345 -2.045170158E-03
   346 -4.060682541E-03
   347  6.810935118E-04
   348  7.753969014E-03
   349  1.085767536E-02
   350  1.401262654E-02
   351  2.887464104E-03
   352 -1.158274886E-03
   353 -9.050061042E-04
   354 -5.984766210E-04
   355 -8.616832564E-03
   356 -1.086238727E-02
   357 -1.403488838E-02
   358 -2.763315262E-03
   359  1.395597631E-03
   360  6.074132397E-04
   361 -4.457571335E-04
   362  8.507256445E-03
   363  5.400649405E-06
   364  1.326126654E-05
   365  2.328624288E-05
   366 -2.955876159E-04
   367  3.691947746E-04
   368  1.293949698E-03
   369 -3.213104619E-04
   370 -2.459801479E-02
   371 -3.315042507E-02
   372 -2.920571530E-03
   373 -4.445590942E-03
   374 -8.777310186E-04
   375 -7.721301097E-04
   376  7.497117367E-03
   377 -4.209906496E-02
   378 -5.235836536E-02
   379  2.405653897E-03
   380  3.217946092E-03
   381 -9.606753356E-04
   382 -4.864216239E-03
   383  1.168258734E-02
   384 -1.086657021E-02
   385 -1.402103190E-02
   386 -2.998497000E-03
   387  1.190547945E-03
   388  8.807135135E-04
   389 -5.699162264E-04
   390  8.387549773E-03
   391  1.085322077E-02
   392  1.401651322E-02
   393  2.653814556E-03
   394 -9.515018748E-04
   395 -1.175936941E-03
   396 -4.741477484E-04
   397 -8.575130739E-03
   398 -8.797923414E-06
   399 -1.290559004E-05
   400 -1.964337754E-05
   401 -2.965028879E-04
   402  3.679793852E-04
   403  1.293698805E-03
   404  2.116200748E-04
Ene=   -5.7000431818E-01
Spin= Alpha
Occup=   2.0000000
     1 -3.457628559E-02
     2 -5.410334976E-02
     3 -3.726816617E-02
     4 -1.394385034E-02
     5 -4.562766803E-03
     6  1.499002764E-01
     7 -5.610133278E-02
     8 -2.087947310E-02
     9 -6.903665237E-03
    10  1.058746594E-01
    11 -3.591266631E-02
    12 -1.000936548E-02
    13 -5.347440914E-03
    14  2.752551090E-03
    15 -1.527616200E-03
    16  1.492937107E-03
    17 -6.213435794E-04
    18  4.267210382E-04
    19 -3.101180283E-01
    20  1.114800626E-01
    21  3.197432880E-02
    22  1.533308563E-02
    23 -1.025877943E-03
    24 -1.621850923E-03
    25  9.793272922E-03
    26  2.304295225E-02
    27 -5.057277228E-02
    28  5.239699490E-03
    29  1.550726027E-02
    30  3.594842879E-02
    31 -7.566117492E-02
    32 -9.470437907E-03
    33  2.742157853E-03
    34  1.895179183E-02
    35 -3.577177743E-02
    36  4.061816041E-03
    37 -4.973905767E-03
    38  3.674083101E-03
    39  5.539593993E-03
    40 -2.611961722E-04
    41  1.306792697E-01
    42  1.314593959E-03
    43  3.698680427E-03
    44 -6.039077237E-02
    45  2.825772180E-02
    46  4.407951885E-02
    47 -3.387447919E-02
    48 -2.574543979E-02
    49 -4.332358583E-04
    50 -1.190797932E-01
    51 -4.933573654E-02
    52 -3.749471443E-02
    53 -6.314844470E-04
    54 -6.964199579E-02
    55 -2.960277314E-02
    56 -2.249169766E-02
    57 -3.839605077E-04
    58 -5.153170081E-03
    59  2.463363378E-03
    60 -3.099018839E-03
    61 -1.702009914E-04
    62 -4.726473144E-04
    63 -1.902848211E-01
    64  2.038329440E-02
    65  1.531643448E-02
    66  7.640617384E-04
    67  3.727916179E-02
    68  5.831685056E-02
    69  2.103211925E-03
    70 -2.083758077E-02
    71 -4.914287233E-02
    72 -1.607208869E-01
    73 -2.886646652E-04
    74 -3.232760350E-02
    75 -7.036641528E-02
    76 -1.053360184E-01
    77  6.089142472E-03
    78 -1.607393298E-02
    79 -4.535037198E-02
    80  9.637216529E-04
    81  2.720265511E-03
    82  3.492074001E-03
    83 -1.201450161E-03
    84  1.457116905E-03
    85  2.085203190E-01
    86  5.863495240E-02
    87  2.451372843E-02
    88 -4.342638097E-02
    89 -1.031353720E-03
    90 -1.630272731E-03
    91  4.265803976E-02
    92 -2.052133886E-02
    93 -3.069317565E-02
    94  5.260313353E-03
    95  6.537849043E-02
    96 -3.015896782E-02
    97 -4.549578777E-02
    98 -9.406551887E-03
    99  3.091141508E-02
   100 -1.841871666E-02
   101 -1.873381226E-02
   102  6.146526144E-03
   103 -5.688056906E-03
   104 -4.564968629E-04
   105 -2.211342994E-03
   106  3.201623696E-03
   107  1.322690081E-01
   108  2.689289847E-02
   109 -3.018018525E-02
   110 -4.531785107E-02
   111 -3.456153749E-02
   112 -5.408012812E-02
   113 -2.346486958E-02
   114 -3.224385195E-02
   115  3.787489774E-03
   116  1.498315055E-01
   117 -3.521508227E-02
   118 -4.857054348E-02
   119  5.730530232E-03
   120  1.059014350E-01
   121 -1.931219778E-02
   122 -3.197930493E-02
   123  4.673393580E-03
   124  2.761461004E-03
   125 -1.091732747E-03
   126  1.804927509E-03
   127  7.913698818E-04
   128  2.789479420E-05
   129 -3.094707580E-01
   130  6.342100076E-02
   131  9.740636536E-02
   132 -1.456649291E-02
   133 -3.640843292E-02
   134 -5.683066551E-02
   135 -1.825187486E-02
   136 -1.387533562E-02
   137 -2.184916000E-04
   138  1.550629851E-01
   139 -2.668142150E-02
   140 -2.028538838E-02
   141 -3.245484169E-04
   142  8.314904303E-02
   143 -2.070059695E-02
   144 -1.573093089E-02
   145 -1.788770526E-04
   146 -6.610104422E-03
   147  3.312227299E-03
   148 -4.182210686E-03
   149 -3.899096425E-04
   150 -1.198200361E-03
   151 -2.196490974E-01
   152 -7.234930787E-02
   153 -5.487050111E-02
   154 -6.475122276E-04
   155  3.729249517E-02
   156  5.833792958E-02
   157 -2.028400431E-02
   158  7.005297385E-03
   159  4.892075394E-02
   160 -1.607861489E-01
   161 -3.232764420E-02
   162  7.517345478E-03
   163  6.996276406E-02
   164 -1.052763295E-01
   165 -1.458124413E-02
   166  9.659652622E-03
   167  4.530593273E-02
   168  8.119412816E-04
   169 -4.080740480E-03
   170 -1.719950916E-03
   171  1.826036708E-03
   172  7.046388028E-04
   173  2.196197994E-01
   174  3.961975616E-02
   175  5.049893186E-02
   176  4.648597876E-02
   177 -1.036598829E-03
   178 -1.638904728E-03
   179  2.401825890E-02
   180  2.652776745E-03
   181  5.099078842E-02
   182  5.293449949E-03
   183  3.758108794E-02
   184  4.394943120E-03
   185  7.632189283E-02
   186 -9.499864719E-03
   187  1.846865800E-02
   188 -2.874202088E-03
   189  3.603309815E-02
   190  4.120037895E-03
   191 -2.370266129E-03
   192  5.786773628E-03
   193 -4.777910648E-03
   194  2.567843905E-03
   195  1.224519863E-01
   196  4.057804506E-03
   197 -1.151238417E-03
   198  5.954136084E-02
   199  1.699522612E-02
   200  2.646320959E-02
   201 -3.325189905E-02
   202 -6.016113820E-03
   203 -5.884912595E-03
   204 -7.001905982E-02
   205 -4.801033982E-02
   206 -8.452163934E-03
   207 -8.562333803E-03
   208 -5.374958680E-02
   209 -2.334476696E-02
   210 -9.266247296E-04
   211 -5.082376946E-03
   212 -2.649282493E-03
   213  2.503621039E-03
   214 -2.557345771E-04
   215  4.886989520E-03
   216 -6.846919344E-04
   217  4.899075399E-03
   218 -5.788955339E-03
   219 -9.944797657E-03
   220  1.698358327E-03
   221 -1.035996225E-03
   222 -1.638112188E-03
   223 -8.851583719E-03
   224  4.623577547E-02
   225  3.112171356E-02
   226  5.294831579E-03
   227 -1.230407679E-02
   228  7.053434212E-02
   229  4.616774726E-02
   230 -9.548163457E-03
   231 -9.721417606E-03
   232  3.455786856E-02
   233  1.896718216E-02
   234  6.312193267E-03
   235  1.865212999E-03
   236  5.213318468E-03
   237  3.581601835E-03
   238  1.497270289E-03
   239  1.244769855E-01
   240 -2.260989281E-02
   241  3.366300842E-02
   242  4.380257505E-02
   243  1.700237442E-02
   244  2.647450001E-02
   245 -1.477227023E-02
   246 -3.051378886E-02
   247  5.278470637E-03
   248 -7.005142433E-02
   249 -2.110565725E-02
   250 -4.412132171E-02
   251  7.691667051E-03
   252 -5.373222417E-02
   253 -7.197023450E-03
   254 -2.233278831E-02
   255  4.687334084E-03
   256 -2.713273653E-03
   257 -3.981342595E-04
   258 -2.338920699E-03
   259 -4.566710804E-03
   260  1.974385400E-03
   261  8.887929104E-03
   262 -1.113782435E-02
   263 -3.743981363E-03
   264 -1.445771302E-03
   265  8.905748320E-03
   266  1.035478754E-02
   267 -6.322956292E-03
   268  1.683089000E-03
   269  5.851583870E-04
   270 -2.264166475E-03
   271 -7.044125624E-03
   272 -1.571436770E-02
   273 -1.827231456E-02
   274 -1.287159814E-04
   275  1.045580475E-03
   276  2.650505047E-03
   277 -4.910903772E-04
   278  1.057408594E-02
   279 -4.399713157E-02
   280 -5.640552098E-02
   281  5.873831509E-03
   282  6.586418353E-04
   283  2.825443966E-03
   284  5.103459672E-03
   285 -1.952436163E-03
   286 -4.399065303E-02
   287 -5.639586462E-02
   288  5.863573067E-03
   289  2.978076245E-03
   290 -5.937047667E-05
   291 -5.057658192E-03
   292 -1.565524447E-03
   293 -5.766770122E-02
   294 -7.112002581E-02
   295 -5.901045622E-03
   296 -6.286657788E-03
   297 -2.365805491E-03
   298  5.215559121E-03
   299  3.176192245E-02
   300 -1.570404233E-02
   301 -1.825285601E-02
   302 -1.612708506E-04
   303  2.815284373E-03
   304  3.035510508E-04
   305  5.778512786E-04
   306  1.075433207E-02
   307  8.904290412E-03
   308  1.035387358E-02
   309 -6.373086785E-03
   310  1.977825558E-03
   311  1.932802524E-04
   312 -2.085542883E-03
   313 -6.997540652E-03
   314  4.266005697E-02
   315  5.509764403E-02
   316  6.346275338E-03
   317  5.513814338E-03
   318 -2.119427936E-03
   319  1.860400849E-03
   320 -1.896006518E-02
   321  4.266424841E-02
   322  5.509120265E-02
   323  6.355821707E-03
   324 -5.383502520E-04
   325  5.901520876E-03
   326 -1.797466416E-03
   327 -1.901435595E-02
   328 -5.768852359E-02
   329 -7.112573008E-02
   330 -6.093423724E-03
   331 -3.875544554E-03
   332 -5.362786323E-03
   333 -5.344747924E-03
   334  3.210301730E-02
   335 -1.569834720E-02
   336 -1.824382741E-02
   337 -1.484098786E-04
   338  2.823319419E-03
   339  2.921062693E-04
   340  5.422441012E-04
   341  1.027020755E-02
   342  8.922843314E-03
   343  1.035452630E-02
   344 -6.125537498E-03
   345  9.776466044E-04
   346  1.439702710E-03
   347  2.297705163E-03
   348 -6.660155958E-03
   349 -2.829486466E-02
   350 -3.598222652E-02
   351  4.034960631E-04
   352 -9.004845310E-05
   353  2.037152841E-03
   354  3.542393150E-03
   355  1.373539798E-03
   356 -2.828539883E-02
   357 -3.597501704E-02
   358  3.794402143E-04
   359  1.577591417E-03
   360 -4.053994618E-05
   361 -3.769868890E-03
   362  1.459218169E-03
   363 -1.313002184E-02
   364 -1.623468606E-02
   365  5.759242765E-03
   366 -1.755361142E-03
   367 -2.111056740E-03
   368  1.987588384E-04
   369 -4.386507061E-03
   370  8.907498112E-03
   371  1.034543371E-02
   372 -6.188008262E-03
   373  6.830788389E-04
   374  1.829129192E-03
   375  2.119454760E-03
   376 -6.597448349E-03
   377 -1.569818835E-02
   378 -1.825336906E-02
   379 -1.989351346E-04
   380  1.053393596E-03
   381  2.638751194E-03
   382 -5.288455570E-04
   383  1.037834169E-02
   384 -2.829980769E-02
   385 -3.597680893E-02
   386  2.828666303E-04
   387  1.995242186E-03
   388 -5.892522552E-04
   389 -3.518894535E-03
   390  1.349969127E-03
   391 -2.829839723E-02
   392 -3.598350092E-02
   393  3.358154078E-04
   394  3.234790552E-04
   395  1.485668114E-03
   396  3.795449442E-03
   397  1.483945021E-03
   398 -1.314448112E-02
   399 -1.624462580E-02
   400  5.713543500E-03
   401 -2.501630298E-03
   402 -1.124027921E-03
   403 -2.532929125E-04
   404 -4.355461964E-03
Ene=   -5.4988905859E-01
Spin= Alpha
Occup=   2.0000000
     1  5.307724714E-02
     2  8.312613713E-02
     3 -2.766598634E-02
     4  1.850853293E-03
     5 -6.839446392E-03
     6 -2.305248067E-01
     7 -4.146316285E-02
     8  3.676105324E-03
     9 -1.050606083E-02
    10 -1.737989953E-01
    11 -2.799652219E-02
    12  1.490681129E-03
    13 -6.805076357E-03
    14  6.431880004E-04
    15 -8.573458384E-04
    16 -6.425446616E-04
    17 -3.088682117E-03
    18 -3.736229619E-04
    19  4.958598677E-01
    20  5.347101629E-02
    21  6.869710754E-02
    22 -7.131633998E-03
    23 -1.810136986E-02
    24 -2.826101733E-02
    25 -4.183867701E-02
    26 -6.507735655E-03
    27  2.574564205E-02
    28  7.643854375E-02
    29 -6.189566402E-02
    30 -1.123358054E-02
    31  3.911932678E-02
    32  5.307609789E-02
    33 -3.323417828E-02
    34 -1.091952860E-03
    35  1.760133924E-02
    36 -2.830052375E-03
    37  7.733472789E-03
    38  1.293463310E-03
    39 -3.132383921E-03
    40 -7.351457803E-04
    41 -1.427373315E-02
    42 -5.750556822E-02
    43 -4.652936540E-02
    44  2.731594937E-02
    45  5.569610581E-06
    46  8.450669949E-06
    47  4.543011814E-02
    48 -6.023023172E-02
    49  2.746884803E-02
    50 -1.491049372E-05
    51  6.843523762E-02
    52 -9.072612895E-02
    53  4.137652025E-02
    54 -1.654664274E-04
    55  2.900167193E-02
    56 -3.837557911E-02
    57  1.751871622E-02
    58 -8.756317594E-05
    59 -4.056517094E-03
    60 -2.912673145E-03
    61 -1.319955883E-02
    62  3.713676476E-03
    63  6.054638327E-03
    64  7.993346248E-02
    65 -1.076440853E-01
    66  4.909937877E-02
    67  6.262919025E-06
    68  9.858410882E-06
    69 -2.306966579E-02
    70  3.057982299E-02
    71 -1.395686315E-02
    72 -2.942716864E-05
    73 -3.493255117E-02
    74  4.630218789E-02
    75 -2.113267260E-02
    76  3.788233759E-05
    77 -1.838115963E-02
    78  2.441341648E-02
    79 -1.109405516E-02
    80 -7.409927006E-04
    81 -1.386722095E-03
    82  2.299196982E-04
    83 -2.672070625E-03
    84  3.184930623E-04
    85 -2.145290627E-03
    86  5.439564788E-02
    87 -7.286839789E-02
    88  3.333249923E-02
    89  1.810234432E-02
    90  2.826235810E-02
    91  3.053966162E-02
    92  2.149878844E-02
    93 -3.260018727E-02
    94 -7.643760750E-02
    95  4.694322115E-02
    96  3.107750755E-02
    97 -4.819153823E-02
    98 -5.314187549E-02
    99  1.975202115E-02
   100  1.894422430E-02
   101 -2.580885915E-02
   102  3.608389785E-03
   103 -7.234784873E-03
   104 -2.255152695E-03
   105  2.778790805E-03
   106  1.302668378E-03
   107  1.404702060E-02
   108  7.057489610E-02
   109  2.909400774E-02
   110 -1.869861561E-02
   111 -5.308734990E-02
   112 -8.314205111E-02
   113  5.713062992E-03
   114  2.722779765E-02
   115 -6.419290390E-03
   116  2.305730486E-01
   117  7.697403899E-03
   118  4.104937949E-02
   119 -9.887919713E-03
   120  1.737369292E-01
   121  6.103673864E-03
   122  2.752317142E-02
   123 -6.427110374E-03
   124 -6.778616419E-04
   125 -8.466476879E-04
   126 -5.793506310E-04
   127 -2.449956097E-03
   128  1.932192342E-03
   129 -5.034169233E-01
   130 -8.519585983E-02
   131 -3.495008592E-02
   132 -1.103735969E-02
   133 -3.512713155E-06
   134 -5.380397719E-06
   135 -1.608251863E-02
   136  2.131046129E-02
   137 -9.721306484E-03
   138  1.045483544E-05
   139 -2.317358031E-02
   140  3.071270836E-02
   141 -1.400777963E-02
   142  1.167219953E-04
   143 -1.833941373E-02
   144  2.433442493E-02
   145 -1.111552755E-02
   146 -5.505026168E-06
   147 -2.085622874E-04
   148 -1.509629065E-04
   149 -6.796213115E-04
   150  1.917182760E-04
   151  2.779650273E-03
   152 -3.485374621E-02
   153  4.742416773E-02
   154 -2.177786512E-02
   155 -4.075001720E-07
   156 -6.843935463E-07
   157 -2.307563196E-02
   158  3.057746807E-02
   159 -1.394400283E-02
   160  1.055717926E-06
   161 -3.494393715E-02
   162  4.630329151E-02
   163 -2.111259482E-02
   164  4.631434548E-05
   165 -1.836774285E-02
   166  2.435000668E-02
   167 -1.117344357E-02
   168  7.085000049E-04
   169 -1.936771927E-04
   170 -1.362534430E-03
   171 -2.467203862E-03
   172  1.130393402E-03
   173 -5.446362592E-03
   174  5.469337682E-02
   175 -7.341487593E-02
   176  3.234365927E-02
   177  1.810195273E-02
   178  2.826172238E-02
   179  1.704278044E-02
   180  3.826434993E-02
   181  2.649719397E-02
   182 -7.643778411E-02
   183  2.675005489E-02
   184  5.617004282E-02
   185  4.024944497E-02
   186 -5.309039969E-02
   187  9.651160397E-03
   188  3.143864621E-02
   189  1.821174150E-02
   190  3.069479645E-03
   191  3.222018704E-03
   192  7.106684366E-03
   193 -2.273474197E-03
   194  2.090546753E-03
   195  9.420358375E-03
   196  5.945464400E-02
   197  4.123986309E-02
   198  2.759506257E-02
   199  2.476757509E-02
   200  3.861422103E-02
   201 -4.866016537E-02
   202  2.720937866E-02
   203 -1.882672018E-02
   204 -1.027160331E-01
   205 -7.058024228E-02
   206  3.903423680E-02
   207 -2.718221031E-02
   208 -8.124256221E-02
   209 -3.685613984E-02
   210  1.927614301E-02
   211 -1.389557552E-02
   212 -3.402082543E-03
   213  4.698395859E-03
   214 -1.604589491E-03
   215  6.240525805E-03
   216 -5.568443708E-03
   217  6.752118737E-02
   218 -3.314530156E-03
   219  1.961948774E-03
   220 -1.289615782E-03
   221 -1.809969956E-02
   222 -2.825833967E-02
   223 -2.835089651E-02
   224 -2.327144589E-02
   225 -3.332907185E-02
   226  7.642908698E-02
   227 -4.171283727E-02
   228 -3.632237700E-02
   229 -4.928914127E-02
   230  5.312359482E-02
   231 -2.317915644E-02
   232 -1.359167893E-02
   233 -2.632054061E-02
   234 -3.853361099E-03
   235 -4.005445042E-03
   236 -6.348888392E-03
   237  1.698560753E-03
   238 -2.397542811E-03
   239 -1.109199305E-02
   240 -4.594803125E-02
   241 -6.068812780E-02
   242 -2.007946543E-02
   243 -2.476501624E-02
   244 -3.860967648E-02
   245 -1.291446137E-02
   246  5.438311304E-02
   247 -1.837380582E-02
   248  1.026910244E-01
   249 -1.831128201E-02
   250  7.876630501E-02
   251 -2.652239219E-02
   252  8.139623314E-02
   253 -8.569531314E-03
   254  4.075403707E-02
   255 -1.350956637E-02
   256  3.495279074E-03
   257 -2.353666842E-04
   258  4.806024224E-03
   259  8.277907753E-03
   260  1.481974931E-03
   261 -5.902218239E-02
   262 -9.070766770E-04
   263  1.744599619E-03
   264 -7.056514447E-04
   265  3.908001492E-02
   266  4.943908212E-02
   267  2.485670915E-03
   268  3.524968779E-03
   269 -2.145106122E-03
   270  2.529025123E-03
   271 -1.246813513E-02
   272  2.060626800E-02
   273  2.699698454E-02
   274  6.523199288E-03
   275 -2.853010121E-03
   276 -2.079959710E-03
   277 -1.244531956E-03
   278  1.236721605E-02
   279 -1.236220213E-05
   280 -1.220861824E-05
   281 -1.136316924E-04
   282  2.108561237E-03
   283 -2.793056268E-03
   284  1.275587762E-03
   285 -4.668214283E-05
   286 -1.126058887E-05
   287 -1.183194370E-05
   288 -9.979706423E-05
   289  2.108808584E-03
   290 -2.793903583E-03
   291  1.273531291E-03
   292  4.801229189E-05
   293 -1.123000344E-05
   294 -3.222999553E-05
   295  5.956011741E-05
   296 -1.289428151E-03
   297  1.704801975E-03
   298 -7.764405821E-04
   299 -1.945189695E-05
   300 -2.061066148E-02
   301 -2.699889199E-02
   302 -6.383003673E-03
   303  2.309238284E-03
   304  2.801034684E-03
   305  9.149021140E-04
   306 -1.245048330E-02
   307 -3.908745081E-02
   308 -4.947357862E-02
   309 -2.447778666E-03
   310  1.533689652E-03
   311 -4.562148298E-03
   312  5.299789608E-04
   313  1.209934398E-02
   314  1.694566925E-02
   315  1.828667238E-02
   316 -5.826221243E-03
   317  1.575635648E-03
   318  6.470334119E-04
   319  1.761818218E-04
   320 -2.001141323E-02
   321 -1.693813125E-02
   322 -1.827636693E-02
   323  5.818263483E-03
   324 -1.046403274E-03
   325 -1.346709326E-03
   326  1.428839494E-04
   327  2.027242509E-02
   328  1.430025562E-06
   329 -2.653841048E-05
   330  1.336760940E-04
   331 -1.288318420E-03
   332  1.704119858E-03
   333 -7.787866675E-04
   334 -3.389789813E-04
   335 -2.061247322E-02
   336 -2.701608043E-02
   337 -6.197933501E-03
   338  2.786290087E-03
   339  2.207862407E-03
   340 -1.173933986E-03
   341 -1.231413705E-02
   342 -3.908114114E-02
   343 -4.947173734E-02
   344 -2.326751126E-03
   345  1.083741295E-03
   346 -4.001469895E-03
   347  2.499684066E-03
   348  1.177852569E-02
   349 -3.331807260E-02
   350 -4.321807553E-02
   351  4.495475131E-03
   352 -7.536456521E-04
   353  4.449427877E-03
   354  3.055418079E-03
   355 -4.226148642E-03
   356 -3.332235526E-02
   357 -4.321325340E-02
   358  4.389378915E-03
   359  1.055957550E-03
   360  2.196882842E-03
   361 -4.873858146E-03
   362 -4.290894493E-03
   363 -4.665212352E-02
   364 -6.018146255E-02
   365  5.951761507E-04
   366 -1.902569971E-03
   367 -6.042225144E-03
   368  1.282703152E-03
   369 -5.024737287E-03
   370  3.908096208E-02
   371  4.944175175E-02
   372  2.495340444E-03
   373  3.975424086E-03
   374 -2.704158975E-03
   375  5.606566076E-04
   376 -1.197816987E-02
   377  2.060447238E-02
   378  2.700429921E-02
   379  6.404256187E-03
   380 -3.330865493E-03
   381 -1.487399759E-03
   382  8.443849440E-04
   383  1.225806369E-02
   384  3.331093792E-02
   385  4.320974023E-02
   386 -4.411880894E-03
   387 -4.132880680E-03
   388  1.879891330E-03
   389  3.012361436E-03
   390  4.435718962E-03
   391  3.331580553E-02
   392  4.321210828E-02
   393 -4.401247825E-03
   394 -2.320562132E-03
   395 -3.694460840E-04
   396 -4.915611695E-03
   397  4.372430322E-03
   398  4.664998325E-02
   399  6.018616748E-02
   400 -7.413698092E-04
   401  6.308578463E-03
   402  2.009170861E-04
   403  1.385335117E-03
   404  5.033424902E-03
Ene=   -5.1456102519E-01
Spin= Alpha
Occup=   2.0000000
     1 -1.095536447E-02
     2 -1.700273234E-02
     3  3.662372397E-03
     4 -3.298781552E-02
     5  1.019156481E-02
     6  4.399745918E-02
     7  5.515221082E-03
     8 -4.536003019E-02
     9  1.412429602E-02
    10  8.009172329E-02
    11  3.107342478E-03
    12 -5.844756805E-02
    13  1.726286825E-02
    14 -3.611155287E-03
    15 -8.792645844E-05
    16 -3.951854017E-03
    17 -7.034531251E-03
    18  5.744032965E-04
    19  2.546079748E-01
    20 -1.540114844E-02
    21  1.500207242E-01
    22 -4.674954583E-02
    23  1.681604968E-02
    24  2.625023276E-02
    25  3.588824918E-02
    26 -5.358711194E-02
    27 -2.154835078E-02
    28 -6.799230888E-02
    29  5.076156129E-02
    30 -7.678549867E-02
    31 -3.019118218E-02
    32 -1.036149058E-01
    33  1.903304236E-02
    34 -2.571992321E-02
    35 -6.801320445E-03
    36 -2.008704300E-03
    37 -5.814633971E-03
    38 -1.544769273E-03
    39 -5.095041913E-03
    40 -2.429034204E-03
    41 -6.629745459E-02
    42 -6.549208565E-03
    43 -3.280546998E-02
    44  3.850304134E-02
    45  1.502061116E-02
    46  2.346532620E-02
    47 -4.568510751E-02
    48 -3.473003190E-02
    49 -5.756972797E-04
    50 -6.082276604E-02
    51 -6.472318378E-02
    52 -4.920442034E-02
    53 -8.160923044E-04
    54 -9.428830438E-02
    55 -1.920630220E-02
    56 -1.453760795E-02
    57 -2.523201371E-04
    58 -5.858799309E-03
    59  2.426618066E-03
    60 -3.006824790E-03
    61  2.185268528E-04
    62  9.247482915E-04
    63 -5.379058089E-02
    64 -1.241744637E-02
    65 -1.058220474E-02
    66  8.256358262E-05
    67 -2.245405082E-02
    68 -3.502857342E-02
    69  3.110526840E-02
    70  8.364596718E-03
    71 -3.310993639E-02
    72  9.412018757E-02
    73  4.472206431E-02
    74  1.221061529E-02
    75 -4.721010217E-02
    76  1.130892708E-01
    77  4.499672207E-02
    78  1.062746019E-02
    79 -5.100461854E-02
    80  2.764173597E-03
    81 -5.629342948E-03
    82 -1.130797756E-03
    83  2.126363255E-03
    84  5.791572157E-04
    85  1.469143344E-01
    86  3.615020450E-02
    87 -1.374598891E-02
    88 -8.552739372E-02
    89  1.681170358E-02
    90  2.624274346E-02
    91 -2.426185762E-02
    92  2.612201529E-02
    93 -5.789909358E-02
    94 -6.795580585E-02
    95 -3.525694293E-02
    96  3.721585160E-02
    97 -8.218126833E-02
    98 -1.038031960E-01
    99 -1.242023410E-02
   100  1.589466564E-02
   101 -2.567790439E-02
   102  2.506621601E-03
   103  1.145575460E-03
   104 -4.077456801E-03
   105  6.251761052E-03
   106 -2.955892837E-03
   107 -8.217182961E-02
   108 -4.372393120E-02
   109  1.731095174E-02
   110  1.845313260E-02
   111 -1.095003339E-02
   112 -1.699425183E-02
   113 -3.064463972E-02
   114  1.247518137E-02
   115 -1.053277973E-02
   116  4.396606813E-02
   117 -4.200244368E-02
   118  1.760886067E-02
   119 -1.457885246E-02
   120  8.015713084E-02
   121 -5.531313693E-02
   122  1.887450760E-02
   123 -1.796888575E-02
   124 -3.523149961E-03
   125  3.990688513E-03
   126 -1.022644491E-03
   127  6.249654812E-03
   128 -3.163426815E-03
   129  2.625857371E-01
   130  1.344343310E-01
   131 -5.578498570E-02
   132  4.776249778E-02
   133  1.951196458E-02
   134  3.045104108E-02
   135  6.199347016E-02
   136  4.713371319E-02
   137  7.789439181E-04
   138 -7.911893960E-02
   139  8.846951524E-02
   140  6.726684195E-02
   141  1.114639346E-03
   142 -1.161163375E-01
   143  3.162898644E-02
   144  2.402668307E-02
   145  3.554339686E-04
   146  2.486119298E-03
   147 -3.038677656E-03
   148  4.051286703E-03
   149  2.124965382E-03
   150  7.464418425E-03
   151 -2.105405769E-01
   152 -3.520198509E-02
   153 -2.720996212E-02
   154 -7.602209966E-04
   155 -2.245600816E-02
   156 -3.503182133E-02
   157  1.584603826E-02
   158  2.732592543E-02
   159  3.370280742E-02
   160  9.413576292E-02
   161  2.296947753E-02
   162  3.924191646E-02
   163  4.806602014E-02
   164  1.130124237E-01
   165  2.143712074E-02
   166  3.986096231E-02
   167  5.180682437E-02
   168  2.943871764E-03
   169  2.511219523E-03
   170  5.106595089E-03
   171 -1.501118174E-03
   172  1.479628269E-03
   173  1.390582286E-01
   174 -4.368665285E-03
   175  3.561385742E-02
   176  8.513767590E-02
   177  1.681419333E-02
   178  2.624707699E-02
   179 -4.238419568E-02
   180  4.864572923E-02
   181  2.145991124E-02
   182 -6.797815380E-02
   183 -6.089056888E-02
   184  6.907804287E-02
   185  3.005498377E-02
   186 -1.036856224E-01
   187 -1.987524750E-02
   188  2.507863583E-02
   189  6.713428099E-03
   190 -1.817117334E-03
   191  3.087435564E-03
   192  5.112648227E-03
   193  3.130853738E-03
   194 -4.828352449E-03
   195 -7.043062275E-02
   196 -3.219341476E-02
   197  2.181709101E-03
   198 -3.911886563E-02
   199 -1.006710045E-02
   200 -1.580267080E-02
   201  1.774470986E-02
   202 -2.081355078E-03
   203  4.644721511E-03
   204  4.408860241E-02
   205  2.491023509E-02
   206 -2.915947230E-03
   207  6.516243679E-03
   208  4.870118243E-02
   209  1.340196204E-02
   210 -6.632478086E-04
   211  3.275963310E-03
   212  9.760004763E-04
   213 -1.042536187E-03
   214  2.859431732E-04
   215 -1.615963984E-03
   216  7.598695969E-04
   217 -1.549747531E-01
   218  2.502162503E-02
   219 -1.181889053E-02
   220  8.940009078E-03
   221  1.681520083E-02
   222  2.624908737E-02
   223  1.775907877E-02
   224 -3.105949876E-02
   225  5.782341369E-02
   226 -6.799469003E-02
   227  2.512326022E-02
   228 -4.491818163E-02
   229  8.206314251E-02
   230 -1.035527277E-01
   231  1.160083480E-02
   232 -1.653363024E-02
   233  2.577192017E-02
   234  2.560449906E-03
   235  3.452628887E-03
   236 -2.152432820E-03
   237 -6.965390461E-03
   238  6.811728939E-04
   239 -7.018924198E-02
   240  5.285186628E-03
   241 -4.795492272E-02
   242 -1.662742395E-02
   243 -1.006410183E-02
   244 -1.579769120E-02
   245  2.811135060E-03
   246  1.770155320E-02
   247 -4.383984278E-03
   248  4.407389732E-02
   249  3.948290959E-03
   250  2.484633508E-02
   251 -6.150650062E-03
   252  4.868560960E-02
   253  3.011839617E-03
   254  1.313752284E-02
   255 -3.064588197E-03
   256  9.971853842E-04
   257  2.714125657E-06
   258  1.034494266E-03
   259  1.787177605E-03
   260 -1.991759323E-04
   261 -1.569677284E-01
   262 -4.499513397E-03
   263  2.753613902E-02
   264 -8.794227826E-03
   265 -4.836665184E-02
   266 -6.167111283E-02
   267 -1.747145374E-02
   268 -4.995154439E-03
   269 -4.548503980E-04
   270 -2.977159586E-03
   271  1.305280288E-02
   272 -4.487384202E-02
   273 -5.836867701E-02
   274 -1.861461214E-02
   275  3.612462136E-03
   276  1.462339038E-03
   277  4.270951243E-03
   278 -5.427340525E-03
   279 -4.028003692E-02
   280 -5.155906736E-02
   281 -1.207556280E-02
   282 -3.717409945E-04
   283  1.847281909E-03
   284  4.664987879E-03
   285  9.350466097E-03
   286 -4.027764556E-02
   287 -5.155459759E-02
   288 -1.206207765E-02
   289  1.753919153E-03
   290 -7.961851105E-04
   291 -4.647362408E-03
   292  9.189856196E-03
   293 -1.087835948E-02
   294 -1.068209158E-02
   295  1.159776780E-02
   296 -4.302341455E-04
   297  5.782224379E-05
   298  8.385952091E-04
   299  2.168369689E-02
   300 -4.486207673E-02
   301 -5.838934125E-02
   302 -1.830028096E-02
   303  8.870987642E-04
   304  5.075617372E-03
   305  2.621052872E-03
   306 -5.906785363E-03
   307 -4.836058128E-02
   308 -6.168327054E-02
   309 -1.715766131E-02
   310 -1.027930332E-03
   311 -5.711225727E-03
   312 -5.795597898E-04
   313  1.284532296E-02
   314 -5.391061171E-02
   315 -6.965199693E-02
   316 -2.285152811E-02
   317 -4.717174217E-03
   318  4.197472281E-03
   319 -2.268251345E-03
   320 -9.638171470E-03
   321 -5.391374214E-02
   322 -6.964196964E-02
   323 -2.296312766E-02
   324  2.746675733E-03
   325 -5.695482000E-03
   326  2.243705246E-03
   327 -1.002846169E-02
   328 -1.087481750E-02
   329 -1.069320121E-02
   330  1.176615292E-02
   331 -4.581211278E-05
   332 -4.199937286E-04
   333 -8.445726053E-04
   334  2.139760919E-02
   335 -4.487100452E-02
   336 -5.838744083E-02
   337 -1.846391340E-02
   338  2.443934820E-03
   339  3.140937034E-03
   340 -4.194838679E-03
   341 -5.294534897E-03
   342 -4.836001681E-02
   343 -6.165913650E-02
   344 -1.753158664E-02
   345 -1.820693277E-03
   346 -4.725276815E-03
   347  2.890989631E-03
   348  1.287036878E-02
   349  1.407346925E-02
   350  1.752999008E-02
   351 -6.023947550E-03
   352  5.235526302E-04
   353 -1.757316580E-03
   354 -1.771904832E-03
   355  1.512358559E-03
   356  1.406637642E-02
   357  1.752681120E-02
   358 -5.991952607E-03
   359 -4.388054953E-04
   360 -5.581162477E-04
   361  2.449307279E-03
   362  1.522413516E-03
   363  1.091519213E-02
   364  1.369808548E-02
   365 -6.658337568E-03
   366  1.396202528E-03
   367  1.918019476E-03
   368 -2.263540184E-04
   369 -4.644580949E-03
   370 -4.836589503E-02
   371 -6.167884781E-02
   372 -1.726347904E-02
   373 -5.788316274E-03
   374  5.306589044E-04
   375  4.932364182E-04
   376  1.261829013E-02
   377 -4.486867012E-02
   378 -5.838454833E-02
   379 -1.837669088E-02
   380  5.169672946E-03
   381 -4.717983829E-04
   382 -2.546021848E-03
   383 -5.599316348E-03
   384  1.406583078E-02
   385  1.754213447E-02
   386 -6.154361762E-03
   387 -1.581252256E-03
   388  9.523112851E-04
   389  1.758923848E-03
   390  1.492600844E-03
   391  1.405878627E-02
   392  1.753758265E-02
   393 -6.118513421E-03
   394 -6.162193620E-04
   395 -2.447692716E-04
   396 -2.462192632E-03
   397  1.417108429E-03
   398  1.091078314E-02
   399  1.370411885E-02
   400 -6.677053252E-03
   401  2.217070929E-03
   402  8.278166513E-04
   403  2.722857842E-04
   404 -4.485023103E-03
Ene=   -4.5128761383E-01
Spin= Alpha
Occup=   2.0000000
     1 -4.779780214E-05
     2 -7.565034660E-05
     3  9.219399744E-03
     4 -1.230399006E-02
     5 -4.273325537E-02
     6  2.299973372E-04
     7  1.305458015E-02
     8 -1.742874602E-02
     9 -6.056891793E-02
    10 -4.331492888E-05
    11  1.389558513E-02
    12 -1.845639551E-02
    13 -6.404915453E-02
    14 -6.855762333E-03
    15 -8.964006028E-03
    16  4.738208126E-03
    17  6.057188038E-04
    18 -4.095738008E-03
    19  7.039942317E-04
    20  3.829274977E-03
    21 -2.450558059E-03
    22 -1.219977452E-02
    23 -1.257884594E-02
    24 -1.984810334E-02
    25 -7.185031891E-02
    26  3.324145718E-02
    27 -1.960795752E-03
    28  5.550627318E-02
    29 -1.010359188E-01
    30  4.664029128E-02
    31 -3.675736174E-03
    32  6.463037392E-02
    33 -6.356758829E-02
    34  4.217958977E-02
    35 -8.074352272E-03
    36  1.340985672E-04
    37  4.237976179E-03
    38  2.167854593E-03
    39  4.449469931E-03
    40 -1.673733850E-03
    41  7.926837750E-02
    42  6.505283817E-03
    43 -5.842990523E-03
    44 -3.403719042E-02
    45 -6.210522524E-05
    46 -9.800202688E-05
    47  2.321795573E-02
    48 -2.843489390E-02
    49 -9.994948918E-02
    50  2.735941585E-04
    51  3.313663003E-02
    52 -4.059345237E-02
    53 -1.426903161E-01
    54  2.856121219E-04
    55  1.923342943E-02
    56 -2.343715247E-02
    57 -8.321826458E-02
    58 -5.887433676E-05
    59 -3.729859267E-03
    60 -2.827361125E-03
    61  1.658781082E-03
    62 -3.948104196E-04
    63 -3.244538630E-03
    64  3.559531757E-03
    65 -3.321647312E-03
    66 -1.061923118E-02
    67  1.439108731E-02
    68  2.264995831E-02
    69 -2.482047691E-02
    70 -1.308589708E-02
    71  1.168531202E-02
    72 -6.540159105E-02
    73 -3.602062425E-02
    74 -1.870235595E-02
    75  1.763382309E-02
    76 -2.253554412E-02
    77 -3.061083625E-02
    78 -1.455155252E-02
    79  1.797684317E-02
    80  1.931353803E-03
    81  1.490435988E-03
    82 -1.631547976E-03
    83 -2.284591751E-03
    84 -7.888030223E-03
    85 -5.150286844E-04
    86  1.024559949E-03
    87  9.635883474E-03
    88  1.856501217E-02
    89 -1.280206205E-02
    90 -2.020078802E-02
    91  3.429351553E-03
    92 -6.553156826E-02
    93  4.471728846E-02
    94  5.650660085E-02
    95  5.066514054E-03
    96 -9.257883973E-02
    97  6.211915042E-02
    98  6.556043615E-02
    99  1.638419076E-02
   100 -6.287909188E-02
   101  4.143902788E-02
   102 -5.027768337E-04
   103  4.766849985E-04
   104  4.346332872E-04
   105 -6.661555305E-03
   106  1.143045875E-03
   107  8.794493918E-02
   108  1.107662315E-02
   109 -9.597489084E-03
   110 -3.329962665E-02
   111  1.527205074E-04
   112  2.412267180E-04
   113  1.003336425E-02
   114 -1.184203654E-02
   115 -4.269406635E-02
   116 -7.085987624E-04
   117  1.420800784E-02
   118 -1.676693655E-02
   119 -6.051594006E-02
   120 -2.468865739E-04
   121  1.507644593E-02
   122 -1.783441212E-02
   123 -6.403221923E-02
   124  6.674011766E-03
   125  2.055753308E-03
   126 -1.003225694E-02
   127  2.457448616E-03
   128  3.386729434E-03
   129 -2.296790751E-03
   130  3.653266956E-04
   131 -2.616863925E-03
   132 -1.499228262E-02
   133  3.230772040E-05
   134  5.138706021E-05
   135  1.507366910E-03
   136 -1.430713595E-03
   137 -7.842253902E-03
   138 -1.518850490E-04
   139  2.315578125E-03
   140 -2.256120762E-03
   141 -1.189808150E-02
   142 -1.016297682E-04
   143  3.709400397E-03
   144 -4.179671790E-03
   145 -1.760268688E-02
   146 -4.903251389E-05
   147 -2.574461549E-03
   148 -1.961149284E-03
   149  1.178408635E-03
   150 -2.791627950E-04
   151  2.079162261E-03
   152  2.792273808E-06
   153  3.895326715E-04
   154 -3.410101595E-04
   155 -1.440744798E-02
   156 -2.267551591E-02
   157  1.897155649E-02
   158  2.034677076E-02
   159  1.252255473E-02
   160  6.547611137E-02
   161  2.724158536E-02
   162  2.960148085E-02
   163  1.883407898E-02
   164  2.252302728E-02
   165  2.187172361E-02
   166  2.542107550E-02
   167  1.897540190E-02
   168 -1.898011943E-03
   169 -9.832094311E-04
   170  2.005149222E-03
   171  2.131724831E-03
   172  7.858982622E-03
   173 -5.950703084E-03
   174 -9.219275023E-03
   175 -3.865255721E-04
   176  1.779139565E-02
   177  1.255642862E-02
   178  1.981287067E-02
   179 -1.293232501E-02
   180  7.785922758E-02
   181 -9.706256515E-04
   182 -5.540625537E-02
   183 -1.807261242E-02
   184  1.094651942E-01
   185 -2.274722361E-03
   186 -6.462635746E-02
   187 -2.366898720E-02
   188  7.230895950E-02
   189 -7.421716688E-03
   190  1.081451542E-05
   191  3.279263953E-03
   192  3.419937336E-03
   193  4.651482375E-03
   194 -9.676221967E-04
   195 -8.342630507E-02
   196  5.226760674E-03
   197 -8.622012839E-03
   198 -3.420175857E-02
   199  3.290440123E-05
   200  5.212646873E-05
   201  5.603996239E-03
   202 -6.587930979E-03
   203 -2.424090464E-02
   204 -1.440705370E-04
   205  8.154046264E-03
   206 -9.577772279E-03
   207 -3.518406115E-02
   208 -3.940617178E-04
   209  3.066458637E-03
   210 -3.391597885E-03
   211 -1.274994876E-02
   212  1.592616260E-03
   213 -9.504827356E-04
   214 -3.506782791E-03
   215  1.240137084E-03
   216  6.429038986E-04
   217  2.998867775E-03
   218  2.305007633E-03
   219 -3.338977324E-03
   220 -1.234201833E-02
   221  1.277903868E-02
   222  2.016492899E-02
   223  6.110800320E-02
   224 -2.134386838E-02
   225  4.554456230E-02
   226 -5.641171756E-02
   227  8.628106748E-02
   228 -3.036384215E-02
   229  6.328782984E-02
   230 -6.548674855E-02
   231  5.516078756E-02
   232 -3.309310530E-02
   233  4.198144846E-02
   234  5.178277531E-04
   235  4.702765750E-04
   236  4.268560724E-04
   237 -6.288000447E-03
   238  2.427044240E-03
   239 -7.666480728E-02
   240  7.456488785E-03
   241 -1.350256373E-02
   242 -3.107158119E-02
   243 -2.566806259E-05
   244 -4.039617850E-05
   245  5.138551761E-03
   246 -6.783683877E-03
   247 -2.428103015E-02
   248  1.062211062E-04
   249  7.464447098E-03
   250 -9.860275264E-03
   251 -3.525058503E-02
   252  3.004713954E-04
   253  2.622863547E-03
   254 -3.613967285E-03
   255 -1.274168395E-02
   256 -1.697632499E-03
   257 -3.582508631E-03
   258  3.344389179E-05
   259  8.113181372E-04
   260 -1.141738480E-03
   261 -2.710443768E-04
   262  2.762120971E-03
   263 -3.631342573E-03
   264 -1.236711526E-02
   265  7.226821429E-02
   266  9.684846306E-02
   267  1.872334176E-02
   268  7.091565739E-03
   269 -1.977918934E-03
   270  3.479313058E-03
   271  2.376225018E-03
   272  9.923273179E-03
   273  1.385646065E-02
   274 -4.745370164E-03
   275 -5.183674649E-03
   276  4.299870575E-04
   277 -1.220165628E-03
   278  8.959736564E-03
   279 -6.878765715E-02
   280 -9.328684632E-02
   281 -3.133964370E-02
   282  5.093445394E-03
   283  5.039052382E-03
   284  2.695471037E-03
   285 -1.013261634E-02
   286  6.917110799E-02
   287  9.378216059E-02
   288  3.150015642E-02
   289 -6.274438090E-03
   290 -3.582561861E-03
   291  2.601168688E-03
   292  9.971119993E-03
   293  6.166350789E-03
   294 -4.326350893E-04
   295 -1.410920160E-02
   296 -1.017656880E-03
   297 -5.169810958E-04
   298  5.174010093E-04
   299 -2.856293003E-03
   300  1.130194549E-02
   301  1.574446887E-02
   302 -4.871428432E-03
   303 -1.069556746E-03
   304 -5.173190837E-03
   305  1.184068917E-03
   306  8.654500905E-03
   307  7.228762924E-02
   308  9.689141523E-02
   309  1.818557031E-02
   310 -4.612573148E-04
   311  8.103617574E-03
   312 -1.017973607E-03
   313  3.219098007E-03
   314  3.399314107E-04
   315  4.376789757E-04
   316  1.180330648E-04
   317 -8.222550304E-05
   318  1.851733054E-04
   319  5.332103024E-04
   320 -2.345909263E-04
   321 -6.350085047E-04
   322 -8.362463145E-04
   323 -2.243566054E-04
   324 -1.404958301E-04
   325  8.692784101E-05
   326  5.474862780E-04
   327  1.920014551E-05
   328 -6.339519489E-03
   329  2.165159981E-04
   330  1.422254753E-02
   331  7.508661624E-04
   332  8.255529838E-04
   333  5.344195007E-04
   334  2.846013134E-03
   335 -1.015087742E-02
   336 -1.416534747E-02
   337  4.770609617E-03
   338  1.011893724E-03
   339  5.112782364E-03
   340 -1.155763300E-03
   341 -9.180226678E-03
   342 -7.197021922E-02
   343 -9.646294064E-02
   344 -1.845302133E-02
   345 -5.353998356E-05
   346 -7.372471255E-03
   347  3.398214115E-03
   348 -2.924429508E-03
   349 -1.766587674E-02
   350 -2.577928794E-02
   351 -1.075777364E-02
   352  1.372838329E-03
   353  6.096754484E-04
   354  6.473171855E-04
   355  1.324004686E-02
   356  1.784941713E-02
   357  2.605558498E-02
   358  1.092667325E-02
   359 -1.590191923E-03
   360 -3.234699662E-04
   361  2.517513518E-04
   362 -1.327346005E-02
   363 -2.519008659E-04
   364 -3.234833017E-04
   365 -2.533659562E-05
   366  2.408587977E-04
   367 -3.191916185E-04
   368 -1.029908410E-03
   369  4.385983846E-06
   370 -7.198497485E-02
   371 -9.648004367E-02
   372 -1.834577201E-02
   373 -7.647738032E-03
   374  2.616608829E-03
   375 -1.086287540E-03
   376 -2.846498407E-03
   377 -1.153005291E-02
   378 -1.602180380E-02
   379  4.419379220E-03
   380  5.253097897E-03
   381 -3.575192007E-04
   382  1.238622350E-03
   383 -8.523866461E-03
   384  1.764617679E-02
   385  2.576061036E-02
   386  1.077062023E-02
   387 -9.671524826E-04
   388 -1.162866304E-03
   389  6.143999783E-04
   390 -1.324703941E-02
   391 -1.785679599E-02
   392 -2.607020631E-02
   393 -1.095002945E-02
   394  7.295029942E-04
   395  1.447943958E-03
   396  2.807935217E-04
   397  1.335195867E-02
   398  3.559303164E-04
   399  4.802731894E-04
   400  1.877911204E-04
   401  2.642831840E-04
   402 -3.086099031E-04
   403 -1.027772979E-03
   404  9.022573823E-05
Ene=   -4.5099225725E-01
Spin= Alpha
Occup=   2.0000000
     1  1.858608679E-02
     2  2.931826546E-02
     3 -3.119320215E-02
     4  8.065044589E-05
     5 -7.022481467E-03
     6 -8.460761136E-02
     7 -4.438680375E-02
     8 -1.088697452E-03
     9 -9.652374704E-03
    10 -5.088312299E-02
    11 -4.492735051E-02
    12  1.194689137E-02
    13 -1.344121990E-02
    14 -5.061584860E-03
    15  1.822553802E-03
    16  1.045403885E-03
    17  7.267430885E-03
    18  6.702337843E-03
    19  1.149382469E-01
    20  2.086569377E-02
    21 -6.722434787E-03
    22  7.230225219E-03
    23 -4.229406212E-03
    24 -6.659636341E-03
    25 -5.236525695E-02
    26 -1.064749992E-02
    27 -4.177854142E-02
    28  1.908676291E-02
    29 -7.464786369E-02
    30 -1.582007504E-02
    31 -5.924918689E-02
    32  4.770516219E-04
    33 -5.476402405E-02
    34 -1.114988562E-02
    35 -2.871968872E-02
    36 -2.870609590E-03
    37  2.895456088E-03
    38  9.600440287E-04
    39  7.077873668E-04
    40 -3.201293268E-03
    41 -7.801780652E-03
    42 -1.799277586E-02
    43 -8.576472776E-03
    44 -8.794769716E-03
    45 -2.131483690E-02
    46 -3.360740576E-02
    47  7.401003465E-02
    48  5.642564832E-02
    49  1.222760941E-03
    50  9.359359223E-02
    51  1.035773836E-01
    52  7.897097030E-02
    53  1.719906545E-03
    54  9.914418440E-02
    55  7.645578780E-02
    56  5.828108842E-02
    57  1.200890832E-03
    58  7.236546992E-03
    59 -4.733486972E-03
    60  6.142434521E-03
    61  1.661000141E-03
    62  5.709428304E-03
    63 -3.359366587E-02
    64  4.445414351E-03
    65  2.154418757E-03
    66  5.559023131E-04
    67 -2.085570598E-03
    68 -3.277584806E-03
    69  1.051203477E-02
    70 -1.520952543E-02
    71 -5.077021829E-02
    72  1.046859708E-02
    73  1.481967330E-02
    74 -2.182750093E-02
    75 -7.241490845E-02
    76 -1.479404683E-02
    77  1.520478737E-02
    78 -1.444940842E-02
    79 -5.686785358E-02
    80  3.426276478E-03
    81  1.373732913E-03
    82 -1.440680537E-03
    83 -3.007556260E-03
    84 -1.022626042E-02
    85  7.385272467E-02
    86  1.099796733E-02
    87 -1.512792514E-03
    88 -1.980303388E-02
    89 -4.215042738E-03
    90 -6.637430507E-03
    91 -1.164966854E-02
    92 -6.457561581E-02
    93 -1.724063655E-02
    94  1.903666740E-02
    95 -1.726730265E-02
    96 -9.181871128E-02
    97 -2.467093593E-02
    98  2.310695698E-04
    99 -1.801173570E-02
   100 -5.983505825E-02
   101 -6.493359243E-03
   102 -8.901824065E-04
   103  3.188178062E-03
   104 -2.223322539E-03
   105 -3.407427947E-03
   106 -8.391530943E-04
   107 -1.147414646E-02
   108 -9.157812374E-03
   109 -1.838477227E-02
   110 -3.457562534E-03
   111  1.857371318E-02
   112  2.929885151E-02
   113 -8.454632625E-03
   114 -3.013277859E-02
   115  6.780739732E-03
   116 -8.455695009E-02
   117 -1.317717322E-02
   118 -4.255996352E-02
   119  9.296528135E-03
   120 -5.081733118E-02
   121 -9.496582101E-04
   122 -4.656719500E-02
   123  1.322172543E-02
   124 -5.170811069E-03
   125 -1.293251467E-03
   126 -1.126600996E-03
   127 -2.782364706E-03
   128  9.509791112E-03
   129  1.208498774E-01
   130 -6.606300812E-03
   131  2.182774199E-02
   132 -8.651688080E-03
   133  1.028287385E-02
   134  1.629495939E-02
   135  6.890303591E-02
   136  5.236652920E-02
   137  8.980000563E-04
   138 -4.670915161E-02
   139  9.611143521E-02
   140  7.304799703E-02
   141  1.253830865E-03
   142 -5.269344176E-02
   143  6.805075695E-02
   144  5.174497421E-02
   145  9.157985913E-04
   146  2.020079380E-03
   147 -2.024917451E-03
   148  2.695407878E-03
   149  1.240740022E-03
   150  4.356354665E-03
   151 -1.833205824E-01
   152 -4.630359337E-02
   153 -3.542203929E-02
   154 -4.495880156E-04
   155 -2.002175796E-03
   156 -3.146390396E-03
   157 -1.276327176E-02
   158  1.345619266E-02
   159  5.067461143E-02
   160  1.009123670E-02
   161 -1.837936463E-02
   162  1.905698811E-02
   163  7.227130397E-02
   164 -1.493391850E-02
   165 -1.088436333E-02
   166  1.764554478E-02
   167  5.681545896E-02
   168  3.430087458E-03
   169  7.679866092E-04
   170 -1.931940958E-03
   171 -2.742779644E-03
   172 -1.033784224E-02
   173  7.484842239E-02
   174  2.071775008E-03
   175  9.669438577E-03
   176  2.044160657E-02
   177 -4.290898065E-03
   178 -6.757194636E-03
   179 -2.487979869E-02
   180 -4.856402192E-02
   181  4.087512791E-02
   182  1.937237254E-02
   183 -3.607660338E-02
   184 -6.904645722E-02
   185  5.796031387E-02
   186  6.240689324E-04
   187 -2.572521098E-02
   188 -5.058629377E-02
   189  2.774474488E-02
   190 -2.968259970E-03
   191 -1.697789799E-03
   192 -2.502982661E-03
   193 -2.287439690E-03
   194 -2.311867921E-03
   195 -1.576660297E-02
   196 -1.171374822E-02
   197 -1.612787918E-02
   198  8.018890442E-03
   199  1.098200263E-03
   200  1.762785399E-03
   201  1.098952331E-02
   202 -1.906692836E-02
   203  8.027783917E-03
   204 -5.014670071E-03
   205  1.719195872E-02
   206 -2.833972685E-02
   207  1.212445936E-02
   208 -2.556358308E-02
   209  2.022897623E-02
   210 -1.200421514E-02
   211  8.080728625E-03
   212 -9.255623791E-04
   213 -1.156459392E-03
   214 -6.515287063E-04
   215 -3.093673530E-03
   216  2.822621014E-03
   217 -1.126077505E-02
   218  4.604119619E-04
   219 -7.301660300E-03
   220  2.247594477E-03
   221 -4.301180389E-03
   222 -6.772844389E-03
   223 -6.593503549E-02
   224  5.961947967E-03
   225  1.594077236E-02
   226  1.940127913E-02
   227 -9.393989881E-02
   228  7.792873178E-03
   229  2.282113607E-02
   230  8.639932923E-04
   231 -6.284999551E-02
   232 -1.221996355E-03
   233  5.256468199E-03
   234 -9.334871259E-04
   235  1.320712525E-03
   236 -3.723088048E-03
   237  2.462682592E-03
   238 -2.444405089E-03
   239 -4.417907367E-03
   240 -2.017842720E-02
   241 -5.018454107E-03
   242  4.541026261E-03
   243  1.100253474E-03
   244  1.766256333E-03
   245 -1.529560641E-02
   246  1.583398918E-02
   247 -7.928427036E-03
   248 -5.024698983E-03
   249 -2.250557084E-02
   250  2.436166170E-02
   251 -1.196987822E-02
   252 -2.561457893E-02
   253 -6.002992383E-03
   254  2.286132035E-02
   255 -7.825187033E-03
   256 -8.653482645E-04
   257  1.056897466E-03
   258  9.236188648E-04
   259  4.095032561E-03
   260  8.032736457E-04
   261 -1.447948950E-02
   262 -6.845603850E-03
   263  2.856470143E-03
   264 -2.323861870E-03
   265  5.032383287E-02
   266  6.783163295E-02
   267  1.198777308E-02
   268  4.724817831E-03
   269 -2.591502353E-03
   270 -1.019725067E-03
   271  1.814617665E-04
   272 -3.684458592E-02
   273 -4.886259089E-02
   274 -2.222125840E-02
   275 -1.105980310E-03
   276  3.708284472E-03
   277  2.246733696E-03
   278  4.195202660E-03
   279  6.506414586E-02
   280  8.690368484E-02
   281  5.172480840E-03
   282  1.022909848E-03
   283 -2.943808002E-03
   284 -8.148014536E-03
   285  1.950923025E-04
   286  6.464900939E-02
   287  8.634241109E-02
   288  4.989484026E-03
   289 -2.656201680E-03
   290  1.697629666E-03
   291  8.111073474E-03
   292  2.154141398E-04
   293 -3.262456839E-02
   294 -3.707740719E-02
   295 -5.743646885E-03
   296 -2.226107620E-03
   297 -1.270369405E-03
   298  8.941297572E-04
   299  1.481766940E-03
   300 -3.688967193E-02
   301 -4.892952053E-02
   302 -2.231290372E-02
   303  1.884989237E-03
   304 -2.463875217E-04
   305  4.055020654E-03
   306  3.814409033E-03
   307  5.029798637E-02
   308  6.780476824E-02
   309  1.194604010E-02
   310 -1.060647308E-04
   311  3.809409978E-03
   312 -3.944293304E-03
   313  6.535343248E-04
   314 -4.911324625E-02
   315 -6.729839500E-02
   316 -8.392977814E-03
   317 -4.428535404E-03
   318  5.423183118E-03
   319 -2.551370470E-03
   320 -1.391918156E-02
   321 -4.908315765E-02
   322 -6.723431232E-02
   323 -8.509102287E-03
   324  4.003413988E-03
   325 -5.745334461E-03
   326  2.542012793E-03
   327 -1.427631557E-02
   328 -3.258835788E-02
   329 -3.707504074E-02
   330 -5.872286160E-03
   331 -1.809334020E-03
   332 -1.798308800E-03
   333 -9.479455319E-04
   334  1.411891311E-03
   335 -3.684659003E-02
   336 -4.888066916E-02
   337 -2.217708747E-02
   338  3.311847843E-03
   339 -2.059287277E-03
   340 -2.216558087E-03
   341  4.058040989E-03
   342  5.074936028E-02
   343  6.839601470E-02
   344  1.214574356E-02
   345 -1.250657028E-03
   346  5.277031847E-03
   347  1.046627649E-03
   348  2.875275406E-04
   349 -1.192616442E-03
   350 -7.477703789E-04
   351 -6.085336689E-03
   352  6.440108683E-04
   353 -6.769284886E-04
   354  4.842919426E-04
   355  4.080954269E-03
   356 -1.329714982E-03
   357 -9.435501732E-04
   358 -6.206913608E-03
   359  7.153042494E-04
   360 -7.468675718E-04
   361  2.267356629E-04
   362  4.056528453E-03
   363  1.770684609E-02
   364  2.759375659E-02
   365  8.422324527E-03
   366 -1.692506669E-04
   367  1.004867777E-03
   368 -3.192577585E-04
   369 -7.875719767E-03
   370  5.072114581E-02
   371  6.837013689E-02
   372  1.205726244E-02
   373  3.624933281E-03
   374 -1.184710150E-03
   375  3.990733486E-03
   376  6.745457633E-04
   377 -3.676312635E-02
   378 -4.874201134E-02
   379 -2.239658508E-02
   380  2.957366295E-04
   381  1.931756005E-03
   382 -4.030485433E-03
   383  4.031782795E-03
   384 -1.284048112E-03
   385 -8.633199579E-04
   386 -6.293766107E-03
   387 -4.659867539E-04
   388  8.137217640E-04
   389 -4.832717534E-04
   390  4.098087769E-03
   391 -1.207680224E-03
   392 -7.481378900E-04
   393 -6.269701445E-03
   394 -5.276371632E-04
   395  8.808277459E-04
   396 -2.272275546E-04
   397  3.939226934E-03
   398  1.767203773E-02
   399  2.755987480E-02
   400  8.341153111E-03
   401  9.143999101E-04
   402 -4.329035121E-04
   403  3.340345893E-04
   404 -7.706638535E-03
Ene=   -4.5001499935E-01
Spin= Alpha
Occup=   2.0000000
     1 -1.122158984E-02
     2 -1.773780094E-02
     3 -4.794028550E-02
     4 -2.101629190E-02
     5 -4.546157832E-03
     6  5.257463363E-02
     7 -6.919984106E-02
     8 -2.857008226E-02
     9 -7.074256364E-03
    10  1.180382365E-02
    11 -6.513375904E-02
    12 -3.258623535E-02
    13 -4.974404872E-03
    14 -5.296010340E-03
    15  1.451743588E-03
    16 -2.474275029E-03
    17 -6.481773941E-04
    18  2.971791682E-03
    19  3.862667167E-02
    20  4.747671620E-02
    21  2.960302649E-01
    22 -7.334421442E-02
    23  1.232130054E-02
    24  1.948143080E-02
    25 -6.974224250E-03
    26 -4.534108578E-02
    27 -6.868699248E-02
    28 -5.556466005E-02
    29 -1.103674898E-02
    30 -6.274983791E-02
    31 -9.758870305E-02
    32 -4.803919789E-02
    33  7.871449970E-04
    34 -4.746074714E-02
    35 -6.746861001E-02
    36  6.337914792E-04
    37 -4.776106906E-03
    38 -5.305269357E-03
    39 -4.341741651E-05
    40 -1.159291355E-03
    41  1.084911001E-01
    42 -3.969986929E-02
    43 -7.218969183E-02
    44  5.859059112E-03
    45 -8.159281053E-06
    46 -1.274045954E-05
    47  1.706280912E-02
    48 -2.256802510E-02
    49  1.134809502E-02
    50  3.536516040E-05
    51  2.393148872E-02
    52 -3.165524643E-02
    53  1.594121117E-02
    54 -4.167349487E-05
    55 -5.132411549E-04
    56  7.603563054E-04
    57  5.738880501E-04
    58  2.489788806E-06
    59  6.775789589E-06
    60  8.390111794E-06
    61 -1.059349783E-04
    62  3.074905142E-05
    63  1.689504198E-02
    64  7.015079927E-02
    65 -9.821898446E-02
    66  4.456918461E-02
    67 -1.354982779E-04
    68 -2.132694180E-04
    69 -1.422802345E-02
    70  1.924847813E-02
    71 -8.854957525E-03
    72  6.137039763E-04
    73 -1.995567773E-02
    74  2.700725790E-02
    75 -1.243980976E-02
    76  2.539918307E-04
    77 -1.377044615E-02
    78  1.883934718E-02
    79 -8.655901673E-03
    80  7.299095903E-03
    81  7.289983609E-03
    82 -7.082370060E-03
    83  5.289512870E-03
    84  2.956086803E-03
    85  1.152360747E-03
    86  5.277143431E-02
    87 -6.998572994E-02
    88  3.128918902E-02
    89 -1.209082916E-02
    90 -1.911789771E-02
    91  1.433794206E-02
    92  3.662108007E-02
    93  7.235462036E-02
    94  5.454858185E-02
    95  1.935535637E-02
    96  5.319166893E-02
    97  1.015324385E-01
    98  4.686803890E-02
    99  1.365022176E-02
   100  2.899145119E-02
   101  7.555991719E-02
   102  5.191801080E-04
   103  4.551544989E-03
   104  3.153571864E-03
   105 -3.521855179E-03
   106  2.880562519E-03
   107 -1.153181281E-01
   108  7.730975442E-02
   109  2.192552150E-02
   110  1.954568652E-02
   111  1.123033926E-02
   112  1.775164134E-02
   113  3.313733491E-02
   114  4.059743447E-02
   115 -3.510905788E-03
   116 -5.261442961E-02
   117  4.613221711E-02
   118  5.907572341E-02
   119 -5.600227599E-03
   120 -1.184228367E-02
   121  4.891135663E-02
   122  5.410615746E-02
   123 -3.562244615E-03
   124  5.275648670E-03
   125 -2.202362369E-03
   126  1.938368440E-03
   127 -2.031527987E-03
   128 -2.210577816E-03
   129 -4.861250474E-02
   130 -2.997175590E-01
   131  2.748094529E-02
   132 -7.735621955E-02
   133  6.787244816E-06
   134  1.066325140E-05
   135 -4.649378565E-02
   136  6.167754121E-02
   137 -2.802786321E-02
   138 -2.919849860E-05
   139 -6.553441263E-02
   140  8.693527311E-02
   141 -3.949539462E-02
   142  3.983713453E-06
   143 -4.832538673E-02
   144  6.414994464E-02
   145 -2.905996591E-02
   146  2.367637848E-05
   147  9.458115519E-04
   148  6.828577803E-04
   149  2.995011015E-03
   150 -8.419290751E-04
   151  9.987057847E-04
   152 -3.276367558E-02
   153  4.461729566E-02
   154 -2.033418204E-02
   155  1.284520937E-04
   156  2.022076149E-04
   157 -1.462057221E-02
   158  1.896219713E-02
   159 -8.829096545E-03
   160 -5.859705655E-04
   161 -2.052703959E-02
   162  2.659761014E-02
   163 -1.239943283E-02
   164 -1.665583659E-04
   165 -1.420813327E-02
   166  1.843425702E-02
   167 -8.693750473E-03
   168 -7.240931842E-03
   169 -4.685404318E-03
   170  8.949725366E-03
   171  3.192221961E-03
   172 -5.351682110E-03
   173 -9.488348245E-04
   174  5.321961728E-02
   175 -7.051166153E-02
   176  3.229771466E-02
   177 -1.232454450E-02
   178 -1.948669925E-02
   179  4.662614386E-02
   180 -4.625927617E-03
   181 -6.797700450E-02
   182  5.558210268E-02
   183  6.494082373E-02
   184 -5.037253192E-03
   185 -9.658227971E-02
   186  4.803628452E-02
   187  4.659953003E-02
   188 -1.274951899E-02
   189 -6.680441668E-02
   190 -8.782138280E-04
   191 -6.347021392E-03
   192 -3.159156873E-03
   193  6.214346848E-04
   194  1.142195363E-03
   195 -1.192622169E-01
   196  8.078790442E-02
   197  1.713384710E-02
   198  4.984666774E-03
   199  3.033883909E-03
   200  4.794979912E-03
   201  8.132384211E-03
   202  3.746604506E-02
   203 -8.528040636E-03
   204 -1.306366821E-02
   205  1.337778869E-02
   206  5.337484901E-02
   207 -1.173074796E-02
   208 -3.556666766E-02
   209  1.380948392E-02
   210  2.628846377E-02
   211 -4.181217782E-03
   212  3.332086524E-03
   213 -7.367637864E-04
   214  1.714732025E-03
   215  9.161488032E-04
   216 -1.813855059E-03
   217  2.051999041E-01
   218 -2.015270254E-02
   219  8.432791640E-03
   220 -6.835589708E-03
   221  1.208986977E-02
   222  1.911634608E-02
   223 -4.033022073E-02
   224 -4.883012667E-03
   225  7.168156880E-02
   226 -5.454470834E-02
   227 -5.812472874E-02
   228 -5.636238922E-03
   229  1.005786007E-01
   230 -4.684489272E-02
   231 -3.291862456E-02
   232 -6.230418468E-03
   233  7.500875824E-02
   234 -3.294044204E-04
   235  4.188851425E-03
   236  3.592989771E-03
   237 -4.524674693E-03
   238 -7.619175892E-04
   239  1.131906219E-01
   240 -4.192377811E-02
   241 -7.031051743E-02
   242  1.699530629E-02
   243 -3.030909798E-03
   244 -4.789862516E-03
   245 -3.814808541E-02
   246  2.286425140E-03
   247 -9.116288902E-03
   248  1.304169326E-02
   249 -5.481961996E-02
   250  1.528318735E-03
   251 -1.259718218E-02
   252  3.562452198E-02
   253 -2.907026788E-02
   254 -6.249872244E-03
   255 -4.725029292E-03
   256 -3.316687066E-03
   257  1.587521475E-03
   258 -1.101837341E-03
   259  1.681954082E-03
   260  1.083592939E-03
   261 -2.003427817E-01
   262 -2.323609571E-03
   263  2.043840970E-02
   264 -6.323391810E-03
   265 -9.267751155E-04
   266 -1.357588497E-03
   267  1.679542057E-02
   268 -9.734682727E-04
   269 -2.703049074E-03
   270 -4.353395740E-03
   271 -1.424070633E-02
   272 -7.625789994E-02
   273 -1.029478237E-01
   274 -1.252263902E-02
   275  2.784015339E-03
   276  4.517076770E-03
   277  6.322115562E-03
   278  1.703193500E-02
   279  6.607405258E-04
   280  9.120554018E-04
   281 -3.558578089E-05
   282  1.570395505E-03
   283 -2.188801847E-03
   284  9.485393661E-04
   285 -6.895371375E-05
   286 -6.142204643E-04
   287 -8.130697807E-04
   288 -5.361851920E-04
   289  1.672517456E-03
   290 -2.108137027E-03
   291  9.568928162E-04
   292  2.539941573E-04
   293 -5.588247021E-05
   294  4.354046801E-06
   295  1.296388522E-04
   296 -6.693081494E-04
   297  9.018419996E-04
   298 -4.163485676E-04
   299  5.693688310E-05
   300  7.601818246E-02
   301  1.026108382E-01
   302  1.286076265E-02
   303 -2.366729710E-03
   304 -4.948970698E-03
   305 -6.100457795E-03
   306 -1.742941596E-02
   307 -3.288481453E-04
   308 -3.570729846E-04
   309 -1.703841204E-02
   310  9.671996530E-04
   311  2.578208063E-03
   312  4.359539541E-03
   313  1.374461736E-02
   314  5.296842997E-02
   315  6.940858309E-02
   316  1.798396542E-02
   317  5.785574565E-03
   318  1.830910139E-03
   319  7.965463479E-04
   320 -1.824490751E-02
   321 -5.301518033E-02
   322 -6.947063316E-02
   323 -1.808299976E-02
   324 -3.319877834E-03
   325 -5.098935669E-03
   326  6.836516080E-04
   327  1.884200091E-02
   328  5.047683737E-05
   329 -2.182775457E-05
   330 -4.229886594E-05
   331 -6.860315198E-04
   332  8.898600782E-04
   333 -4.150390251E-04
   334 -8.337362040E-05
   335  7.622864844E-02
   336  1.028921620E-01
   337  1.290483279E-02
   338 -5.195474916E-03
   339 -1.550980166E-03
   340  6.220045362E-03
   341 -1.754123349E-02
   342  9.692402271E-04
   343  1.386982750E-03
   344 -1.651997938E-02
   345  2.932790281E-03
   346  2.713762356E-04
   347 -4.302553348E-03
   348  1.369904004E-02
   349  1.190906691E-02
   350  1.739319066E-02
   351  1.291651948E-02
   352 -5.643451185E-04
   353  1.486812619E-03
   354 -1.571341146E-03
   355 -4.146944856E-03
   356  1.157361118E-02
   357  1.691536961E-02
   358  1.264486609E-02
   359 -9.455960964E-04
   360  2.004990808E-03
   361  2.247608797E-04
   362 -3.990546438E-03
   363 -3.356131853E-02
   364 -4.493518921E-02
   365 -1.205106499E-02
   366  7.396614574E-04
   367 -2.958998898E-03
   368  1.020697964E-03
   369 -6.664967325E-03
   370  3.714647228E-04
   371  3.954403954E-04
   372  1.705127339E-02
   373 -2.810305548E-03
   374 -2.957090822E-04
   375  4.314970039E-03
   376 -1.385664727E-02
   377 -7.605329976E-02
   378 -1.026589914E-01
   379 -1.271830749E-02
   380  5.498877402E-03
   381  1.030654782E-03
   382 -6.004888961E-03
   383  1.733875730E-02
   384 -1.191336780E-02
   385 -1.738887501E-02
   386 -1.284363282E-02
   387 -1.256278987E-03
   388  9.600759202E-04
   389 -1.580094055E-03
   390  4.347063001E-03
   391 -1.158484021E-02
   392 -1.692925602E-02
   393 -1.257192620E-02
   394 -1.681307560E-03
   395  1.445544596E-03
   396  2.170524839E-04
   397  4.316193226E-03
   398  3.356590027E-02
   399  4.496125403E-02
   400  1.175828646E-02
   401  2.636635885E-03
   402 -1.517576672E-03
   403  1.044012021E-03
   404  6.510406886E-03
Ene=   -4.3998465834E-01
Spin= Alpha
Occup=   2.0000000
     1 -2.923518496E-02
     2 -4.599483405E-02
     3 -1.236069255E-02
     4  5.077000414E-02
     5 -1.721745094E-02
     6  1.280075093E-01
     7 -1.732245990E-02
     8  7.294010753E-02
     9 -2.463827426E-02
    10  1.495891168E-01
    11 -2.378712601E-02
    12  4.397313019E-02
    13 -1.785987532E-02
    14 -5.078191230E-03
    15  1.862874779E-03
    16 -3.471079047E-03
    17 -2.038749331E-03
    18  1.224755812E-05
    19 -1.564162548E-01
    20 -6.133673324E-03
    21 -3.455748977E-02
    22  9.068260035E-03
    23  1.423732670E-02
    24  2.234489322E-02
    25 -1.556649912E-02
    26 -3.043468880E-03
    27 -3.014381232E-02
    28 -6.126710775E-02
    29 -2.250504308E-02
    30 -3.942824055E-03
    31 -4.262810404E-02
    32 -4.902426354E-02
    33 -1.789999544E-02
    34 -1.494718701E-02
    35 -2.046467624E-02
    36  1.734403141E-03
    37 -5.639135909E-03
    38 -9.846075892E-03
    39  5.137865896E-04
    40  5.200132305E-03
    41  3.823546269E-02
    42  2.313936429E-03
    43  6.625479244E-03
    44 -2.663330487E-02
    45  4.368598689E-03
    46  6.762836629E-03
    47  1.249371531E-04
    48  1.914184499E-04
    49 -1.405681417E-05
    50 -1.684513439E-02
    51 -8.475058632E-05
    52  7.744303442E-05
    53 -2.301816751E-05
    54 -5.936863001E-03
    55 -1.156191534E-03
    56 -8.902569115E-04
    57 -1.352103533E-05
    58 -2.540587859E-03
    59  2.871291327E-03
    60 -3.815112413E-03
    61 -1.908075343E-03
    62 -6.712709664E-03
    63  1.311865981E-01
    64 -1.633679066E-02
    65 -1.381960060E-02
    66  1.617029795E-04
    67 -2.266390306E-02
    68 -3.568691531E-02
    69 -6.126268020E-02
    70 -1.861043570E-02
    71  6.040256152E-02
    72  9.985162131E-02
    73 -8.578787463E-02
    74 -2.625431563E-02
    75  8.415804703E-02
    76  8.520406514E-02
    77 -6.643669099E-02
    78 -2.208747905E-02
    79  6.130294651E-02
    80  4.452946406E-03
    81 -1.050119154E-02
    82 -4.182824060E-03
    83  3.653985251E-03
    84 -1.654862069E-03
    85 -9.844869385E-02
    86 -3.845628308E-02
    87  2.015487581E-03
    88  6.801896831E-02
    89  1.423680194E-02
    90  2.234429867E-02
    91  3.568662506E-03
    92 -2.835396325E-02
    93 -1.863566919E-02
    94 -6.127278826E-02
    95  5.171107001E-03
    96 -4.056692906E-02
    97 -2.598211732E-02
    98 -4.897688829E-02
    99 -1.106833416E-02
   100 -2.382316983E-02
   101 -1.644282167E-02
   102 -4.984469484E-03
   103 -8.791670648E-03
   104 -6.316524915E-04
   105  7.477824005E-03
   106 -8.323496697E-04
   107  4.526761494E-02
   108  1.745983225E-02
   109 -1.127538976E-02
   110 -1.946538417E-02
   111 -2.923730075E-02
   112 -4.599842520E-02
   113  4.531384495E-02
   114 -2.584624689E-02
   115  1.767555739E-02
   116  1.280279161E-01
   117  6.521572958E-02
   118 -3.671495027E-02
   119  2.529999234E-02
   120  1.494758126E-01
   121  3.570345705E-02
   122 -3.512010336E-02
   123  1.809436581E-02
   124 -5.046821346E-03
   125  3.001616016E-03
   126 -2.651795675E-03
   127  1.669436010E-03
   128 -1.047382646E-03
   129 -1.622206047E-01
   130 -3.617567851E-02
   131  2.802788669E-03
   132 -1.065651246E-02
   133  2.071722587E-02
   134  3.260620151E-02
   135  7.860272726E-03
   136  6.088321341E-03
   137  6.433894745E-05
   138 -9.195522347E-02
   139  9.666169244E-03
   140  7.509004642E-03
   141  6.924895591E-05
   142 -6.030745915E-02
   143  1.558878118E-02
   144  1.200823642E-02
   145  1.892121197E-04
   146  1.200269577E-02
   147 -4.568015235E-03
   148  5.609446723E-03
   149 -8.758782240E-04
   150 -3.447897958E-03
   151  9.016341415E-02
   152  1.780859188E-02
   153  1.384460119E-02
   154  8.678174786E-06
   155 -2.266108701E-02
   156 -3.568234381E-02
   157 -3.341528471E-02
   158 -5.322602184E-02
   159 -6.163182139E-02
   160  9.983471593E-02
   161 -4.699122098E-02
   162 -7.447945523E-02
   163 -8.588585644E-02
   164  8.524288442E-02
   165 -3.812306052E-02
   166 -5.728774968E-02
   167 -6.261421651E-02
   168  4.822988693E-03
   169  6.646160543E-03
   170  8.958927340E-03
   171 -3.987072680E-03
   172  2.369328089E-04
   173 -9.342688747E-02
   174 -5.897963804E-03
   175 -3.666180774E-02
   176 -6.779976228E-02
   177  1.423582253E-02
   178  2.234245777E-02
   179 -7.497922136E-03
   180 -1.458338091E-02
   181  2.991672732E-02
   182 -6.126098601E-02
   183 -1.038727686E-02
   184 -2.119771355E-02
   185  4.230878834E-02
   186 -4.902973753E-02
   187 -1.937678181E-02
   188 -1.348736859E-02
   189  2.004807905E-02
   190  2.108892298E-03
   191  1.103580238E-02
   192  2.806695599E-03
   193  2.087239722E-03
   194  4.541048946E-03
   195  3.423690279E-02
   196  7.782851644E-03
   197 -2.289660887E-05
   198  2.681220650E-02
   199  3.498014839E-03
   200  5.425463182E-03
   201 -7.643945967E-02
   202  4.218502747E-03
   203 -1.864831191E-02
   204 -1.263057355E-02
   205 -1.106212711E-01
   206  6.591325788E-03
   207 -2.712220325E-02
   208 -2.557095223E-02
   209 -6.323744618E-02
   210  4.034953671E-03
   211 -1.560510489E-02
   212 -5.340103483E-03
   213  4.992013486E-03
   214 -2.268761072E-03
   215  6.106578230E-03
   216 -3.809484241E-03
   217  5.174903079E-02
   218 -4.675809832E-03
   219  2.287648946E-03
   220 -1.595453396E-03
   221  1.423329148E-02
   222  2.233848448E-02
   223 -2.666161189E-02
   224  1.070360034E-02
   225  1.833419615E-02
   226 -6.124808921E-02
   227 -3.811413880E-02
   228  1.538558491E-02
   229  2.554877015E-02
   230 -4.901915186E-02
   231 -2.621548338E-02
   232 -4.587852798E-03
   233  1.595515573E-02
   234 -4.729593080E-03
   235  3.021580765E-03
   236  8.525436790E-03
   237 -6.782771470E-03
   238  2.979174387E-03
   239  4.131421207E-02
   240 -7.093816408E-03
   241  1.927308701E-02
   242  1.882976842E-02
   243  3.495095899E-03
   244  5.420693210E-03
   245 -1.647549862E-02
   246 -7.496331079E-02
   247  1.750902191E-02
   248 -1.261367629E-02
   249 -2.338306126E-02
   250 -1.086185560E-01
   251  2.547940853E-02
   252 -2.561424134E-02
   253 -1.309156606E-02
   254 -6.212909706E-02
   255  1.464946610E-02
   256 -5.415418534E-03
   257  8.772887810E-04
   258 -5.211423157E-03
   259 -7.278625662E-03
   260 -4.366995067E-05
   261  5.041582940E-02
   262  1.075697167E-03
   263 -5.011709940E-03
   264  1.679290027E-03
   265  1.242487803E-03
   266  1.240490346E-03
   267  3.305330767E-03
   268  1.073962971E-04
   269 -4.065400419E-04
   270 -1.425969960E-03
   271 -5.507499686E-03
   272 -4.126114523E-02
   273 -5.666104167E-02
   274 -1.383920250E-02
   275  7.510288496E-05
   276  3.147348341E-03
   277  2.543229334E-03
   278  7.299154119E-03
   279 -8.448002391E-03
   280 -1.230027906E-02
   281 -6.448262457E-03
   282  3.833342873E-04
   283  1.592187579E-04
   284 -3.024404042E-04
   285  1.170386850E-03
   286 -8.463472923E-03
   287 -1.231712307E-02
   288 -6.516807349E-03
   289  2.460911285E-04
   290  3.324771270E-04
   291  3.061622014E-04
   292  1.082494247E-03
   293  9.482849281E-02
   294  1.283686074E-01
   295  4.186171957E-02
   296  5.841318520E-03
   297  8.382255982E-04
   298 -7.834701503E-03
   299 -2.523528344E-02
   300 -4.127726732E-02
   301 -5.667359565E-02
   302 -1.414265406E-02
   303  1.717969651E-03
   304  9.730215631E-04
   305  3.535487029E-03
   306  7.082787418E-03
   307  1.274531443E-03
   308  1.293767120E-03
   309  3.173193971E-03
   310  2.506642914E-04
   311 -5.883043613E-04
   312 -1.343541735E-03
   313 -4.818484411E-03
   314 -2.696448730E-02
   315 -3.836139342E-02
   316 -2.640617073E-03
   317 -3.090231618E-03
   318  1.185766020E-03
   319 -1.042523110E-03
   320  4.212736391E-03
   321 -2.708994037E-02
   322 -3.851758161E-02
   323 -2.644941769E-03
   324  2.943107445E-04
   325 -3.316839306E-03
   326  1.007378291E-03
   327  4.433455269E-03
   328  9.482484579E-02
   329  1.283704436E-01
   330  4.178473309E-02
   331  2.239619867E-03
   332  5.314684010E-03
   333  7.933913834E-03
   334 -2.510610766E-02
   335 -4.126355485E-02
   336 -5.668020029E-02
   337 -1.384587926E-02
   338  3.096567766E-03
   339 -7.416925102E-04
   340 -2.500277999E-03
   341  7.091323198E-03
   342  1.289394664E-03
   343  1.298408011E-03
   344  3.412194230E-03
   345 -3.796661825E-04
   346  1.994668193E-04
   347  1.424891142E-03
   348 -5.315319914E-03
   349 -3.397429374E-02
   350 -4.752468433E-02
   351 -1.331729353E-02
   352 -2.450075368E-03
   353  2.874875539E-03
   354  2.778907739E-03
   355 -4.915032529E-03
   356 -3.395946510E-02
   357 -4.750726066E-02
   358 -1.336585764E-02
   359 -7.779264904E-04
   360  7.902705225E-04
   361 -4.555209246E-03
   362 -4.942850179E-03
   363 -1.318273379E-02
   364 -1.830737058E-02
   365 -2.747750668E-03
   366 -4.385190545E-03
   367 -1.667455233E-03
   368 -5.273273177E-04
   369 -5.165902507E-03
   370  1.259360592E-03
   371  1.262412686E-03
   372  3.232516656E-03
   373 -5.233903877E-04
   374  3.761615764E-04
   375  1.339427919E-03
   376 -4.831752500E-03
   377 -4.127598113E-02
   378 -5.666621652E-02
   379 -1.407030306E-02
   380  1.453708564E-03
   381  1.432810204E-03
   382 -3.495747879E-03
   383  7.181855421E-03
   384 -3.388852310E-02
   385 -4.740754880E-02
   386 -1.341981477E-02
   387  2.161609462E-03
   388 -3.095418636E-03
   389 -2.770122336E-03
   390 -4.872210242E-03
   391 -3.387353425E-02
   392 -4.738644856E-02
   393 -1.344129227E-02
   394  4.886649456E-04
   395 -1.021872327E-03
   396  4.543004828E-03
   397 -4.941267348E-03
   398 -1.332231675E-02
   399 -1.849722948E-02
   400 -2.876963422E-03
   401 -2.796213699E-03
   402 -3.775440362E-03
   403  4.322054269E-04
   404 -4.955470405E-03
Ene=   -4.3904175992E-01
Spin= Alpha
Occup=   2.0000000
     1  5.337820578E-04
     2  8.108980773E-04
     3  6.604699425E-02
     4 -1.128235403E-02
     5  1.828344872E-02
     6 -1.387146042E-03
     7  9.705925889E-02
     8 -1.581524142E-02
     9  2.664939556E-02
    10 -1.730611801E-02
    11  9.318583646E-02
    12 -1.436740694E-02
    13  2.535828125E-02
    14 -4.558162187E-03
    15  3.668042136E-04
    16 -2.854251052E-04
    17  1.742464258E-03
    18  6.605778069E-03
    19  2.338063707E-01
    20  2.411861974E-02
    21  2.068462212E-01
    22 -5.445340435E-02
    23  3.856368865E-04
    24  6.469053895E-04
    25  8.389199972E-04
    26 -4.213482371E-02
    27  2.210256480E-02
    28 -2.828334337E-03
    29  1.168328170E-03
    30 -6.012662414E-02
    31  3.340943949E-02
    32  1.583671229E-02
    33  6.000388275E-04
    34 -4.083000257E-02
    35  4.205822903E-03
    36 -4.769977667E-03
    37 -4.867818746E-04
    38  1.572711889E-03
    39 -2.543069156E-03
    40  3.208207173E-03
    41  3.794842292E-02
    42 -2.063905152E-02
    43 -4.882121337E-02
    44  2.544886498E-02
    45 -3.414515895E-06
    46 -5.143196507E-06
    47 -4.027839498E-02
    48  5.337869411E-02
    49 -2.432553484E-02
    50  1.033838212E-05
    51 -5.819844245E-02
    52  7.712700787E-02
    53 -3.514816180E-02
    54 -1.726812413E-05
    55 -2.550482656E-02
    56  3.380803565E-02
    57 -1.539535011E-02
    58  3.677973635E-05
    59  1.575098791E-03
    60  1.135995522E-03
    61  5.128783738E-03
    62 -1.435350107E-03
    63  8.280393514E-03
    64  8.584191127E-02
    65 -1.162011736E-01
    66  5.298418986E-02
    67  2.303376533E-05
    68  3.640562020E-05
    69 -3.443590407E-02
    70  4.575186187E-02
    71 -2.092517664E-02
    72 -1.062715503E-04
    73 -5.096227351E-02
    74  6.769904798E-02
    75 -3.095672086E-02
    76 -2.104509316E-05
    77 -3.008486940E-02
    78  4.003702922E-02
    79 -1.830594180E-02
    80  2.681999989E-03
    81  1.831853293E-03
    82 -3.252704718E-03
    83 -9.218929368E-04
    84  1.878877271E-03
    85 -7.649194643E-04
    86  3.706234794E-02
    87 -5.036736587E-02
    88  2.210927458E-02
    89 -4.117044342E-04
    90 -6.876334231E-04
    91  4.402653426E-02
    92 -1.724685210E-02
    93  5.041165855E-03
    94  2.936387428E-03
    95  6.355654279E-02
    96 -2.553666948E-02
    97  5.751686948E-03
    98 -1.572217974E-02
    99  3.620543194E-02
   100 -7.810813995E-03
   101  1.793920107E-02
   102  1.358900494E-03
   103 -3.937062151E-03
   104  9.794945193E-04
   105 -3.315054901E-03
   106 -3.593890159E-03
   107 -3.267486197E-02
   108  5.818528774E-02
   109 -1.446133520E-03
   110 -3.103544567E-03
   111 -4.730280420E-04
   112 -7.153850704E-04
   113 -7.170307651E-03
   114 -6.681750345E-02
   115  1.733859202E-02
   116  1.129435689E-03
   117 -1.127360340E-02
   118 -9.799000746E-02
   119  2.525256299E-02
   120  1.685620248E-02
   121 -1.149998110E-02
   122 -9.377755786E-02
   123  2.400816558E-02
   124  4.569288498E-03
   125 -4.185964296E-04
   126  2.567293083E-04
   127 -1.906376299E-03
   128 -6.560566934E-03
   129 -2.452547995E-01
   130 -2.064997470E-01
   131  3.030661631E-02
   132 -5.681822056E-02
   133 -2.292996985E-05
   134 -3.642898570E-05
   135 -5.592469635E-02
   136  7.408793321E-02
   137 -3.378530520E-02
   138  1.103117848E-04
   139 -8.113762036E-02
   140  1.074917267E-01
   141 -4.902109100E-02
   142  1.316992173E-05
   143 -5.641635706E-02
   144  7.469283877E-02
   145 -3.404269102E-02
   146  1.683757165E-05
   147  1.462651729E-03
   148  1.038785416E-03
   149  4.735623581E-03
   150 -1.330552057E-03
   151 -4.669781722E-03
   152 -4.215879517E-02
   153  5.443972659E-02
   154 -2.516066545E-02
   155  2.444272315E-05
   156  3.847929150E-05
   157 -3.446359342E-02
   158  4.577403719E-02
   159 -2.079554579E-02
   160 -1.112337901E-04
   161 -5.100001684E-02
   162  6.772801007E-02
   163 -3.077499734E-02
   164 -3.558237598E-06
   165 -3.013025403E-02
   166  4.005371746E-02
   167 -1.818319041E-02
   168 -2.708491717E-03
   169 -2.627898689E-03
   170  2.676083948E-03
   171 -1.672546926E-03
   172 -1.143404533E-03
   173  3.929289031E-03
   174  3.741642752E-02
   175 -4.930334345E-02
   176  2.364859862E-02
   177 -4.161023707E-04
   178 -6.946931069E-04
   179  4.002966960E-02
   180 -1.230877616E-02
   181  2.252210808E-02
   182  2.958482889E-03
   183  5.709655557E-02
   184 -1.755471355E-02
   185  3.400226478E-02
   186 -1.570792167E-02
   187  3.921149409E-02
   188 -1.155122885E-02
   189  4.755475415E-03
   190  4.783552666E-03
   191  1.151490586E-03
   192 -9.716197541E-04
   193 -3.869152669E-03
   194 -1.448421807E-03
   195 -3.741100023E-02
   196  5.166608997E-02
   197  6.527228471E-03
   198  2.593116233E-02
   199  1.690953304E-03
   200  2.649217731E-03
   201 -4.076525134E-02
   202 -7.519076774E-02
   203  1.204262295E-02
   204 -6.528550298E-03
   205 -5.777664502E-02
   206 -1.071294579E-01
   207  1.722896585E-02
   208 -1.891386162E-02
   209 -3.115430461E-02
   210 -6.598842322E-02
   211  1.161933011E-02
   212 -5.199310604E-03
   213  1.573595052E-03
   214 -3.001025886E-03
   215 -1.510572953E-03
   216  1.451751862E-03
   217  1.611394789E-01
   218 -2.277585043E-02
   219 -1.743146636E-02
   220 -1.840135825E-04
   221  3.846244812E-04
   222  6.451085697E-04
   223  4.851321287E-03
   224 -4.710594483E-02
   225  4.511044276E-03
   226 -2.820361776E-03
   227  7.648696955E-03
   228 -6.816014588E-02
   229  4.994269260E-03
   230  1.582317060E-02
   231 -2.414572148E-03
   232 -3.705482699E-02
   233  1.746294158E-02
   234 -1.432903237E-03
   235 -3.499350784E-05
   236 -3.951781389E-03
   237 -1.022671236E-03
   238  4.847267861E-03
   239  3.185858741E-02
   240 -1.441690784E-02
   241 -5.697077175E-02
   242 -4.303653719E-03
   243 -1.698219907E-03
   244 -2.659883801E-03
   245  8.317724820E-02
   246  1.916518847E-02
   247  1.355028407E-02
   248  6.542488124E-03
   249  1.184308168E-01
   250  2.701776497E-02
   251  1.937133319E-02
   252  1.909085299E-02
   253  7.168694164E-02
   254  1.229131717E-02
   255  1.286996989E-02
   256  5.185804439E-03
   257 -2.653762786E-03
   258  2.236339956E-03
   259 -1.960101341E-03
   260 -4.697810877E-04
   261 -1.562373307E-01
   262  2.300410799E-02
   263  1.604918656E-02
   264  7.657463704E-04
   265 -1.563830899E-02
   266 -2.370085752E-02
   267 -2.104005183E-03
   268 -2.573573052E-03
   269 -2.588774092E-03
   270  9.868754874E-04
   271 -1.726044932E-03
   272 -4.963764487E-03
   273 -5.771372315E-03
   274  8.507898085E-03
   275  5.005136130E-04
   276 -1.314772890E-03
   277  2.170747762E-03
   278  5.919015893E-03
   279  2.293288740E-05
   280  3.394506492E-05
   281 -7.928396883E-05
   282 -2.658286074E-03
   283  3.521148944E-03
   284 -1.606315910E-03
   285 -2.098697909E-04
   286 -6.538968722E-06
   287  1.104085304E-06
   288 -9.771724603E-05
   289 -2.656547633E-03
   290  3.522265577E-03
   291 -1.607285094E-03
   292  4.785358601E-05
   293 -1.031135355E-04
   294 -1.525306271E-04
   295  9.546764910E-06
   296 -2.025372523E-03
   297  2.673452649E-03
   298 -1.211690538E-03
   299  1.046928258E-04
   300  5.048369756E-03
   301  5.893694695E-03
   302 -8.404940681E-03
   303  1.772667120E-03
   304 -1.703729310E-03
   305 -8.023614611E-04
   306 -5.652133948E-03
   307  1.560410056E-02
   308  2.365973362E-02
   309  1.900556643E-03
   310  3.502964716E-03
   311  1.351989784E-03
   312 -4.205146970E-04
   313  1.229806920E-03
   314  6.436152710E-02
   315  8.383000586E-02
   316  2.085093527E-02
   317  5.974897909E-03
   318  1.722706196E-03
   319  8.752014431E-04
   320 -2.684371746E-02
   321 -6.429285311E-02
   322 -8.376134032E-02
   323 -2.055583460E-02
   324 -3.270583992E-03
   325 -5.298071102E-03
   326  7.562600000E-04
   327  2.691527149E-02
   328 -9.519134287E-05
   329 -1.339334236E-04
   330 -8.911513270E-05
   331 -2.020674781E-03
   332  2.668700684E-03
   333 -1.228347948E-03
   334  4.556896194E-05
   335  5.057990672E-03
   336  5.903839353E-03
   337 -8.397982762E-03
   338  1.089379380E-03
   339 -8.584038489E-04
   340  2.183304315E-03
   341 -5.859603858E-03
   342  1.562507274E-02
   343  2.367701112E-02
   344  2.023422167E-03
   345  3.166912843E-03
   346  1.772953476E-03
   347  1.054896282E-03
   348  1.534333008E-03
   349 -3.833199965E-02
   350 -5.122859477E-02
   351 -1.053047537E-02
   352 -5.722036751E-04
   353 -1.214017491E-03
   354  5.654016165E-03
   355 -4.959596800E-04
   356 -3.831059472E-02
   357 -5.118997749E-02
   358 -1.058979776E-02
   359  1.616598983E-03
   360 -3.943799404E-03
   361 -3.948984719E-03
   362 -5.258223207E-04
   363  5.964435382E-02
   364  8.114075315E-02
   365  3.438080849E-02
   366 -3.098748205E-03
   367  4.763083862E-03
   368 -2.061151452E-03
   369 -1.457596248E-02
   370 -1.562867981E-02
   371 -2.370065125E-02
   372 -1.955297050E-03
   373 -2.232976685E-03
   374 -3.008300804E-03
   375 -4.969046318E-04
   376 -1.592006176E-03
   377 -4.947814577E-03
   378 -5.763940343E-03
   379  8.612538968E-03
   380  1.177299541E-03
   381 -2.157949285E-03
   382 -8.004677584E-04
   383  5.954004524E-03
   384  3.840416517E-02
   385  5.133842936E-02
   386  1.058390374E-02
   387  1.228284031E-03
   388  1.636749326E-04
   389  5.682119087E-03
   390  5.795504628E-04
   391  3.836799708E-02
   392  5.128372308E-02
   393  1.062763374E-02
   394  3.430005172E-03
   395 -2.561945504E-03
   396 -3.934886887E-03
   397  6.695599817E-04
   398 -5.961103543E-02
   399 -8.108128328E-02
   400 -3.453005632E-02
   401 -3.721593158E-03
   402  4.292202058E-03
   403 -2.070018440E-03
   404  1.451731266E-02
Ene=   -4.3293445261E-01
Spin= Alpha
Occup=   2.0000000
     1 -8.739824033E-06
     2 -1.408429247E-05
     3  1.501617221E-02
     4 -1.864017491E-02
     5 -6.574911758E-02
     6  4.998388135E-05
     7  2.197954247E-02
     8 -2.728334570E-02
     9 -9.624569622E-02
    10 -1.131430473E-04
    11  2.036438396E-02
    12 -2.536419134E-02
    13 -8.928997108E-02
    14  2.923252556E-03
    15  9.960333953E-04
    16 -4.355137666E-03
    17  1.053841364E-03
    18  1.494712715E-03
    19 -4.879860015E-03
    20 -1.363554840E-02
    21  1.145734686E-02
    22  5.097853834E-02
    23 -5.103053704E-03
    24 -8.033259165E-03
    25 -5.767276465E-02
    26 -4.372608330E-02
    27  9.524470759E-03
    28  2.173599370E-02
    29 -8.435069149E-02
    30 -6.381052073E-02
    31  1.369539246E-02
    32  3.893977387E-02
    33 -4.460709553E-02
    34 -3.443197446E-02
    35 -1.144790391E-03
    36 -3.648718453E-03
    37  3.729670986E-03
    38 -1.704156053E-03
    39 -7.509407380E-04
    40 -2.538329375E-03
    41 -1.444077651E-01
    42 -4.251366798E-02
    43  1.769943880E-02
    44  3.804579006E-03
    45  6.614126017E-06
    46  1.078576570E-05
    47 -9.816442775E-06
    48 -1.841593376E-05
    49 -1.094124142E-05
    50 -3.988505818E-05
    51 -1.094508145E-05
    52 -2.670970450E-05
    53 -1.736630743E-05
    54  5.826875766E-05
    55 -7.014971460E-05
    56  7.712431748E-06
    57 -2.517240772E-05
    58  4.855969371E-03
    59  4.000806844E-03
    60 -5.357734811E-03
    61  6.851513807E-04
    62  2.717545266E-03
    63  7.481237450E-03
    64 -2.690116832E-03
    65  8.460513640E-04
    66 -4.492955861E-04
    67  7.004862885E-07
    68  1.097460626E-06
    69 -3.493521871E-02
    70  4.630319718E-02
    71 -2.108478482E-02
    72 -3.986704869E-06
    73 -5.204147554E-02
    74  6.897309495E-02
    75 -3.141179806E-02
    76  7.144651923E-06
    77 -3.563297578E-02
    78  4.729462359E-02
    79 -2.149660455E-02
    80 -4.514420227E-04
    81 -1.382308304E-03
    82 -2.681324230E-04
    83 -3.407306388E-03
    84  7.042884972E-04
    85  2.651355000E-03
    86 -5.764681626E-03
    87  8.849000060E-03
    88 -3.816216335E-03
    89  5.104185604E-03
    90  8.034952165E-03
    91  6.153958813E-02
    92  3.864436730E-02
    93 -7.170246213E-03
    94 -2.174010256E-02
    95  8.979500609E-02
    96  5.666207584E-02
    97 -1.037833703E-02
    98 -3.891930383E-02
    99  4.487832453E-02
   100  3.413963451E-02
   101  1.250492819E-03
   102  3.514616201E-03
   103 -3.493953773E-03
   104  2.119551900E-03
   105  1.893935125E-03
   106  2.132309256E-03
   107  1.415626685E-01
   108  2.588091864E-03
   109  3.568319752E-02
   110 -2.804296886E-02
   111 -8.479303805E-06
   112 -1.330133287E-05
   113 -1.499570684E-02
   114  1.866133616E-02
   115  6.573077579E-02
   116  3.668752947E-05
   117 -2.195337848E-02
   118  2.731732826E-02
   119  9.621661607E-02
   120  8.520149585E-05
   121 -2.032341728E-02
   122  2.534368557E-02
   123  8.928825100E-02
   124  2.985830580E-03
   125  3.867800368E-03
   126 -2.156196719E-03
   127 -2.195512596E-04
   128  1.810890140E-03
   129 -9.632682376E-05
   130  1.540511678E-02
   131 -1.587824047E-02
   132 -5.038054778E-02
   133  1.029953485E-06
   134  1.488991945E-06
   135 -7.918044598E-06
   136 -2.760703367E-05
   137 -7.935184648E-06
   138 -1.844332680E-06
   139 -1.193613105E-05
   140 -3.709239524E-05
   141 -1.391180580E-05
   142 -8.339450755E-06
   143  3.069344254E-05
   144 -5.961412201E-05
   145  2.188066800E-05
   146 -4.153142582E-03
   147 -3.422668284E-03
   148  4.577217524E-03
   149 -5.882737477E-04
   150 -2.328058105E-03
   151  6.256933440E-04
   152  4.272190090E-04
   153 -2.756629622E-05
   154  1.918766635E-04
   155 -6.919903129E-07
   156 -1.072456214E-06
   157  3.493005284E-02
   158 -4.631309856E-02
   159  2.110226708E-02
   160  2.455213569E-06
   161  5.202922679E-02
   162 -6.898457679E-02
   163  3.143877072E-02
   164  1.740519169E-05
   165  3.564807087E-02
   166 -4.722813765E-02
   167  2.149058978E-02
   168 -4.072521882E-04
   169  6.775939757E-04
   170  1.210149978E-03
   171  3.287944291E-03
   172 -1.179181887E-03
   173  4.179896925E-03
   174  5.698481168E-03
   175 -6.328620214E-03
   176  3.258456820E-03
   177 -5.100426585E-03
   178 -8.028899957E-03
   179 -5.739844668E-02
   180 -4.374925630E-02
   181 -1.095936373E-02
   182  2.171895234E-02
   183 -8.381340497E-02
   184 -6.402654149E-02
   185 -1.579280408E-02
   186  3.904419798E-02
   187 -4.521723167E-02
   188 -3.377620741E-02
   189  4.524564523E-05
   190 -3.717393138E-03
   191  7.045963561E-04
   192 -4.004137844E-03
   193 -7.249938476E-04
   194 -2.505259239E-03
   195 -1.422199868E-01
   196  3.844101536E-03
   197 -4.566906669E-02
   198 -4.824603523E-03
   199 -8.562526006E-07
   200 -1.298687642E-06
   201 -1.986440631E-02
   202  2.470205438E-02
   203  8.700388097E-02
   204  4.875657367E-06
   205 -2.841001295E-02
   206  3.532874081E-02
   207  1.244305328E-01
   208 -3.251420199E-05
   209 -1.700105528E-02
   210  2.113660389E-02
   211  7.453823589E-02
   212 -2.000225145E-03
   213  3.346950318E-03
   214  6.206033321E-03
   215 -2.559329416E-03
   216 -6.156283722E-04
   217 -2.956922243E-03
   218 -2.159187986E-03
   219  3.391613982E-03
   220  1.157762639E-02
   221  5.104534603E-03
   222  8.035284837E-03
   223  5.355890848E-02
   224  4.888518777E-02
   225  8.626424072E-03
   226 -2.173690203E-02
   227  7.840936261E-02
   228  7.125779907E-02
   229  1.250726672E-02
   230 -3.902167749E-02
   231  4.497363335E-02
   232  3.418719094E-02
   233 -1.555083572E-04
   234  3.565088393E-03
   235 -1.179438576E-03
   236  3.911746494E-03
   237 -4.578289003E-04
   238  2.754956652E-03
   239  1.354879570E-01
   240  3.535209517E-02
   241 -5.709098486E-03
   242  2.746959968E-02
   243 -3.583943784E-07
   244 -3.904802661E-07
   245  1.987223738E-02
   246 -2.470470963E-02
   247 -8.702679184E-02
   248 -6.728788823E-06
   249  2.842489514E-02
   250 -3.533004634E-02
   251 -1.244634058E-01
   252  1.292824185E-04
   253  1.699745734E-02
   254 -2.124195093E-02
   255 -7.453167840E-02
   256 -2.222964765E-03
   257 -6.810285874E-03
   258 -1.574527162E-03
   259  1.964924522E-03
   260 -1.739469137E-03
   261  2.239279130E-03
   262  2.593435774E-03
   263 -3.412820544E-03
   264 -1.142379340E-02
   265  3.650048735E-02
   266  4.725057402E-02
   267  1.916614225E-02
   268  1.467414790E-03
   269 -3.930338552E-03
   270  2.321472679E-03
   271 -1.470085207E-02
   272 -2.304800768E-02
   273 -3.142554092E-02
   274 -5.337248213E-03
   275 -2.527965694E-03
   276 -1.277867927E-03
   277  3.433903979E-03
   278  3.799194246E-03
   279 -2.716820205E-05
   280 -2.950979658E-05
   281 -1.630940590E-04
   282  7.677383221E-04
   283 -1.014328051E-03
   284  4.658467307E-04
   285 -3.786250057E-05
   286 -7.338274329E-06
   287 -1.080994034E-05
   288 -8.090001310E-05
   289 -7.652032844E-04
   290  1.014784468E-03
   291 -4.652914008E-04
   292  3.534594255E-04
   293  1.913444132E-05
   294  2.787448567E-05
   295 -4.355201693E-05
   296 -2.000722387E-03
   297  2.654212695E-03
   298 -1.211499088E-03
   299  6.926915675E-05
   300  2.307892779E-02
   301  3.146000435E-02
   302  5.557789619E-03
   303  3.319877375E-03
   304  2.233753045E-04
   305 -2.957092174E-03
   306 -3.676337877E-03
   307 -3.653137874E-02
   308 -4.729152572E-02
   309 -1.917155159E-02
   310  3.709170721E-03
   311 -2.931472245E-03
   312  8.107278990E-04
   313  1.427639611E-02
   314  2.291112602E-07
   315  1.742799108E-05
   316 -6.413985585E-05
   317 -1.151841061E-04
   318  1.418820723E-04
   319  5.080678226E-04
   320  2.922036348E-04
   321  1.879624015E-05
   322  1.604405439E-05
   323 -5.546241999E-05
   324  1.153995696E-04
   325 -1.432241139E-04
   326 -5.095432486E-04
   327  7.782762735E-05
   328  1.669157250E-05
   329  3.035413174E-05
   330 -1.037478845E-04
   331  2.004106511E-03
   332 -2.654306722E-03
   333  1.213073684E-03
   334 -6.148743940E-05
   335 -2.305902460E-02
   336 -3.142645506E-02
   337 -5.270029063E-03
   338 -1.851106576E-03
   339 -2.051493002E-03
   340 -3.488852654E-03
   341  4.106223839E-03
   342  3.649882660E-02
   343  4.723182762E-02
   344  1.928684127E-02
   345 -3.357667602E-03
   346  2.492345179E-03
   347 -2.343967141E-03
   348 -1.467026116E-02
   349  6.234225030E-02
   350  8.489621011E-02
   351  3.311726527E-02
   352 -4.614354499E-03
   353 -3.947001942E-03
   354 -2.316868573E-03
   355  1.769867327E-03
   356 -6.236511160E-02
   357 -8.490801879E-02
   358 -3.331229259E-02
   359  5.575002518E-03
   360  2.748880257E-03
   361 -1.896404903E-03
   362 -1.820166776E-03
   363  9.835648367E-06
   364  1.174132720E-05
   365 -6.211738099E-05
   366 -1.174121483E-03
   367  1.461657863E-03
   368  5.142456478E-03
   369  1.745467753E-04
   370 -3.652163013E-02
   371 -4.728074808E-02
   372 -1.910802541E-02
   373 -1.818615568E-03
   374  4.368109320E-03
   375 -7.871009875E-04
   376  1.471907610E-02
   377  2.306922649E-02
   378  3.143196379E-02
   379  5.484484650E-03
   380  1.055569162E-03
   381  3.104484969E-03
   382  3.010491472E-03
   383 -4.257056564E-03
   384  6.235617856E-02
   385  8.489588879E-02
   386  3.337969299E-02
   387 -5.073631474E-03
   388 -3.418871670E-03
   389  2.194802026E-03
   390  1.723367657E-03
   391 -6.238527079E-02
   392 -8.495743924E-02
   393 -3.303554251E-02
   394  4.109624877E-03
   395  4.614569686E-03
   396  2.020021597E-03
   397 -1.780417369E-03
   398  1.230036789E-05
   399  3.321984150E-06
   400  1.037743556E-04
   401  1.175801717E-03
   402 -1.460239852E-03
   403 -5.144261604E-03
   404 -2.650311634E-04
Ene=   -4.2246321750E-01
Spin= Alpha
Occup=   2.0000000
     1  1.584768451E-06
     2  2.506337200E-06
     3 -8.184914618E-03
     4  1.016648916E-02
     5  3.584242854E-02
     6 -4.196645693E-06
     7 -1.185776201E-02
     8  1.472178727E-02
     9  5.191010020E-02
    10 -4.711859339E-05
    11 -1.430262822E-02
    12  1.782563921E-02
    13  6.287976339E-02
    14 -4.183317828E-03
    15 -3.869048397E-04
    16  7.074138421E-03
    17 -1.987534710E-03
    18 -2.037473255E-03
    19 -6.203662475E-03
    20  1.692805080E-02
    21 -2.483692424E-02
    22 -8.442184344E-02
    23  5.318199457E-03
    24  8.385867486E-03
    25 -2.495341700E-02
    26  3.312182037E-02
    27 -4.446588514E-02
    28 -2.327010906E-02
    29 -3.619559350E-02
    30  4.766679867E-02
    31 -6.501510595E-02
    32 -3.568811791E-02
    33 -3.834053066E-02
    34  2.389809724E-02
    35 -3.927129794E-02
    36 -2.722399716E-03
    37 -3.254504733E-03
    38 -2.824872841E-05
    39  5.294558958E-03
    40  3.880891173E-03
    41  2.116345870E-01
    42  1.709994801E-02
    43 -2.117048698E-02
    44 -4.305319258E-02
    45 -1.417188292E-07
    46  1.614191232E-07
    47 -1.194954671E-02
    48  1.485081930E-02
    49  5.233541287E-02
    50 -8.134614329E-06
    51 -1.742922062E-02
    52  2.165980461E-02
    53  7.633197614E-02
    54  2.128693288E-05
    55 -1.004999541E-02
    56  1.250400973E-02
    57  4.410025742E-02
    58  1.218781528E-04
    59  5.581334611E-03
    60  4.273695317E-03
    61 -2.485382969E-03
    62  6.171232150E-04
    63  1.087027765E-02
    64 -1.525081385E-02
    65  1.578178268E-02
    66  5.659581291E-02
    67 -4.748685608E-04
    68 -7.667915647E-04
    69 -6.636153659E-02
    70 -5.833377740E-02
    71 -1.811731696E-02
    72  2.138072234E-03
    73 -9.781692942E-02
    74 -8.667281936E-02
    75 -2.820891554E-02
    76  7.563349107E-03
    77 -6.787985215E-02
    78 -5.527294903E-02
    79 -8.931901640E-03
    80  4.304701364E-03
    81 -2.329720225E-03
    82  2.648507178E-03
    83  3.460932115E-04
    84  8.606504030E-04
    85 -2.712898251E-01
    86 -4.622125722E-02
    87 -3.448688058E-03
    88  6.646580995E-02
    89  5.319712067E-03
    90  8.388230606E-03
    91  3.638796684E-02
    92 -4.813646774E-02
    93 -7.400304456E-03
    94 -2.327595208E-02
    95  5.265904179E-02
    96 -7.004210873E-02
    97 -1.132158298E-02
    98 -3.571399555E-02
    99  2.174272133E-02
   100 -5.566228209E-02
   101 -2.973439718E-03
   102 -1.235352039E-03
   103 -3.605184228E-03
   104 -2.848583180E-03
   105  3.112755719E-04
   106  6.195529631E-03
   107  2.172518718E-01
   108  3.870314976E-03
   109 -4.518793033E-03
   110 -5.145887795E-02
   111 -3.522296086E-06
   112 -5.562694669E-06
   113 -8.183376561E-03
   114  1.017433823E-02
   115  3.585694237E-02
   116  1.981631670E-05
   117 -1.185215699E-02
   118  1.473549301E-02
   119  5.193149529E-02
   120 -6.550125219E-05
   121 -1.436417009E-02
   122  1.786063263E-02
   123  6.286303633E-02
   124  4.319681266E-03
   125  6.619080719E-03
   126 -2.300478332E-03
   127 -7.882587652E-04
   128  2.726343536E-03
   129 -8.174392128E-03
   130  1.854322839E-02
   131 -2.489214796E-02
   132 -8.442446808E-02
   133 -2.702043288E-07
   134 -4.682908072E-07
   135 -1.687018222E-02
   136  2.096117243E-02
   137  7.391339039E-02
   138  8.400672181E-07
   139 -2.512588450E-02
   140  3.122333664E-02
   141  1.100939295E-01
   142  4.760274722E-05
   143 -1.486830511E-02
   144  1.847012837E-02
   145  6.513013882E-02
   146  8.300203808E-05
   147  3.839918401E-03
   148  2.942251587E-03
   149 -1.711275321E-03
   150  4.238389683E-04
   151  9.533742707E-04
   152 -3.577020238E-03
   153  4.962897330E-03
   154  1.682162502E-02
   155  4.735809341E-04
   156  7.650700113E-04
   157  7.423774370E-02
   158  4.854389495E-02
   159 -1.634579669E-02
   160 -2.144033490E-03
   161  1.101088153E-01
   162  7.138592701E-02
   163 -2.558581766E-02
   164 -7.380825483E-03
   165  7.164529229E-02
   166  5.073278232E-02
   167 -7.225999779E-03
   168 -4.309826176E-03
   169  2.035564113E-03
   170 -2.872461182E-03
   171 -2.133369086E-04
   172 -8.925884143E-04
   173  2.699435597E-01
   174  1.484752713E-02
   175  4.252601020E-02
   176  6.727416162E-02
   177 -5.318943775E-03
   178 -8.386742896E-03
   179 -2.454828543E-02
   180  3.342299335E-02
   181 -4.445600593E-02
   182  2.326605967E-02
   183 -3.523940830E-02
   184  4.839072319E-02
   185 -6.499844601E-02
   186  3.577638466E-02
   187 -1.209022091E-02
   188  4.374402782E-02
   189 -3.881606309E-02
   190  2.627251569E-03
   191 -1.002844422E-03
   192 -3.310913109E-03
   193  2.510252181E-03
   194 -5.992194407E-03
   195 -2.137177083E-01
   196  1.693908564E-02
   197 -2.227922261E-02
   198 -4.353135156E-02
   199 -3.414432098E-08
   200  3.380699911E-07
   201 -1.768689009E-02
   202  2.197997121E-02
   203  7.747469080E-02
   204 -8.691947623E-06
   205 -2.514271061E-02
   206  3.124694498E-02
   207  1.101372056E-01
   208  1.071197533E-04
   209 -1.611103177E-02
   210  1.995196767E-02
   211  7.033885070E-02
   212 -9.825165205E-04
   213  4.305153265E-03
   214  5.178141151E-03
   215 -2.469744612E-03
   216 -3.327327622E-05
   217  3.630403206E-03
   218 -2.935574969E-03
   219  3.028420018E-03
   220  8.723949120E-03
   221 -5.316670644E-03
   222 -8.383030220E-03
   223  3.679615205E-02
   224 -4.783690287E-02
   225 -7.391365293E-03
   226  2.325157633E-02
   227  5.363194172E-02
   228 -6.932815417E-02
   229 -1.130436602E-02
   230  3.580902135E-02
   231  4.782286920E-02
   232 -3.566230582E-02
   233 -2.592624798E-03
   234  1.075145041E-03
   235 -3.853948053E-03
   236 -2.784758936E-03
   237 -2.898524242E-03
   238 -5.378844408E-03
   239 -2.159194898E-01
   240  4.066103388E-03
   241 -4.465948695E-03
   242 -5.150579381E-02
   243  2.753387498E-07
   244  6.498018448E-07
   245 -1.768703807E-02
   246  2.197306679E-02
   247  7.745797141E-02
   248 -9.082652809E-06
   249 -2.513905600E-02
   250  3.124164466E-02
   251  1.101123169E-01
   252  8.147014579E-05
   253 -1.610814196E-02
   254  1.989431859E-02
   255  7.034764455E-02
   256  1.206058141E-03
   257  6.091906757E-03
   258  2.784767817E-03
   259 -2.163796299E-03
   260  1.182983164E-03
   261  1.373540442E-03
   262 -2.002809690E-03
   263  2.302887829E-03
   264  9.093903855E-03
   265  3.064038207E-02
   266  3.930295787E-02
   267  8.352043825E-03
   268  2.860261447E-03
   269  6.197553363E-04
   270 -8.165063011E-04
   271 -7.452833860E-04
   272 -2.273668205E-02
   273 -2.553252142E-02
   274 -4.851395553E-03
   275  1.221430436E-05
   276  4.150718476E-03
   277 -7.632249704E-04
   278  8.213769389E-03
   279  3.958901906E-02
   280  5.358097083E-02
   281  2.168610900E-02
   282 -1.808974429E-03
   283 -1.786039603E-03
   284 -9.234326101E-04
   285 -2.713462884E-02
   286 -3.959260300E-02
   287 -5.357391306E-02
   288 -2.201296316E-02
   289  2.219650540E-03
   290  1.276697377E-03
   291 -8.744630294E-04
   292  2.710636033E-02
   293  3.074388802E-02
   294  3.849497461E-02
   295  1.317912195E-02
   296 -1.210103579E-03
   297 -2.864887743E-03
   298 -4.279854773E-03
   299 -1.560814198E-02
   300 -2.273132307E-02
   301 -2.551681390E-02
   302 -4.995809108E-03
   303  3.823785978E-03
   304 -9.005530308E-04
   305  1.540513723E-03
   306  8.308518044E-03
   307  3.061986917E-02
   308  3.929042457E-02
   309  8.255727543E-03
   310  1.870788938E-03
   311  1.930176719E-03
   312 -1.414930039E-03
   313 -6.504241000E-04
   314 -6.911814140E-06
   315 -6.073334290E-06
   316 -4.810703663E-05
   317 -1.088315673E-03
   318  1.352276403E-03
   319  4.764340513E-03
   320  1.791393480E-05
   321  8.069803260E-06
   322  8.286227655E-06
   323 -1.490506776E-05
   324 -1.087310210E-03
   325  1.352238574E-03
   326  4.764038248E-03
   327  1.875903404E-04
   328 -3.073861072E-02
   329 -3.851676107E-02
   330 -1.310218378E-02
   331  3.150594292E-03
   332  4.493500209E-04
   333 -4.225422752E-03
   334  1.578743539E-02
   335  2.272091241E-02
   336  2.551520302E-02
   337  5.020369102E-03
   338 -3.991355220E-03
   339  1.108123211E-03
   340 -8.149658879E-04
   341 -8.470206292E-03
   342 -3.062557149E-02
   343 -3.930087543E-02
   344 -8.288603551E-03
   345 -1.350360597E-03
   346 -2.580028841E-03
   347 -8.690945189E-04
   348  2.049979821E-04
   349  5.644631013E-02
   350  7.688225961E-02
   351  3.244887712E-02
   352 -3.965319979E-03
   353 -3.328258971E-03
   354 -2.242715736E-03
   355  7.801350510E-03
   356 -5.647579962E-02
   357 -7.690445030E-02
   358 -3.251311495E-02
   359  4.885669205E-03
   360  2.180359400E-03
   361 -1.792185370E-03
   362 -7.709569224E-03
   363  2.241612188E-05
   364  3.176344010E-05
   365 -2.369816592E-05
   366 -1.147716148E-03
   367  1.428330587E-03
   368  5.023837935E-03
   369  1.522238397E-04
   370 -3.064159309E-02
   371 -3.933344067E-02
   372 -8.332191821E-03
   373 -2.340099462E-03
   374 -1.267981841E-03
   375 -1.469164220E-03
   376  2.263533531E-04
   377  2.274401352E-02
   378  2.553739229E-02
   379  5.093892550E-03
   380 -1.779346952E-04
   381 -3.944588849E-03
   382  1.491854145E-03
   383 -8.333629013E-03
   384 -5.644003077E-02
   385 -7.687083950E-02
   386 -3.230925956E-02
   387  4.301730553E-03
   388  2.956202176E-03
   389 -2.138827845E-03
   390 -7.705060822E-03
   391  5.645989130E-02
   392  7.687959074E-02
   393  3.263642479E-02
   394 -3.376937897E-03
   395 -4.100891643E-03
   396 -1.894839574E-03
   397  7.849942559E-03
   398 -1.580552966E-05
   399 -2.979702687E-05
   400  2.121259779E-05
   401 -1.149932713E-03
   402  1.425906903E-03
   403  5.022855072E-03
   404 -7.796881471E-05
Ene=   -3.9302373234E-01
Spin= Alpha
Occup=   2.0000000
     1  5.627950503E-03
     2  8.902055987E-03
     3 -2.938353994E-03
     4 -5.324375309E-02
     5  1.443416441E-02
     6 -2.561543976E-02
     7 -2.433474465E-03
     8 -7.644551142E-02
     9  2.113410121E-02
    10 -3.896740332E-02
    11 -2.718037692E-02
    12 -8.053632138E-02
    13  1.665173365E-02
    14 -8.750503079E-05
    15  5.220852932E-03
    16 -1.392220906E-03
    17  6.386674354E-03
    18 -1.186323990E-02
    19 -2.633958536E-03
    20 -1.196278529E-01
    21 -7.941662186E-02
    22 -2.730917176E-03
    23  2.020759369E-03
    24  3.217815707E-03
    25  3.347193908E-03
    26 -5.362312473E-03
    27 -6.290792250E-03
    28 -9.183735839E-03
    29  5.119634660E-03
    30 -8.635678893E-03
    31 -7.890136282E-03
    32 -1.641666184E-02
    33  4.064209286E-03
    34 -6.206874833E-03
    35 -1.079113532E-03
    36  5.984833372E-04
    37 -1.776336662E-03
    38 -1.604658847E-03
    39  2.764814941E-03
    40 -2.425435440E-03
    41 -1.413423033E-01
    42 -2.244672766E-02
    43  2.756368827E-03
    44  3.566808621E-02
    45 -2.055203302E-02
    46 -3.245533585E-02
    47 -2.161715416E-02
    48 -1.644223553E-02
    49 -2.800922057E-04
    50  9.019314062E-02
    51 -3.067379554E-02
    52 -2.333114095E-02
    53 -3.995766301E-04
    54  1.195144803E-01
    55 -2.198311753E-02
    56 -1.675895237E-02
    57 -2.591703262E-04
    58  1.289731443E-03
    59 -2.365469165E-03
    60  3.191196471E-03
    61  1.972269040E-03
    62  6.957751505E-03
    63  4.917367504E-01
    64 -6.664876345E-02
    65 -5.073306789E-02
    66 -1.098135666E-03
    67  2.578202601E-03
    68  4.009680443E-03
    69 -9.109540770E-03
    70  8.323991883E-03
    71  3.333375856E-02
    72 -1.041691935E-02
    73 -1.291567190E-02
    74  1.215996740E-02
    75  4.805585808E-02
    76 -7.926894145E-03
    77 -2.208150515E-02
    78  4.451925336E-03
    79  4.624201343E-02
    80 -2.662341809E-03
    81 -3.014218382E-03
    82 -3.604827735E-03
    83  2.171030973E-03
    84  1.542466350E-03
    85 -1.486759640E-01
    86 -3.403835227E-02
    87 -2.698853769E-03
    88  4.883237156E-02
    89  2.024332783E-03
    90  3.223622149E-03
    91 -9.234053745E-04
    92  2.747427270E-04
    93 -8.863609123E-03
    94 -9.205539129E-03
    95 -2.456857538E-03
    96  1.361572937E-03
    97 -1.245311887E-02
    98 -1.639569731E-02
    99 -3.355614404E-03
   100  3.694372468E-03
   101 -5.614965528E-03
   102  6.085807082E-04
   103 -3.026118167E-03
   104 -2.570964471E-03
   105 -1.402001685E-03
   106 -1.228559808E-03
   107 -1.344316667E-01
   108 -1.964875365E-02
   109 -9.563853467E-05
   110  3.602382946E-02
   111  5.629250073E-03
   112  8.903943651E-03
   113 -5.183453774E-02
   114  1.159093958E-02
   115 -1.512250408E-02
   116 -2.561454221E-02
   117 -7.394039372E-02
   118  1.837153249E-02
   119 -2.209079852E-02
   120 -3.906098679E-02
   121 -8.455017210E-02
   122 -4.492271064E-03
   123 -1.807279672E-02
   124 -2.067340030E-04
   125 -3.178736627E-04
   126 -5.369663493E-03
   127 -1.164891996E-02
   128 -6.787965328E-03
   129 -5.029870402E-03
   130 -1.101298326E-01
   131 -9.308204644E-02
   132  1.459169444E-03
   133  4.552584055E-03
   134  7.197774749E-03
   135 -4.184372333E-02
   136 -3.182908611E-02
   137 -5.267355841E-04
   138 -2.142520575E-02
   139 -5.954674315E-02
   140 -4.529280259E-02
   141 -7.448376659E-04
   142 -2.542907703E-03
   143 -3.682181339E-02
   144 -2.803201490E-02
   145 -5.223010507E-04
   146 -1.159493603E-03
   147  1.331160136E-03
   148 -1.775039955E-03
   149 -8.981847915E-04
   150 -3.150781259E-03
   151  1.892868355E-01
   152  5.125638873E-02
   153  3.878978920E-02
   154  4.554135189E-04
   155  2.579653921E-03
   156  4.011849914E-03
   157  6.109760592E-03
   158 -1.060201730E-02
   159 -3.337019522E-02
   160 -1.041732226E-02
   161  9.020812397E-03
   162 -1.511821049E-02
   163 -4.810411911E-02
   164 -8.030261256E-03
   165 -8.676664497E-04
   166 -2.192730723E-02
   167 -4.655924246E-02
   168 -2.500259776E-03
   169  4.362357979E-03
   170  2.047351865E-03
   171 -1.113502152E-03
   172  2.356879346E-03
   173 -1.588055408E-01
   174 -1.173945512E-02
   175 -3.259948890E-02
   176 -5.081080195E-02
   177  2.022315631E-03
   178  3.220609285E-03
   179 -4.367253828E-03
   180  4.565573539E-03
   181  6.273784154E-03
   182 -9.200257845E-03
   183 -7.070028455E-03
   184  7.123880102E-03
   185  7.855909872E-03
   186 -1.635463578E-02
   187 -4.933218935E-03
   188  5.562182955E-03
   189  1.075261544E-03
   190  6.787712604E-04
   191  1.936914696E-03
   192  1.301265189E-03
   193 -3.635125386E-03
   194 -6.981776305E-04
   195 -1.329340850E-01
   196 -3.604840546E-03
   197 -2.095071579E-02
   198 -3.505955093E-02
   199  7.657967426E-04
   200  1.277776677E-03
   201  1.213231320E-02
   202 -1.285839304E-01
   203  3.927775754E-02
   204 -6.575248893E-03
   205  1.832288785E-02
   206 -1.830365877E-01
   207  5.615089348E-02
   208  3.075847654E-02
   209 -2.648642908E-03
   210 -1.257676774E-01
   211  3.510795710E-02
   212 -5.752601374E-03
   213 -3.426624672E-04
   214 -7.013159287E-03
   215 -1.302879197E-02
   216  2.744181934E-04
   217  9.297967798E-02
   218 -1.996451052E-02
   219  6.404482878E-03
   220 -6.402943338E-03
   221  2.021993660E-03
   222  3.220240924E-03
   223 -1.286155989E-04
   224 -1.066414601E-03
   225  8.862050885E-03
   226 -9.200904711E-03
   227  4.573306118E-04
   228 -2.875056878E-03
   229  1.244609382E-02
   230 -1.632962442E-02
   231  2.492478241E-03
   232 -4.338852681E-03
   233  5.615018950E-03
   234  7.460901284E-04
   235  3.255189796E-03
   236  2.178540387E-03
   237  5.422007418E-04
   238 -1.850189771E-03
   239 -1.271411135E-01
   240 -5.006486222E-03
   241 -1.879736106E-02
   242 -3.491695127E-02
   243  7.668705486E-04
   244  1.279295150E-03
   245 -1.200235314E-01
   246  4.658147483E-02
   247 -4.062663473E-02
   248 -6.578581213E-03
   249 -1.705652489E-01
   250  6.732387994E-02
   251 -5.805758781E-02
   252  3.073435188E-02
   253 -1.213447050E-01
   254  3.155826736E-02
   255 -3.664139902E-02
   256 -5.593747439E-03
   257  7.105981721E-03
   258 -1.665379583E-03
   259  1.117726448E-02
   260 -6.538770427E-03
   261  9.042416249E-02
   262  7.308981076E-04
   263 -2.047782354E-02
   264  5.894939430E-03
   265 -9.469352716E-04
   266  2.156983021E-03
   267  1.185705099E-02
   268 -2.087102751E-04
   269  4.449897075E-04
   270 -1.315296774E-03
   271 -1.092136817E-02
   272 -9.592583542E-03
   273 -1.447626122E-02
   274 -2.442249250E-03
   275  8.943904136E-05
   276 -4.281005370E-05
   277  6.251995332E-04
   278  2.321302306E-03
   279  6.689887989E-03
   280  5.558935521E-03
   281 -1.441453737E-02
   282 -1.471633282E-03
   283 -1.267483819E-03
   284 -3.447325559E-04
   285 -4.814527414E-03
   286  6.705406559E-03
   287  5.573810647E-03
   288 -1.435368781E-02
   289 -1.620859112E-03
   290 -1.083422709E-03
   291  3.061307524E-04
   292 -5.035301763E-03
   293  2.406189028E-02
   294  2.833806167E-02
   295  8.110055861E-03
   296  1.140082717E-03
   297  6.475480211E-04
   298 -4.658722517E-04
   299 -2.794022060E-02
   300 -9.602447905E-03
   301 -1.448032963E-02
   302 -2.680282356E-03
   303 -2.468950846E-04
   304  4.017166248E-04
   305  4.242396805E-04
   306  2.201287120E-03
   307 -9.417944967E-04
   308  2.173426437E-03
   309  1.173726120E-02
   310  8.115335608E-04
   311 -9.081819650E-04
   312 -6.977770538E-04
   313 -1.032379393E-02
   314  2.212679143E-02
   315  3.226136383E-02
   316  1.676096795E-02
   317  9.357093527E-04
   318 -2.633270979E-03
   319  9.614221252E-04
   320  2.273683476E-02
   321  2.214391804E-02
   322  3.229096275E-02
   323  1.674072566E-02
   324 -2.271079647E-03
   325  1.619149780E-03
   326 -9.777221229E-04
   327  2.263897576E-02
   328  2.406427173E-02
   329  2.832788688E-02
   330  8.294194707E-03
   331  9.200098695E-04
   332  9.192142249E-04
   333  4.921181104E-04
   334 -2.809820102E-02
   335 -9.590702819E-03
   336 -1.447590882E-02
   337 -2.490160300E-03
   338 -6.212782965E-06
   339  1.034289454E-04
   340 -6.249185922E-04
   341  2.447018419E-03
   342 -9.353265300E-04
   343  2.192760539E-03
   344  1.169275255E-02
   345  3.519201228E-04
   346 -3.354477611E-04
   347  1.315960997E-03
   348 -1.117422900E-02
   349 -3.402521469E-02
   350 -4.881982448E-02
   351 -2.053442887E-02
   352  2.397715631E-03
   353 -5.090174729E-03
   354  6.307309375E-03
   355  2.102178370E-03
   356 -3.400265289E-02
   357 -4.879121939E-02
   358 -2.049670011E-02
   359  4.133917917E-03
   360 -7.254928465E-03
   361 -1.310337553E-03
   362  2.135714477E-03
   363  1.186518794E-01
   364  1.636998248E-01
   365  7.296489396E-02
   366  5.130292869E-06
   367  8.717557402E-03
   368 -2.476210638E-03
   369  1.319956525E-02
   370 -9.415088805E-04
   371  2.190316122E-03
   372  1.146612316E-02
   373 -6.693073954E-04
   374  1.016534722E-03
   375  6.997134074E-04
   376 -1.085734565E-02
   377 -9.609543786E-03
   378 -1.447576100E-02
   379 -2.703301095E-03
   380  3.290575933E-04
   381 -3.397266073E-04
   382 -4.226758975E-04
   383  2.619321328E-03
   384 -3.402606153E-02
   385 -4.883136450E-02
   386 -2.045021682E-02
   387 -4.162752656E-03
   388  3.749437314E-03
   389 -6.329738689E-03
   390  2.221105346E-03
   391 -3.399332694E-02
   392 -4.878450777E-02
   393 -2.051746291E-02
   394 -5.906341336E-03
   395  5.908229661E-03
   396  1.287043651E-03
   397  2.036814299E-03
   398  1.186571065E-01
   399  1.636996747E-01
   400  7.296274213E-02
   401  8.361103562E-03
   402 -2.356440011E-03
   403  2.581172785E-03
   404  1.320306787E-02
Ene=   -3.9256683908E-01
Spin= Alpha
Occup=   2.0000000
     1  9.734566126E-07
     2  1.654949594E-06
     3  6.726736405E-03
     4 -8.383926106E-03
     5 -2.946738286E-02
     6 -7.297227555E-06
     7  1.008071970E-02
     8 -1.256472701E-02
     9 -4.418020435E-02
    10 -1.270132917E-05
    11  5.122088751E-03
    12 -6.439301760E-03
    13 -2.228585522E-02
    14 -1.169991234E-03
    15  8.999118233E-03
    16  9.314103980E-03
    17 -4.715606878E-03
    18  3.401266737E-04
    19 -2.988715813E-03
    20 -1.374392264E-02
    21  7.098607945E-03
    22  4.038931304E-02
    23  1.176602069E-02
    24  1.860736935E-02
    25  8.726349595E-03
    26  3.998819296E-02
    27  6.208372549E-02
    28 -5.395476933E-02
    29  1.116520745E-02
    30  5.648987005E-02
    31  9.036646034E-02
    32 -3.384451559E-02
    33  1.812129561E-02
    34  3.041499777E-02
    35  6.910590371E-02
    36  8.478444308E-03
    37  1.250471126E-03
    38  1.948914198E-03
    39 -9.487765284E-04
    40  5.752153264E-03
    41 -3.837532044E-02
    42  1.603560218E-02
    43 -8.172698913E-03
    44  1.937164406E-02
    45  3.736792244E-07
    46  6.051488674E-07
    47 -1.626256777E-03
    48  2.014652037E-03
    49  7.121736873E-03
    50 -3.469550299E-07
    51 -1.792316318E-03
    52  2.216117966E-03
    53  7.848104356E-03
    54 -8.614819643E-05
    55 -1.564002074E-03
    56  1.990208007E-03
    57  7.004199436E-03
    58  8.267830899E-05
    59  3.799727067E-03
    60  2.911177000E-03
    61 -1.692577258E-03
    62  4.196552726E-04
    63  1.233780119E-02
    64 -4.242735305E-03
    65  1.821223462E-03
    66  2.958073941E-03
    67  7.427350468E-03
    68  1.158234687E-02
    69 -5.197677558E-02
    70  4.249335153E-03
    71  9.528002019E-02
    72 -3.065884846E-02
    73 -7.364851751E-02
    74  6.985916082E-03
    75  1.371039603E-01
    76 -4.700659088E-02
    77 -7.835746903E-02
    78  1.826252376E-03
    79  1.336488053E-01
    80  7.414093094E-03
    81 -7.920237490E-03
    82  3.240201195E-03
    83  2.814154755E-03
    84  4.069188223E-03
    85 -1.918373696E-01
    86 -9.819278064E-02
    87 -2.699007947E-02
    88  1.023199731E-01
    89  1.176755988E-02
    90  1.861018118E-02
    91  1.305098027E-02
    92  3.423250125E-02
    93  6.470534769E-02
    94 -5.397352711E-02
    95  1.699193332E-02
    96  4.874065177E-02
    97  9.389741622E-02
    98 -3.369483913E-02
    99  5.557926590E-03
   100  4.700660195E-02
   101  6.146295320E-02
   102  2.014525426E-03
   103 -3.228724814E-03
   104  9.696152759E-03
   105  9.102888189E-04
   106  1.341118360E-03
   107 -3.639537549E-02
   108 -9.596077700E-03
   109  2.373550867E-02
   110  4.238500979E-03
   111  5.953562999E-07
   112  8.697651771E-07
   113  6.745692985E-03
   114 -8.359858359E-03
   115 -2.947012038E-02
   116  1.510224337E-06
   117  1.010786873E-02
   118 -1.253067731E-02
   119 -4.418452307E-02
   120 -3.963643295E-05
   121  5.162494334E-03
   122 -6.301164321E-03
   123 -2.226736773E-02
   124  1.614404677E-03
   125  1.129601995E-02
   126  6.234920134E-03
   127 -4.322810876E-03
   128  1.902035414E-03
   129 -6.659671474E-03
   130 -7.981518970E-03
   131  1.062558619E-02
   132  4.247698755E-02
   133 -4.656234549E-07
   134 -6.202543156E-07
   135  1.123822392E-02
   136 -1.396871523E-02
   137 -4.926387493E-02
   138 -1.970203409E-06
   139  1.611718992E-02
   140 -2.002880616E-02
   141 -7.063328670E-02
   142  9.270883533E-05
   143  6.485818718E-03
   144 -8.028057191E-03
   145 -2.835488109E-02
   146 -2.344385449E-04
   147 -1.070549243E-02
   148 -8.200764366E-03
   149  4.767463883E-03
   150 -1.182559191E-03
   151  3.119916224E-03
   152  4.252970069E-03
   153 -3.715494701E-03
   154 -1.638291942E-02
   155 -7.425933567E-03
   156 -1.158012503E-02
   157  8.278439703E-03
   158  5.006193207E-02
   159  9.603613401E-02
   160  3.065142468E-02
   161  1.076493070E-02
   162  7.115809062E-02
   163  1.381685164E-01
   164  4.705392951E-02
   165  1.711429444E-02
   166  7.444475057E-02
   167  1.347404137E-01
   168 -7.563537277E-03
   169  1.157265234E-03
   170 -8.420703573E-03
   171  1.928197207E-04
   172 -4.814254647E-03
   173  1.860011734E-01
   174  4.932219199E-02
   175  8.703929398E-02
   176  1.034020012E-01
   177 -1.176548710E-02
   178 -1.860622573E-02
   179 -4.184988273E-02
   180  1.538151346E-03
   181  6.144460782E-02
   182  5.394500338E-02
   183 -5.885716854E-02
   184  3.264171380E-03
   185  8.947817036E-02
   186  3.391604781E-02
   187 -3.521844347E-02
   188 -1.021163388E-02
   189  6.852458601E-02
   190 -8.399635592E-03
   191  2.330424398E-03
   192  8.345211646E-04
   193 -3.806333137E-03
   194 -4.477793469E-03
   195  4.299426913E-02
   196  1.798105918E-03
   197 -1.712219868E-02
   198  1.826736258E-02
   199 -4.003021533E-07
   200 -4.229317071E-07
   201 -6.489018920E-03
   202  8.069476495E-03
   203  2.839036536E-02
   204 -1.127579029E-06
   205 -8.949207555E-03
   206  1.112937600E-02
   207  3.915080425E-02
   208  1.494524769E-05
   209 -7.552621869E-03
   210  9.353954773E-03
   211  3.302528640E-02
   212  6.584619698E-04
   213  4.218279522E-03
   214  2.222021251E-03
   215 -1.581330940E-03
   216  7.387612515E-04
   217  1.999156989E-03
   218  4.894211629E-04
   219 -1.007035241E-03
   220 -5.574610971E-03
   221 -1.176955696E-02
   222 -1.861329617E-02
   223 -3.750786090E-02
   224 -4.198568847E-03
   225  6.406800608E-02
   226  5.398001887E-02
   227 -5.300591987E-02
   228 -4.461415267E-03
   229  9.301715569E-02
   230  3.374113786E-02
   231 -4.782172726E-02
   232  6.518603394E-03
   233  6.078505358E-02
   234 -1.899408625E-03
   235  8.514598665E-03
   236 -5.690586255E-03
   237 -1.128159126E-04
   238 -1.631781565E-03
   239  2.611553261E-02
   240 -2.071955908E-02
   241  1.547063982E-02
   242  1.006057774E-03
   243  7.786147850E-07
   244  1.378122115E-06
   245 -6.486065072E-03
   246  8.078560403E-03
   247  2.840506988E-02
   248 -1.104801250E-05
   249 -8.937165313E-03
   250  1.114677631E-02
   251  3.917619216E-02
   252  9.888590826E-05
   253 -7.589000609E-03
   254  9.321004130E-03
   255  3.300520090E-02
   256 -4.947532282E-04
   257  3.259103589E-03
   258  3.506538146E-03
   259 -1.746625806E-03
   260  8.857489053E-05
   261  3.996961128E-03
   262  1.084425687E-03
   263 -2.159475845E-03
   264 -4.813127267E-03
   265 -2.514966471E-02
   266 -3.145666108E-02
   267 -6.022411032E-04
   268 -2.108927492E-03
   269  2.903282146E-03
   270  2.692374025E-03
   271  2.627103232E-02
   272  5.426405378E-02
   273  7.483648360E-02
   274  4.219845050E-02
   275 -1.138180812E-03
   276 -2.298071551E-03
   277 -1.678265325E-03
   278  2.022637967E-03
   279  9.706941070E-03
   280  1.809111426E-02
   281  8.966267371E-03
   282 -1.172298570E-03
   283 -6.571603293E-04
   284  4.985990207E-04
   285 -2.318652053E-02
   286 -9.713464604E-03
   287 -1.808048684E-02
   288 -9.379162172E-03
   289  9.391286281E-04
   290  9.476966957E-04
   291  5.243565945E-04
   292  2.328494999E-02
   293  8.476886243E-02
   294  1.095607768E-01
   295  2.820399020E-02
   296  4.573543226E-03
   297  2.119271543E-03
   298 -2.919363261E-03
   299 -6.445070243E-02
   300  5.425284174E-02
   301  7.482901238E-02
   302  4.234436644E-02
   303 -1.710082281E-03
   304 -1.541615062E-03
   305 -2.022548186E-03
   306  2.238089818E-03
   307 -2.511438518E-02
   308 -3.141310799E-02
   309 -4.538553004E-04
   310  6.655605457E-04
   311 -7.698108441E-04
   312  4.367877399E-03
   313  2.546566083E-02
   314  7.811994906E-06
   315  2.919672236E-05
   316 -1.710636467E-04
   317  5.734425748E-04
   318 -7.115956234E-04
   319 -2.507005329E-03
   320 -1.933044577E-04
   321 -5.346832087E-06
   322 -1.653210117E-05
   323  1.025354535E-05
   324  5.724250513E-04
   325 -7.119404585E-04
   326 -2.506699904E-03
   327  5.756610029E-04
   328 -8.476783202E-02
   329 -1.095928585E-01
   330 -2.798721366E-02
   331 -3.219408069E-03
   332 -3.805593274E-03
   333 -3.017630119E-03
   334  6.453237529E-02
   335 -5.426255504E-02
   336 -7.482257245E-02
   337 -4.222094596E-02
   338  2.543800886E-03
   339  5.017941144E-04
   340 -1.632964687E-03
   341 -2.051638567E-03
   342  2.515274851E-02
   343  3.144731778E-02
   344  4.712604112E-04
   345 -2.276623027E-03
   346  2.775021984E-03
   347  2.689273594E-03
   348 -2.628690463E-02
   349  2.337356633E-02
   350  3.354323639E-02
   351  1.364277178E-02
   352 -2.032376683E-03
   353 -1.027558552E-03
   354 -6.551892596E-04
   355  6.491560910E-03
   356 -2.338523133E-02
   357 -3.352500062E-02
   358 -1.386469954E-02
   359  2.226081706E-03
   360  7.862604768E-04
   361 -1.981682731E-04
   362 -6.375218621E-03
   363 -4.247339013E-06
   364  1.358109034E-06
   365 -1.223991872E-04
   366 -3.394289952E-04
   367  4.204901690E-04
   368  1.482172393E-03
   369  3.210351096E-04
   370  2.512178343E-02
   371  3.139045426E-02
   372  7.686758277E-04
   373  4.933484125E-04
   374 -8.997197971E-04
   375  4.366555747E-03
   376 -2.618152321E-02
   377 -5.425183991E-02
   378 -7.483789368E-02
   379 -4.199727286E-02
   380  1.974741311E-03
   381  1.259514087E-03
   382 -1.975238622E-03
   383 -3.018449411E-03
   384 -2.337845957E-02
   385 -3.355843333E-02
   386 -1.355412313E-02
   387  1.546032264E-03
   388  1.692368914E-03
   389 -6.101177200E-04
   390 -6.104548306E-03
   391  2.340284639E-02
   392  3.355650933E-02
   393  1.398774896E-02
   394 -1.349223479E-03
   395 -1.933218766E-03
   396 -2.443447988E-04
   397  6.504089380E-03
   398 -3.117653156E-06
   399 -4.579646422E-06
   400 -5.766109163E-05
   401 -3.391681523E-04
   402  4.226927574E-04
   403  1.483293450E-03
   404 -2.846057803E-04
Ene=   -3.7639891892E-01
Spin= Alpha
Occup=   2.0000000
     1 -8.753472691E-04
     2 -1.337214473E-03
     3  2.155705972E-02
     4 -7.120020255E-02
     5  2.514111779E-02
     6  2.791407937E-03
     7  3.134442134E-02
     8 -1.019373034E-01
     9  3.610767269E-02
    10 -4.999308071E-04
    11  3.264137311E-02
    12 -1.148110718E-01
    13  4.001360681E-02
    14 -3.717115169E-03
    15  3.158928402E-03
    16  4.735246727E-04
    17  7.967128581E-03
    18  9.294938893E-04
    19  8.373339056E-02
    20  2.821021261E-02
    21 -1.151525129E-01
    22  3.917948781E-02
    23 -2.654254632E-03
    24 -4.176822197E-03
    25 -3.715299080E-02
    26 -4.903542691E-03
    27 -3.665048913E-02
    28  1.108035081E-02
    29 -5.272367952E-02
    30 -7.743665820E-03
    31 -5.127773099E-02
    32  2.120641943E-02
    33 -4.852120005E-02
    34 -9.431759348E-03
    35 -4.669835849E-02
    36 -1.832448856E-03
    37 -2.397535943E-03
    38 -1.631987005E-03
    39  9.956689480E-03
    40 -3.743923681E-03
    41  7.374897317E-02
    42 -2.170716566E-03
    43 -1.301253644E-02
    44 -2.117635404E-02
    45 -8.900622037E-03
    46 -1.405762421E-02
    47 -6.456642228E-02
    48 -4.909346271E-02
    49 -8.253742307E-04
    50  4.155317892E-02
    51 -9.396428074E-02
    52 -7.144211820E-02
    53 -1.200055411E-03
    54 -1.960203279E-03
    55 -5.238548475E-02
    56 -3.989576905E-02
    57 -6.650753285E-04
    58 -7.352039665E-03
    59  2.599500515E-03
    60 -3.163924526E-03
    61  7.569516888E-04
    62  2.886514415E-03
    63 -2.302105528E-01
    64  4.374869102E-02
    65  3.202975479E-02
    66  4.934498298E-04
    67  8.300818532E-03
    68  1.300646217E-02
    69 -2.704684589E-02
    70  2.978738663E-04
    71  4.548923292E-02
    72 -3.530296921E-02
    73 -3.817194030E-02
    74  1.039498087E-03
    75  6.555595783E-02
    76 -4.263491832E-02
    77 -4.985783337E-02
    78 -4.961064478E-03
    79  7.178239818E-02
    80 -3.582166249E-03
    81 -4.957744264E-03
    82 -8.758027457E-03
    83  2.318490548E-03
    84 -4.138070448E-03
    85 -2.082691466E-01
    86 -6.969170591E-02
    87 -1.991442343E-02
    88  7.286379814E-02
    89 -2.652838350E-03
    90 -4.174538719E-03
    91 -3.377100430E-03
    92 -4.978055623E-02
    93 -1.623608832E-02
    94  1.107172608E-02
    95 -5.746443990E-03
    96 -7.017498369E-02
    97 -2.288445752E-02
    98  2.119077677E-02
    99 -7.376826140E-03
   100 -6.401309166E-02
   101 -2.184467579E-02
   102 -2.660431156E-04
   103 -5.997514034E-03
   104 -7.056971438E-03
   105 -6.005051618E-03
   106  1.750060440E-03
   107  6.938274103E-02
   108 -3.306709162E-03
   109 -1.140356968E-02
   110 -2.108986884E-02
   111 -8.770830852E-04
   112 -1.340277428E-03
   113 -6.247515902E-02
   114  4.011908491E-02
   115 -2.566147500E-02
   116  2.810212029E-03
   117 -8.931555005E-02
   118  5.790350928E-02
   119 -3.684216887E-02
   120 -6.426124560E-04
   121 -1.013172546E-01
   122  6.262685343E-02
   123 -4.089450456E-02
   124 -3.808664970E-03
   125 -1.240202736E-03
   126 -2.682926989E-03
   127 -6.363133688E-03
   128  4.964707685E-03
   129  7.828751657E-02
   130 -1.046864946E-01
   131  5.857862679E-02
   132 -3.850899115E-02
   133  1.373082523E-02
   134  2.175022853E-02
   135 -5.126851058E-02
   136 -3.895335740E-02
   137 -6.512699623E-04
   138 -6.399734027E-02
   139 -7.410198509E-02
   140 -5.630407709E-02
   141 -9.416041249E-04
   142 -3.250822117E-02
   143 -3.996754329E-02
   144 -3.033024038E-02
   145 -5.150826256E-04
   146  3.641163298E-05
   147  1.487065369E-03
   148 -2.053831637E-03
   149 -1.650954642E-03
   150 -5.866384345E-03
   151  2.358510480E-02
   152  8.213929962E-03
   153  6.540187135E-03
   154  5.209465093E-04
   155  8.303324750E-03
   156  1.301044251E-02
   157 -6.225863329E-03
   158 -2.559220551E-02
   159 -4.592403864E-02
   160 -3.531642818E-02
   161 -8.168635679E-03
   162 -3.626853747E-02
   163 -6.616205351E-02
   164 -4.261307702E-02
   165 -1.694179353E-02
   166 -4.584825276E-02
   167 -7.263699036E-02
   168 -3.260218058E-03
   169  9.764487617E-03
   170  2.521593662E-03
   171 -4.242203548E-03
   172 -2.510605214E-03
   173 -2.066309750E-01
   174 -3.714884254E-02
   175 -6.123929364E-02
   176 -7.371506125E-02
   177 -2.655924996E-03
   178 -4.179361218E-03
   179 -1.523535787E-02
   180 -3.492139694E-02
   181  3.599835615E-02
   182  1.108607966E-02
   183 -2.237219743E-02
   184 -4.934113562E-02
   185  5.034436067E-02
   186  2.119561029E-02
   187 -2.271435031E-02
   188 -4.476210706E-02
   189  4.582391782E-02
   190 -1.727499313E-03
   191  2.117523391E-03
   192  2.069696542E-03
   193 -1.047572266E-02
   194  1.867264253E-03
   195  7.734462299E-02
   196 -1.281947847E-02
   197  2.103884124E-03
   198  2.125829940E-02
   199  1.784765230E-03
   200  2.891845647E-03
   201  8.520335423E-02
   202  4.504570803E-02
   203  6.740702891E-03
   204 -1.150061737E-02
   205  1.224946731E-01
   206  6.489719025E-02
   207  9.648478593E-03
   208  3.937809780E-02
   209  6.851894458E-02
   210  5.165697136E-02
   211  1.075852936E-03
   212  6.722029649E-03
   213 -4.249489483E-03
   214  4.915348139E-03
   215  1.575443516E-04
   216  3.875626513E-03
   217  9.248798361E-02
   218 -8.291548869E-03
   219  8.520870589E-03
   220 -4.422002029E-03
   221 -2.647781903E-03
   222 -4.166734259E-03
   223 -4.913144723E-02
   224  9.866345970E-03
   225  1.555015955E-02
   226  1.105510297E-02
   227 -6.952007852E-02
   228  1.295890999E-02
   229  2.189946167E-02
   230  2.111902815E-02
   231 -6.405174083E-02
   232  9.737846109E-03
   233  2.090871683E-02
   234  4.465601072E-05
   235  8.481055125E-03
   236  3.793664935E-03
   237  5.960408362E-03
   238 -1.757383118E-03
   239  7.035804736E-02
   240 -1.236331730E-02
   241 -1.368786239E-04
   242  2.099625975E-02
   243  1.783275311E-03
   244  2.889362804E-03
   245  6.628171886E-02
   246  7.009780096E-02
   247 -4.804089432E-03
   248 -1.148814047E-02
   249  9.542066225E-02
   250  1.007426469E-01
   251 -6.864386980E-03
   252  3.928146350E-02
   253  6.809715655E-02
   254  5.223119117E-02
   255  6.643562377E-04
   256  6.733282436E-03
   257 -3.711512056E-03
   258  5.298484743E-03
   259  1.983786630E-03
   260  3.361138532E-03
   261  9.057238851E-02
   262  6.085064448E-03
   263 -1.007881701E-02
   264  4.218235957E-03
   265  4.331055212E-02
   266  5.832289638E-02
   267  2.670272900E-02
   268  2.512963328E-03
   269 -2.652960750E-03
   270 -5.836790459E-04
   271 -5.268604582E-03
   272 -3.549275916E-02
   273 -4.724278800E-02
   274 -1.831145433E-02
   275 -1.384746074E-03
   276  2.426382556E-03
   277  1.214465251E-03
   278  1.339150403E-02
   279 -3.307872311E-02
   280 -4.644767829E-02
   281 -1.838609331E-02
   282 -1.798536202E-03
   283  1.168267918E-05
   284  3.000486241E-03
   285 -9.052086693E-03
   286 -3.305600017E-02
   287 -4.642064082E-02
   288 -1.837335352E-02
   289 -4.243211211E-04
   290 -1.699663918E-03
   291 -3.027813221E-03
   292 -9.207884527E-03
   293  3.777117442E-02
   294  4.539065715E-02
   295  1.037523796E-02
   296  1.035612439E-03
   297  1.651137534E-04
   298 -1.347048221E-03
   299 -3.766780492E-02
   300 -3.555143787E-02
   301 -4.733356681E-02
   302 -1.826485046E-02
   303  1.092584758E-03
   304 -8.532699386E-04
   305  2.716097881E-03
   306  1.318032311E-02
   307  4.333050174E-02
   308  5.834025899E-02
   309  2.682223865E-02
   310 -1.126667662E-03
   311  2.165686184E-03
   312 -2.784188614E-03
   313 -5.494848959E-03
   314  2.136947194E-02
   315  3.254179052E-02
   316  2.945502712E-02
   317 -1.954881564E-04
   318 -2.261569070E-03
   319  5.966583147E-04
   320  8.473516244E-03
   321  2.133829486E-02
   322  3.250766555E-02
   323  2.943788727E-02
   324 -2.223314536E-03
   325  4.225439391E-04
   326 -6.268444440E-04
   327  8.570621092E-03
   328  3.778433061E-02
   329  4.541138154E-02
   330  1.031345292E-02
   331  4.133088293E-04
   332  9.385465671E-04
   333  1.365243250E-03
   334 -3.752042139E-02
   335 -3.548997650E-02
   336 -4.723154485E-02
   337 -1.846121145E-02
   338  1.986913491E-03
   339 -1.968572495E-03
   340 -1.206534234E-03
   341  1.306078713E-02
   342  4.331044641E-02
   343  5.832615855E-02
   344  2.665352988E-02
   345 -1.893651025E-03
   346  3.123726874E-03
   347  5.908738997E-04
   348 -5.054396534E-03
   349  4.738743778E-02
   350  6.337714787E-02
   351  3.361770894E-02
   352  3.647923182E-03
   353 -1.361932382E-03
   354 -4.936054182E-03
   355  2.053626132E-03
   356  4.724922323E-02
   357  6.317898849E-02
   358  3.361766602E-02
   359  1.178456327E-03
   360  1.730881940E-03
   361  5.926988175E-03
   362  2.059248817E-03
   363 -3.573127737E-02
   364 -4.916252206E-02
   365 -2.113551345E-02
   366  4.480656873E-03
   367 -2.347501274E-03
   368  1.694802297E-03
   369  1.685164507E-03
   370  4.333636094E-02
   371  5.834866675E-02
   372  2.681018119E-02
   373  1.741362525E-03
   374 -1.698960501E-03
   375  2.791461372E-03
   376 -5.683475471E-03
   377 -3.554430511E-02
   378 -4.731918312E-02
   379 -1.818163293E-02
   380 -4.872915386E-04
   381  1.313566017E-03
   382 -2.707981307E-03
   383  1.339226169E-02
   384  4.736153958E-02
   385  6.333839798E-02
   386  3.358416032E-02
   387 -4.130525726E-04
   388  3.817911312E-03
   389  4.975669159E-03
   390  2.012858813E-03
   391  4.725799210E-02
   392  6.319940866E-02
   393  3.349683870E-02
   394  2.076297164E-03
   395  7.427977121E-04
   396 -5.885951591E-03
   397  2.100063027E-03
   398 -3.573991939E-02
   399 -4.918135779E-02
   400 -2.115508570E-02
   401 -1.038423185E-03
   402  4.964754231E-03
   403 -1.649910373E-03
   404  1.863846908E-03
Ene=   -3.7541577434E-01
Spin= Alpha
Occup=   2.0000000
     1  1.684621163E-03
     2  2.579056802E-03
     3  2.617022897E-02
     4  1.025167525E-01
     5 -2.311886320E-02
     6 -5.376123634E-03
     7  3.906487181E-02
     8  1.457102281E-01
     9 -3.243187446E-02
    10  8.743093584E-03
    11  2.872173507E-02
    12  1.773364708E-01
    13 -4.379396768E-02
    14 -6.024691508E-03
    15  3.955243261E-03
    16 -5.846118512E-03
    17 -2.926995353E-03
    18 -5.849496327E-03
    19 -1.848327722E-01
    20 -5.454370922E-02
    21  1.639222653E-01
    22 -6.011956118E-02
    23  1.131463385E-02
    24  1.789198020E-02
    25 -4.466918449E-02
    26  3.301873426E-02
    27  2.119832787E-02
    28 -5.174657066E-02
    29 -6.292004040E-02
    30  4.813269764E-02
    31  3.089431595E-02
    32 -2.995765877E-02
    33 -4.333434113E-02
    34  2.397771166E-02
    35  1.396714846E-02
    36 -4.077967390E-03
    37  6.369331862E-03
    38 -3.866321936E-03
    39  6.128603432E-04
    40  1.104925974E-03
    41 -1.864337154E-02
    42  1.114587994E-02
    43  1.439168830E-02
    44 -1.043579133E-02
    45 -9.211741039E-07
    46 -1.269827355E-06
    47 -5.032985446E-03
    48  6.685941987E-03
    49 -3.109826434E-03
    50 -2.559202542E-06
    51 -8.903264134E-03
    52  1.182042003E-02
    53 -5.479602487E-03
    54  1.108293867E-04
    55 -1.585642337E-03
    56  2.075886823E-03
    57 -1.020488304E-03
    58 -4.272201197E-05
    59 -2.047208093E-03
    60 -1.468133474E-03
    61 -6.641485538E-03
    62  1.870243902E-03
    63 -3.699437086E-03
    64 -4.920533945E-02
    65  6.633982803E-02
    66 -3.014492052E-02
    67 -1.509526974E-07
    68 -8.580476602E-09
    69  9.194968238E-03
    70 -1.216679519E-02
    71  5.561957562E-03
    72 -4.855338975E-06
    73  1.379450640E-02
    74 -1.825359377E-02
    75  8.345559222E-03
    76  4.034165353E-05
    77  8.778779224E-03
    78 -1.159532125E-02
    79  5.248579434E-03
    80  3.202483306E-05
    81  3.825120585E-03
    82  2.831089075E-03
    83  1.256987270E-02
    84 -3.567853529E-03
    85  6.085190244E-03
    86 -1.802501754E-02
    87  2.563737923E-02
    88 -1.194529068E-02
    89 -1.131223071E-02
    90 -1.788840205E-02
    91 -3.785446674E-03
    92  3.120502147E-02
    93 -5.046692383E-02
    94  5.174409773E-02
    95 -6.312450528E-03
    96  4.362321691E-02
    97 -7.271243077E-02
    98  2.985155095E-02
    99  6.537267821E-04
   100  3.268805996E-02
   101 -3.972098187E-02
   102  7.895014465E-03
   103 -2.542953243E-03
   104  1.782019591E-04
   105  2.182990693E-03
   106  3.873250308E-04
   107  1.312429613E-02
   108 -1.893048691E-02
   109 -2.655898318E-03
   110  5.535164230E-03
   111 -1.683002776E-03
   112 -2.576492927E-03
   113 -1.053921683E-01
   114  2.475404120E-03
   115 -2.476967623E-02
   116  5.368660754E-03
   117 -1.503044433E-01
   118  1.715226769E-03
   119 -3.480775256E-02
   120 -8.722415921E-03
   121 -1.778232329E-01
   122  2.022775535E-02
   123 -4.631680230E-02
   124  6.010412154E-03
   125 -4.656218865E-03
   126  5.345444489E-03
   127  6.456251015E-04
   128  6.488050672E-03
   129  1.871435092E-01
   130 -1.411052718E-01
   131  9.968855581E-02
   132 -5.783646165E-02
   133 -2.060387116E-06
   134 -3.190748409E-06
   135 -5.398176524E-02
   136  7.155534821E-02
   137 -3.265117158E-02
   138  9.851421938E-06
   139 -7.658240880E-02
   140  1.015128894E-01
   141 -4.631872865E-02
   142 -2.859524474E-05
   143 -6.670052692E-02
   144  8.838573828E-02
   145 -4.038627662E-02
   146  9.811960207E-05
   147  4.576438713E-03
   148  3.285222168E-03
   149  1.490525757E-02
   150 -4.194276884E-03
   151  7.714340955E-04
   152 -1.414765619E-02
   153  1.878881515E-02
   154 -8.871399966E-03
   155 -6.819102856E-07
   156 -1.183639354E-06
   157  9.169314412E-03
   158 -1.217341971E-02
   159  5.570152140E-03
   160  9.248062320E-06
   161  1.376297333E-02
   162 -1.827031360E-02
   163  8.358993689E-03
   164 -8.454067302E-05
   165  8.665255192E-03
   166 -1.154888096E-02
   167  5.284909858E-03
   168  1.339188337E-04
   169  3.902554170E-03
   170  2.718696718E-03
   171  1.258363394E-02
   172 -3.509936944E-03
   173 -4.196723324E-03
   174 -1.923905860E-02
   175  2.504676967E-02
   176 -1.240982986E-02
   177 -1.131290668E-02
   178 -1.788886531E-02
   179 -2.019855962E-02
   180  5.161790042E-02
   181  2.149311469E-02
   182  5.172949422E-02
   183 -3.003959547E-02
   184  7.312338649E-02
   185  3.129180221E-02
   186  3.002031022E-02
   187 -1.171747929E-02
   188  4.806580270E-02
   189  1.431853838E-02
   190  4.169583852E-03
   191 -2.151508987E-03
   192  7.064221115E-03
   193  7.693648026E-05
   194 -1.351896964E-03
   195  2.865785655E-02
   196 -1.616336860E-02
   197 -4.097942340E-03
   198 -9.288897907E-03
   199  2.476347546E-03
   200  3.997187029E-03
   201  9.515616968E-02
   202 -4.032116325E-03
   203  2.291215794E-02
   204 -1.582216468E-02
   205  1.355780820E-01
   206 -6.678502102E-03
   207  3.290620039E-02
   208  6.325190076E-02
   209  7.023967540E-02
   210  7.137179903E-03
   211  1.408910632E-02
   212  4.968006621E-03
   213 -4.719662270E-03
   214  3.244337990E-03
   215 -3.477148021E-03
   216  5.332940460E-03
   217  1.833284868E-01
   218 -3.332447034E-02
   219  1.129652227E-02
   220 -1.092524941E-02
   221  1.131210020E-02
   222  1.788817619E-02
   223 -2.822644305E-02
   224  1.260124721E-02
   225 -5.077965362E-02
   226 -5.174408504E-02
   227 -3.914658215E-02
   228  1.862989259E-02
   229 -7.313284869E-02
   230 -2.984871128E-02
   231 -3.100450597E-02
   232  8.559890471E-03
   233 -4.015936560E-02
   234 -7.955576836E-03
   235 -2.832994828E-04
   236 -2.376078723E-03
   237  1.647381284E-03
   238 -1.413000677E-03
   239 -2.084516055E-02
   240  5.724680342E-03
   241  1.815390287E-02
   242  4.651996365E-03
   243 -2.476320141E-03
   244 -3.997373697E-03
   245 -2.196152574E-02
   246 -9.304645119E-02
   247  2.143371200E-02
   248  1.582635910E-02
   249 -3.040136651E-02
   250 -1.328240238E-01
   251  3.081628632E-02
   252 -6.330472468E-02
   253 -2.587609056E-02
   254 -6.593329802E-02
   255  1.284455307E-02
   256 -5.031314329E-03
   257  1.879651242E-03
   258 -5.285080487E-03
   259 -5.820742282E-03
   260 -2.718071539E-03
   261 -1.867914256E-01
   262 -1.884049847E-03
   263  3.611619677E-02
   264 -1.078624082E-02
   265  3.061761357E-02
   266  4.509744537E-02
   267  2.628625700E-02
   268  8.756806825E-04
   269  2.954928783E-04
   270  1.632649397E-03
   271  4.663400706E-04
   272  6.730930161E-03
   273  1.069485648E-02
   274  7.737210435E-03
   275 -3.040699370E-03
   276  1.096490791E-03
   277 -1.235078832E-05
   278  9.006981665E-03
   279 -3.569550690E-05
   280 -4.579865383E-05
   281 -1.393102995E-05
   282 -2.196854799E-04
   283  2.972292411E-04
   284 -1.332545496E-04
   285 -6.495543944E-05
   286  4.763932635E-05
   287  5.874788438E-05
   288  8.942973127E-05
   289 -2.256422585E-04
   290  2.928710059E-04
   291 -1.328994000E-04
   292 -3.499792642E-05
   293 -8.920367754E-07
   294  2.080789024E-05
   295 -1.399406869E-04
   296 -2.028705375E-05
   297  2.948912780E-05
   298 -1.257559786E-05
   299  1.856229626E-04
   300 -6.713467986E-03
   301 -1.067473463E-02
   302 -7.802083082E-03
   303  1.560087301E-04
   304  2.724976561E-03
   305 -1.732131075E-03
   306 -9.179674049E-03
   307 -3.063647493E-02
   308 -4.512861106E-02
   309 -2.618669753E-02
   310  6.695491430E-05
   311 -1.546035847E-03
   312 -1.061942733E-03
   313 -5.791566788E-05
   314  7.265521036E-02
   315  9.860341057E-02
   316  4.481218587E-02
   317  5.124376265E-03
   318  2.386953828E-03
   319  4.915049946E-04
   320 -1.283618418E-02
   321 -7.266084137E-02
   322 -9.860361282E-02
   323 -4.491666444E-02
   324 -3.677480695E-03
   325 -4.304539359E-03
   326  3.811507664E-04
   327  1.270473820E-02
   328 -7.743041883E-06
   329 -7.053950033E-06
   330  6.131299328E-05
   331 -2.186376443E-05
   332  2.878012352E-05
   333 -1.236109248E-05
   334 -3.476525228E-05
   335 -6.723283751E-03
   336 -1.065515599E-02
   337 -8.211875960E-03
   338 -2.429075359E-04
   339  3.222693894E-03
   340  2.253250912E-05
   341 -9.474744993E-03
   342 -3.062347472E-02
   343 -4.509671376E-02
   344 -2.643621215E-02
   345 -5.431581700E-04
   346 -7.852371849E-04
   347  1.614412333E-03
   348  6.558675295E-04
   349  3.747615250E-02
   350  5.061093872E-02
   351  2.234609676E-02
   352  4.154631091E-03
   353 -3.185738341E-03
   354 -2.779516934E-03
   355  7.568856192E-03
   356  3.739399003E-02
   357  5.049555914E-02
   358  2.240410893E-02
   359  2.294109688E-03
   360 -8.582795734E-04
   361  5.396735232E-03
   362  7.740800077E-03
   363  6.779855863E-03
   364  5.511763092E-03
   365  4.809664866E-03
   366  6.412303788E-03
   367  9.323560536E-04
   368  1.201288018E-03
   369  5.601699423E-03
   370  3.061905191E-02
   371  4.510779063E-02
   372  2.626892846E-02
   373  1.487836724E-03
   374 -4.634987948E-04
   375 -1.044059105E-03
   376 -8.446093742E-04
   377  6.729994355E-03
   378  1.066647848E-02
   379  8.081633058E-03
   380 -2.638130076E-03
   381  6.001604310E-04
   382 -1.765829713E-03
   383  9.619801181E-03
   384 -3.749895312E-02
   385 -5.063717755E-02
   386 -2.245652638E-02
   387  2.001642275E-03
   388 -4.821827336E-03
   389 -2.809816994E-03
   390 -7.832216009E-03
   391 -3.741181711E-02
   392 -5.053193022E-02
   393 -2.230748775E-02
   394  1.252058876E-04
   395 -2.504847805E-03
   396  5.371540838E-03
   397 -7.577577976E-03
   398 -6.744744077E-03
   399 -5.472095106E-03
   400 -4.633041259E-03
   401 -2.629837207E-03
   402 -5.945211603E-03
   403  1.089111950E-03
   404 -5.633805934E-03
Ene=   -3.7162486661E-01
Spin= Alpha
Occup=   2.0000000
     1 -4.786764952E-06
     2 -7.602428136E-06
     3  7.500067381E-04
     4 -9.867421806E-04
     5 -3.303247365E-03
     6  2.071916371E-05
     7  1.264836982E-03
     8 -1.649038593E-03
     9 -5.571901615E-03
    10 -2.876736701E-06
    11 -1.295191125E-03
    12  1.489665717E-03
    13  5.735010192E-03
    14 -5.502555569E-03
    15 -6.220128172E-03
    16  4.724582694E-03
    17 -1.050845592E-05
    18 -3.255751364E-03
    19  1.094109533E-03
    20 -5.585573346E-03
    21  2.674848485E-03
    22  2.215015782E-02
    23 -1.098548442E-03
    24 -1.740294474E-03
    25  1.655492540E-02
    26 -2.602306214E-02
    27  5.666058261E-03
    28  5.917303838E-03
    29  2.443007040E-02
    30 -3.862817117E-02
    31  8.768178871E-03
    32 -1.095215716E-02
    33  1.722749122E-02
    34 -2.013890884E-02
    35  7.520485958E-03
    36 -4.272570480E-04
    37 -6.227289304E-04
    38 -1.802133859E-03
    39 -6.091138416E-03
    40 -1.698447627E-03
    41 -6.411187832E-02
    42 -6.623087329E-03
    43 -1.435759732E-03
    44  2.995835413E-02
    45  2.688842582E-06
    46  4.015317154E-06
    47  2.860748698E-02
    48 -3.554348241E-02
    49 -1.252567835E-01
    50 -5.223464979E-06
    51  4.111963538E-02
    52 -5.108805333E-02
    53 -1.800475237E-01
    54 -1.241080038E-04
    55  3.771116904E-02
    56 -4.681246124E-02
    57 -1.648699818E-01
    58 -2.785892725E-04
    59 -1.305369381E-02
    60 -1.000709065E-02
    61  5.823368647E-03
    62 -1.444957959E-03
    63  4.985102313E-03
    64  9.568339774E-03
    65 -1.332865679E-02
    66 -4.119070878E-02
    67 -7.258011929E-03
    68 -1.141728727E-02
    69  3.942807625E-02
    70  2.577962618E-02
    71 -9.247491129E-03
    72  3.178751388E-02
    73  5.735693548E-02
    74  3.793371339E-02
    75 -1.251668288E-02
    76  4.359332348E-02
    77  5.194030199E-02
    78  2.905631765E-02
    79 -2.281036758E-02
    80 -2.496677974E-03
    81  1.715553992E-03
    82 -1.128254022E-03
    83 -3.036317904E-04
    84 -1.508808653E-04
    85  8.080621286E-02
    86  1.698881872E-02
    87 -1.197775697E-02
    88 -5.311443985E-02
    89 -1.121432390E-03
    90 -1.776333170E-03
    91 -1.802785177E-02
    92  2.061259860E-02
    93 -1.514935739E-02
    94  6.007795784E-03
    95 -2.695034064E-02
    96  3.064715914E-02
    97 -2.217169550E-02
    98 -1.061240666E-02
    99 -1.348965836E-02
   100  2.151245799E-02
   101 -1.096333400E-02
   102  1.547568930E-04
   103  2.891565239E-03
   104 -2.917095108E-05
   105  4.113141473E-03
   106 -4.270533997E-03
   107 -6.325607388E-02
   108 -1.476270518E-02
   109  1.021242012E-02
   110  2.432221049E-02
   111  3.927244650E-06
   112  6.199006118E-06
   113  8.008053042E-04
   114 -9.227303234E-04
   115 -3.179077807E-03
   116 -1.685120757E-05
   117  1.333446703E-03
   118 -1.554186188E-03
   119 -5.379400554E-03
   120 -5.333821311E-06
   121 -1.190110808E-03
   122  1.604816992E-03
   123  5.791796293E-03
   124  5.396039261E-03
   125  2.751354995E-03
   126 -7.323851569E-03
   127  1.540356713E-03
   128  2.857438138E-03
   129 -3.502153505E-03
   130 -5.340803324E-03
   131  4.062204829E-03
   132  2.188447805E-02
   133 -1.544437398E-06
   134 -2.300719386E-06
   135  4.364396786E-03
   136 -5.401612595E-03
   137 -1.911766439E-02
   138  2.649426471E-06
   139  6.773022022E-03
   140 -8.382041677E-03
   141 -2.966386205E-02
   142  8.669198836E-05
   143  4.858603211E-03
   144 -5.975384487E-03
   145 -2.115185940E-02
   146  1.340992342E-05
   147  1.155431138E-03
   148  9.089502134E-04
   149 -5.225518826E-04
   150  1.232811728E-04
   151  3.767364431E-03
   152  4.657965060E-03
   153 -4.100722493E-03
   154 -1.746357063E-02
   155  7.255709647E-03
   156  1.141360916E-02
   157 -3.504831476E-02
   158 -3.122054665E-02
   159 -1.006132610E-02
   160 -3.177728752E-02
   161 -5.141621196E-02
   162 -4.531479837E-02
   163 -1.370028796E-02
   164 -4.355637779E-02
   165 -4.126689882E-02
   166 -4.224489335E-02
   167 -2.393782855E-02
   168  2.535966822E-03
   169 -6.889651680E-04
   170  1.887728544E-03
   171 -1.601407256E-04
   172  2.768364767E-04
   173 -8.588966167E-02
   174  8.006057369E-03
   175 -1.977729285E-02
   176 -5.423632943E-02
   177  1.130942918E-03
   178  1.791439126E-03
   179  2.013309592E-02
   180 -2.332404414E-02
   181  6.008459423E-03
   182 -6.055485704E-03
   183  2.992581891E-02
   184 -3.447728818E-02
   185  9.263675422E-03
   186  1.068019182E-02
   187  1.419114922E-02
   188 -2.255858406E-02
   189  7.898359087E-03
   190  3.202865371E-04
   191 -1.869309182E-03
   192 -1.620515241E-05
   193 -4.336855686E-03
   194  4.604077214E-03
   195  6.034590104E-02
   196  3.100463599E-03
   197  5.097089733E-03
   198  2.912463995E-02
   199 -1.187506076E-06
   200 -1.808909252E-06
   201 -2.237986365E-02
   202  2.782421790E-02
   203  9.783335401E-02
   204  5.048667858E-06
   205 -3.194563909E-02
   206  3.972626013E-02
   207  1.396679492E-01
   208 -1.299465582E-05
   209 -2.419393114E-02
   210  3.003620887E-02
   211  1.057157644E-01
   212  1.075057901E-03
   213  1.039160721E-02
   214  6.442686944E-03
   215 -4.177660910E-03
   216  1.560130317E-03
   217 -2.309012764E-04
   218 -3.120889891E-03
   219  3.953286362E-03
   220  1.409456495E-02
   221  1.090391279E-03
   222  1.726865807E-03
   223 -1.422717510E-02
   224  2.323206094E-02
   225 -1.533411156E-02
   226 -5.864421429E-03
   227 -2.113866655E-02
   228  3.468640418E-02
   229 -2.243091900E-02
   230  1.079038910E-02
   231 -1.627572337E-02
   232  1.903833730E-02
   233 -1.130289635E-02
   234 -2.366067837E-05
   235  7.941719566E-04
   236  2.760949386E-03
   237  5.762554502E-03
   238  1.503781852E-03
   239  6.099900164E-02
   240 -6.270360530E-03
   241  1.606291793E-02
   242  2.355387017E-02
   243  3.970865226E-07
   244  7.529516162E-07
   245 -2.255562208E-02
   246  2.800583213E-02
   247  9.858913950E-02
   248 -5.447786831E-06
   249 -3.220046047E-02
   250  3.998094627E-02
   251  1.407466927E-01
   252  5.625328110E-05
   253 -2.438488244E-02
   254  3.023595568E-02
   255  1.065326295E-01
   256 -6.601932111E-04
   257  9.023449631E-03
   258  8.441245261E-03
   259 -4.465613314E-03
   260  5.800359083E-04
   261  5.244845734E-03
   262 -3.069285123E-03
   263  2.734359574E-03
   264  1.437793476E-02
   265 -2.036881669E-02
   266 -2.684963114E-02
   267 -1.108055795E-02
   268 -1.038448394E-03
   269 -5.540753117E-04
   270 -7.748055985E-04
   271 -1.726732846E-04
   272 -5.124619229E-03
   273 -8.659610258E-03
   274 -3.199368038E-03
   275  3.572240634E-04
   276 -3.820303245E-04
   277  5.314350463E-04
   278 -5.533310644E-03
   279 -9.561838508E-02
   280 -1.221518296E-01
   281 -4.936091940E-02
   282  5.127985917E-03
   283  4.967442978E-03
   284  2.398096925E-03
   285  9.883960555E-03
   286  9.562488284E-02
   287  1.221682855E-01
   288  4.916017310E-02
   289 -6.191295392E-03
   290 -3.644413769E-03
   291  2.259583236E-03
   292 -9.768479099E-03
   293 -2.388036279E-02
   294 -3.072767823E-02
   295 -5.302911980E-03
   296  2.349195738E-04
   297  1.061664062E-03
   298  1.908700935E-03
   299  1.506074561E-02
   300 -4.647071896E-03
   301 -8.045520078E-03
   302 -2.909155501E-03
   303 -4.062220800E-04
   304  6.087905110E-04
   305  4.203476530E-05
   306 -5.325027703E-03
   307 -2.060195533E-02
   308 -2.714555687E-02
   309 -1.119998766E-02
   310 -5.260325196E-04
   311 -1.218558858E-03
   312 -4.574310972E-04
   313 -1.847508325E-04
   314  2.803349078E-06
   315  1.333014266E-05
   316 -9.615823284E-05
   317  3.661339818E-04
   318 -4.543232933E-04
   319 -1.599815225E-03
   320  1.540205612E-04
   321 -1.514785981E-05
   322 -2.347876820E-05
   323 -3.783624834E-05
   324  3.679025439E-04
   325 -4.578919999E-04
   326 -1.606326482E-03
   327  2.440472486E-04
   328  2.387217588E-02
   329  3.069614138E-02
   330  5.389095093E-03
   331 -1.106336889E-03
   332  1.816238278E-05
   333  1.898179605E-03
   334 -1.546125127E-02
   335  4.626578719E-03
   336  8.025676635E-03
   337  3.066349207E-03
   338  2.828850359E-04
   339 -4.600189045E-04
   340  5.004154896E-04
   341  5.167401021E-03
   342  2.069374171E-02
   343  2.724215044E-02
   344  1.144118484E-02
   345  8.023650823E-04
   346  8.798338793E-04
   347 -7.497986884E-04
   348  1.145064878E-04
   349  7.506355430E-02
   350  1.031145172E-01
   351  4.872905715E-02
   352 -4.017692221E-03
   353 -5.031874958E-03
   354 -2.109985343E-03
   355  6.302763881E-04
   356 -7.509416165E-02
   357 -1.031669636E-01
   358 -4.851440109E-02
   359  5.070240198E-03
   360  3.721415371E-03
   361 -2.526947228E-03
   362 -5.656246566E-04
   363 -2.736370116E-05
   364 -3.255231837E-05
   365 -3.950396818E-05
   366 -1.346053346E-03
   367  1.668629761E-03
   368  5.882707211E-03
   369 -1.234817716E-04
   370  2.026653438E-02
   371  2.669746163E-02
   372  1.110282980E-02
   373  1.313966750E-03
   374  2.068137162E-04
   375 -4.543631668E-04
   376 -1.335037364E-06
   377  5.163799206E-03
   378  8.704820813E-03
   379  3.316976585E-03
   380 -4.918751260E-04
   381  5.511313945E-04
   382  7.695348096E-05
   383  5.314403965E-03
   384 -7.565586005E-02
   385 -1.039270627E-01
   386 -4.911475101E-02
   387  5.997274455E-03
   388  2.570468521E-03
   389 -2.003612628E-03
   390 -7.011298758E-04
   391  7.566932010E-02
   392  1.039573085E-01
   393  4.898282170E-02
   394 -4.931841689E-03
   395 -3.891150570E-03
   396 -2.670666832E-03
   397  8.194095607E-04
   398  2.183170865E-05
   399  3.079649373E-05
   400 -6.613307590E-05
   401 -1.353206880E-03
   402  1.684781470E-03
   403  5.931213683E-03
   404  1.158827456E-04
Ene=   -3.7114763653E-01
Spin= Alpha
Occup=   2.0000000
     1  1.794193999E-06
     2  3.060649933E-06
     3 -3.293806282E-03
     4  4.116483237E-03
     5  1.432860022E-02
     6 -1.599751121E-05
     7 -5.113119002E-03
     8  6.382716661E-03
     9  2.225325919E-02
    10  1.396500763E-04
    11 -1.391603118E-03
    12  1.817363800E-03
    13  5.863225905E-03
    14  4.118364316E-03
    15  1.069636086E-03
    16 -6.404007431E-03
    17  1.632997203E-03
    18  2.076005586E-03
    19  4.513747200E-03
    20  2.333603723E-02
    21 -2.696026039E-02
    22 -1.081749313E-01
    23 -4.052889597E-03
    24 -6.425840106E-03
    25  5.623143371E-02
    26  3.884802607E-02
    27  3.964984217E-02
    28  1.791559282E-02
    29  8.184459366E-02
    30  5.719741982E-02
    31  5.637357693E-02
    32  2.945064661E-02
    33  7.092545251E-02
    34  4.236599949E-02
    35  5.396163189E-02
    36  6.710714075E-03
    37  1.198086223E-04
    38  7.519180362E-03
    39 -1.664968601E-03
    40  3.100247357E-03
    41  2.902052505E-01
    42  8.254551319E-02
    43 -1.930837161E-02
    44 -1.391498751E-02
    45  7.192753842E-06
    46  1.126894367E-05
    47  1.592791769E-04
    48 -1.109009404E-04
    49 -4.955671266E-04
    50 -3.093793982E-05
    51  2.294243945E-04
    52 -1.603732926E-04
    53 -7.079234476E-04
    54 -1.169715164E-05
    55  1.963234772E-04
    56 -1.729233726E-04
    57 -6.771456119E-04
    58 -1.088883166E-03
    59 -9.521372081E-04
    60  1.165064121E-03
    61 -1.314688676E-04
    62 -6.182573241E-04
    63  7.006368157E-04
    64 -2.051798570E-04
    65 -3.349254492E-04
    66 -1.125865930E-03
    67 -3.232560434E-05
    68 -5.086305662E-05
    69  2.268909603E-02
    70 -2.973057608E-02
    71  1.354017519E-02
    72  1.436122209E-04
    73  3.313148907E-02
    74 -4.342042003E-02
    75  1.977730165E-02
    76  1.352067931E-04
    77  2.535619168E-02
    78 -3.313301107E-02
    79  1.500525336E-02
    80 -2.082627003E-03
    81 -2.259135460E-03
    82  1.857472193E-03
    83 -2.169084036E-03
    84 -6.249505831E-04
    85  6.311109852E-03
    86  1.016369988E-02
    87 -1.156735968E-02
    88  4.527290886E-03
    89  4.044811784E-03
    90  6.412466159E-03
    91 -3.797718369E-02
    92 -6.301248319E-02
    93 -2.862874862E-02
    94 -1.785603667E-02
    95 -5.635025296E-02
    96 -9.095397951E-02
    97 -4.098199135E-02
    98 -2.971545489E-02
    99 -4.071548274E-02
   100 -8.229589488E-02
   101 -3.560622541E-02
   102 -6.701219081E-03
   103 -4.777161477E-04
   104 -7.816398343E-03
   105  4.014310315E-04
   106 -2.760402297E-03
   107 -3.032150365E-01
   108 -1.880136847E-02
   109 -6.529875065E-02
   110  5.503754027E-02
   111 -4.723784819E-07
   112 -8.579152383E-07
   113  3.317445628E-03
   114 -4.104420250E-03
   115 -1.435749521E-02
   116  2.477208557E-06
   117  5.151335927E-03
   118 -6.370660072E-03
   119 -2.229512600E-02
   120  1.087494302E-05
   121  1.352706729E-03
   122 -1.742684263E-03
   123 -5.838373231E-03
   124  4.264751663E-03
   125  5.817817176E-03
   126 -2.842238864E-03
   127 -4.459270323E-04
   128  2.618636709E-03
   129  4.041083818E-03
   130 -2.609033391E-02
   131  3.163777471E-02
   132  1.099484146E-01
   133 -1.012074354E-05
   134 -1.613071229E-05
   135  3.762467957E-05
   136 -9.184077358E-08
   137 -7.223101038E-05
   138  5.050450203E-05
   139  5.764491053E-05
   140 -5.008105441E-06
   141 -1.080721804E-04
   142 -2.674479824E-05
   143  1.126606702E-05
   144  2.979932804E-05
   145 -1.294225509E-04
   146  3.168659541E-03
   147  2.612414905E-03
   148 -3.487429181E-03
   149  4.477333096E-04
   150  1.778686076E-03
   151  1.158273331E-03
   152  2.083345900E-04
   153  4.658517344E-04
   154 -3.150325183E-04
   155  2.381477709E-05
   156  3.734061735E-05
   157 -2.263366871E-02
   158  2.973399851E-02
   159 -1.361428899E-02
   160 -1.002374450E-04
   161 -3.305467989E-02
   162  4.341959293E-02
   163 -1.987695505E-02
   164 -2.128026769E-04
   165 -2.519523514E-02
   166  3.309659513E-02
   167 -1.520432595E-02
   168 -2.037599407E-03
   169 -1.126859670E-03
   170  2.687880185E-03
   171  1.586643080E-03
   172 -1.679990232E-03
   173 -1.004792894E-03
   174 -8.979568623E-03
   175  1.222092244E-02
   176 -6.046920608E-03
   177 -4.046233762E-03
   178 -6.415350108E-03
   179  5.324443671E-02
   180  4.408642629E-02
   181 -3.822586375E-02
   182  1.788222670E-02
   183  7.810861516E-02
   184  6.397602590E-02
   185 -5.429169576E-02
   186  2.945478990E-02
   187  6.078982893E-02
   188  5.746527772E-02
   189 -5.225430393E-02
   190  6.548691924E-03
   191 -7.402528549E-03
   192  1.750862617E-03
   193  3.130745976E-03
   194  1.892890031E-03
   195  2.985258737E-01
   196  3.039099548E-03
   197  8.498084472E-02
   198  1.650956358E-02
   199 -5.700155957E-07
   200 -1.193233226E-06
   201 -2.154088857E-02
   202  2.671246200E-02
   203  9.417191657E-02
   204  1.098546374E-05
   205 -3.068964981E-02
   206  3.805274540E-02
   207  1.341490006E-01
   208 -6.916974722E-05
   209 -2.345536410E-02
   210  2.914108498E-02
   211  1.027353259E-01
   212  1.173944992E-03
   213  1.086161054E-02
   214  6.636906318E-03
   215 -4.346275817E-03
   216  1.654475955E-03
   217  3.237828765E-05
   218 -2.291945733E-04
   219  3.344796135E-04
   220  1.222909759E-03
   221  4.052566885E-03
   222  6.425208685E-03
   223 -7.143491803E-02
   224 -1.989909278E-02
   225  2.713179149E-02
   226 -1.791366293E-02
   227 -1.035138160E-01
   228 -3.018729772E-02
   229  3.879457967E-02
   230 -2.940644548E-02
   231 -9.092669931E-02
   232 -1.753054745E-02
   233  3.393188148E-02
   234 -6.520778793E-03
   235  7.793896694E-03
   236 -1.484877240E-03
   237 -1.863360492E-03
   238 -2.216259853E-03
   239 -2.965766487E-01
   240 -6.684788505E-02
   241  6.600576890E-05
   242 -5.469316069E-02
   243 -8.668501956E-07
   244 -1.659176261E-06
   245  2.130402583E-02
   246 -2.653365246E-02
   247 -9.338029014E-02
   248  1.504558277E-05
   249  3.034871465E-02
   250 -3.779897003E-02
   251 -1.330200695E-01
   252 -1.521601618E-04
   253  2.323485908E-02
   254 -2.886640616E-02
   255 -1.018956538E-01
   256  7.309395203E-04
   257 -9.190840376E-03
   258 -8.709111477E-03
   259  4.582941952E-03
   260 -5.642322846E-04
   261 -5.111204226E-03
   262  3.366561322E-04
   263  7.044140469E-04
   264 -1.620245172E-03
   265 -4.220954434E-02
   266 -5.379424469E-02
   267 -2.944450876E-02
   268 -1.630269263E-03
   269  3.277045426E-03
   270  2.591161690E-04
   271  2.524359902E-02
   272  6.382925787E-02
   273  8.236047813E-02
   274  2.296876922E-02
   275  2.397852488E-04
   276 -2.705494910E-03
   277 -3.873949569E-03
   278 -6.745990236E-03
   279 -3.584267958E-04
   280 -4.513652107E-04
   281 -1.830446553E-04
   282  3.784299871E-04
   283 -4.536554225E-04
   284  2.233434404E-04
   285  6.362747374E-04
   286  3.994802774E-04
   287  5.171432123E-04
   288  1.093169648E-04
   289 -3.809441716E-04
   290  4.603102093E-04
   291 -2.046391274E-04
   292 -2.422202819E-04
   293 -1.268180851E-04
   294 -1.340835634E-04
   295 -1.610085918E-04
   296  1.393454198E-03
   297 -1.840095201E-03
   298  8.492077388E-04
   299  1.128000197E-04
   300 -6.382626980E-02
   301 -8.238425707E-02
   302 -2.296365002E-02
   303  7.065657176E-04
   304  1.451358139E-03
   305  4.446101342E-03
   306  6.226411479E-03
   307  4.200226711E-02
   308  5.351198697E-02
   309  2.960286560E-02
   310 -2.097742073E-03
   311  1.650392123E-03
   312 -2.514092424E-03
   313 -2.459405374E-02
   314 -4.284362997E-06
   315 -3.678641427E-06
   316 -1.592879311E-04
   317  2.094689200E-04
   318 -2.592428485E-04
   319 -9.135086305E-04
   320 -1.676456031E-04
   321 -9.003450910E-06
   322  1.533944567E-06
   323 -7.164889688E-05
   324 -2.060665454E-04
   325  2.575818462E-04
   326  9.012240786E-04
   327  4.334403039E-04
   328  6.019751793E-05
   329  8.416878695E-05
   330  1.150863774E-05
   331 -1.397162391E-03
   332  1.845836630E-03
   333 -8.360528094E-04
   334 -6.119934953E-05
   335  6.386097460E-02
   336  8.241909158E-02
   337  2.290244427E-02
   338 -2.603385464E-03
   339  9.046532776E-04
   340  3.847259169E-03
   341 -6.503552793E-03
   342 -4.205388221E-02
   343 -5.355578991E-02
   344 -2.965405739E-02
   345  2.731390012E-03
   346 -2.437328304E-03
   347 -2.520850485E-04
   348  2.467586386E-02
   349  7.329297451E-02
   350  1.014783966E-01
   351  4.836772448E-02
   352 -3.907152172E-03
   353 -4.196025502E-03
   354 -2.404431770E-03
   355  4.738380869E-03
   356 -7.336386371E-02
   357 -1.015737049E-01
   358 -4.847420183E-02
   359  4.995068503E-03
   360  2.835478148E-03
   361 -2.380382735E-03
   362 -4.745824371E-03
   363  3.342464237E-05
   364  4.149011360E-05
   365  4.402350630E-05
   366 -1.390458637E-03
   367  1.729512604E-03
   368  6.080009668E-03
   369  5.729119882E-06
   370  4.216426875E-02
   371  5.372040910E-02
   372  2.966109676E-02
   373  9.980928461E-04
   374 -2.491326958E-03
   375  2.496925738E-03
   376 -2.484346148E-02
   377 -6.378715160E-02
   378 -8.231771576E-02
   379 -2.279762387E-02
   380  1.655427316E-03
   381  3.508504582E-04
   382 -4.415144748E-03
   383  6.620773419E-03
   384  7.269034464E-02
   385  1.006459226E-01
   386  4.804450133E-02
   387 -5.076730359E-03
   388 -2.651514012E-03
   389  2.275838932E-03
   390  4.757623346E-03
   391 -7.275340785E-02
   392 -1.007220412E-01
   393 -4.814147917E-02
   394  3.990337888E-03
   395  3.993232579E-03
   396  2.471734508E-03
   397 -4.815035721E-03
   398  2.365638623E-05
   399  4.117869378E-05
   400 -6.081520296E-05
   401  1.380465402E-03
   402 -1.715211918E-03
   403 -6.031993934E-03
   404 -7.719755155E-05
Ene=   -3.6536651499E-01
Spin= Alpha
Occup=   2.0000000
     1  2.783112084E-03
     2  4.383936609E-03
     3 -1.629026996E-02
     4  2.295237255E-02
     5 -1.023725089E-02
     6 -1.222417533E-02
     7 -2.413009512E-02
     8  3.243568899E-02
     9 -1.472024077E-02
    10 -1.140280577E-02
    11 -1.616643743E-02
    12  4.199045325E-02
    13 -1.560818180E-02
    14 -6.371804356E-03
    15  9.398917415E-04
    16 -8.677998284E-04
    17  2.215678185E-03
    18  7.707273920E-03
    19 -2.505916645E-03
    20  5.063182529E-02
    21  4.498410771E-02
    22 -1.197637281E-03
    23  1.394974258E-03
    24  2.200861437E-03
    25 -5.928814107E-02
    26  6.211012432E-03
    27 -4.474552448E-02
    28 -6.584100404E-03
    29 -8.507651934E-02
    30  9.952386594E-03
    31 -6.493442895E-02
    32  6.512470113E-04
    33 -7.342472697E-02
    34 -1.625443667E-03
    35 -5.631046929E-02
    36 -2.764788208E-03
    37  2.670513819E-03
    38 -5.108113979E-03
    39  6.517362601E-03
    40 -4.843754678E-03
    41  4.885983172E-02
    42 -1.233375100E-02
    43 -5.095488053E-03
    44 -3.024635294E-02
    45 -7.495474373E-07
    46 -1.132680812E-06
    47  1.059657955E-02
    48 -1.404381878E-02
    49  6.314011560E-03
    50  3.980252469E-06
    51  1.607033936E-02
    52 -2.129863375E-02
    53  9.582006835E-03
    54 -7.083090141E-05
    55  8.591687950E-03
    56 -1.132296060E-02
    57  5.060290971E-03
    58 -4.121747173E-05
    59 -1.951640901E-03
    60 -1.401213900E-03
    61 -6.319980168E-03
    62  1.778660553E-03
    63  9.154379480E-03
    64  4.589999162E-02
    65 -6.320519201E-02
    66  2.840681938E-02
    67 -3.637069733E-06
    68 -5.659313340E-06
    69  1.300487870E-02
    70 -1.720731006E-02
    71  7.857975064E-03
    72  1.098139921E-05
    73  1.913394431E-02
    74 -2.532276941E-02
    75  1.156535015E-02
    76  1.032070532E-04
    77  1.526202529E-02
    78 -2.010477688E-02
    79  9.216760775E-03
    80 -7.414321476E-04
    81  4.411240141E-05
    82  1.313387937E-03
    83  2.070194644E-03
    84 -1.033803219E-03
    85 -3.631547042E-03
    86 -7.273012767E-03
    87  8.985864080E-03
    88 -4.285505062E-03
    89 -1.393586507E-03
    90 -2.198414914E-03
    91 -1.305363079E-03
    92  7.412238767E-02
    93  8.122926184E-03
    94  6.573551573E-03
    95 -3.041709470E-03
    96  1.068667996E-01
    97  1.167497092E-02
    98 -6.267800484E-04
    99  6.047719219E-03
   100  9.099977238E-02
   101  1.553921675E-02
   102  4.871362533E-03
   103  2.800700267E-03
   104  5.605067654E-03
   105  6.134808376E-03
   106  2.496088865E-03
   107 -4.950113773E-02
   108 -3.657466292E-03
   109  2.599952016E-02
   110  2.225976069E-02
   111 -2.780692423E-03
   112 -4.380021685E-03
   113 -1.760303840E-02
   114  2.196319406E-02
   115 -1.025066228E-02
   116  1.221455323E-02
   117 -2.457661173E-02
   118  3.210790643E-02
   119 -1.472074957E-02
   120  1.133113242E-02
   121 -3.594730753E-02
   122  2.708780208E-02
   123 -1.589642027E-02
   124  6.373113585E-03
   125 -8.904444046E-04
   126  9.048708730E-04
   127 -2.050127412E-03
   128 -7.754194876E-03
   129 -9.451322219E-03
   130 -6.180819647E-02
   131 -3.947526568E-02
   132 -2.942078486E-03
   133 -7.516563010E-07
   134 -8.792795956E-07
   135  4.472606618E-02
   136 -5.927118353E-02
   137  2.701538447E-02
   138 -7.493661636E-06
   139  6.509622609E-02
   140 -8.625913652E-02
   141  3.931862037E-02
   142  1.614243299E-04
   143  5.468797066E-02
   144 -7.242863619E-02
   145  3.298588690E-02
   146 -5.793051687E-05
   147 -2.707325179E-03
   148 -1.942464202E-03
   149 -8.802283818E-03
   150  2.478516490E-03
   151  4.458138907E-03
   152  2.664230401E-02
   153 -3.350011669E-02
   154  1.533847525E-02
   155  3.064019462E-06
   156  4.853029737E-06
   157  1.297755043E-02
   158 -1.722255001E-02
   159  7.860780176E-03
   160 -1.326417918E-05
   161  1.909495634E-02
   162 -2.534383989E-02
   163  1.156805447E-02
   164  4.971625017E-06
   165  1.522762845E-02
   166 -2.017493359E-02
   167  9.142477756E-03
   168  7.704891319E-04
   169  1.293614371E-03
   170 -3.515043763E-04
   171  2.280053844E-03
   172 -1.904050513E-04
   173 -9.351124703E-03
   174 -7.611544944E-03
   175  8.266862032E-03
   176 -5.308783727E-03
   177 -1.394790715E-03
   178 -2.200185149E-03
   179  1.058145471E-02
   180  5.932129648E-02
   181 -4.387628577E-02
   182  6.572257559E-03
   183  1.419142043E-02
   184  8.541312713E-02
   185 -6.369785052E-02
   186 -5.394025501E-04
   187  2.212898936E-02
   188  7.093167545E-02
   189 -5.505522816E-02
   190  2.728991928E-03
   191 -4.145665895E-03
   192  3.795606122E-03
   193  8.194103992E-03
   194  7.786285457E-04
   195 -4.728844238E-02
   196  8.020954592E-03
   197  1.090437374E-02
   198 -3.133223035E-02
   199  4.388203379E-04
   200  7.118548968E-04
   201 -1.064371416E-02
   202 -8.918749002E-02
   203  2.293746361E-02
   204 -3.054521835E-03
   205 -1.518423550E-02
   206 -1.270613567E-01
   207  3.267409079E-02
   208  1.768371348E-02
   209 -2.104572530E-02
   210 -9.852380151E-02
   211  2.322099026E-02
   212 -4.659757471E-03
   213  1.092977957E-03
   214 -6.019710181E-03
   215 -8.846162071E-03
   216 -2.887864559E-03
   217  2.356820687E-02
   218 -3.910897155E-03
   219 -1.766685935E-02
   220  4.113904695E-03
   221  1.392411117E-03
   222  2.196991023E-03
   223 -7.119866105E-02
   224  2.098404376E-02
   225  7.246319568E-03
   226 -6.581302201E-03
   227 -1.023387112E-01
   228  3.137108727E-02
   229  1.043322902E-02
   230  7.684339978E-04
   231 -8.961227503E-02
   232  1.838647187E-02
   233  1.435337491E-02
   234 -4.675756063E-03
   235  6.281487481E-03
   236  1.165186018E-03
   237  3.887153108E-03
   238 -5.395015185E-03
   239  5.149296017E-02
   240 -2.417778295E-02
   241  9.036238279E-03
   242  2.137359255E-02
   243 -4.391060997E-04
   244 -7.117068058E-04
   245  8.840887624E-02
   246 -1.387227336E-02
   247  2.419156518E-02
   248  3.038322459E-03
   249  1.259634549E-01
   250 -1.973751849E-02
   251  3.445963422E-02
   252 -1.748871778E-02
   253  1.001230497E-01
   254 -6.457044483E-03
   255  2.477317030E-02
   256  4.563192372E-03
   257 -5.645014296E-03
   258  2.753321250E-03
   259 -5.972147123E-03
   260  7.060696241E-03
   261 -1.520827496E-02
   262  1.812726271E-02
   263 -3.136233265E-03
   264  5.071767484E-03
   265  6.030819248E-02
   266  7.991301181E-02
   267  3.272660050E-02
   268  3.729744641E-03
   269 -1.707052974E-03
   270 -4.748804340E-04
   271 -7.932807372E-03
   272 -4.348612962E-02
   273 -5.568888526E-02
   274 -2.474815499E-02
   275 -1.439192356E-03
   276  3.251185448E-03
   277  1.910510387E-03
   278  7.378273827E-03
   279 -6.193503420E-05
   280 -7.573620789E-05
   281 -1.633336242E-04
   282  2.079623498E-04
   283 -2.679631324E-04
   284  1.256262201E-04
   285 -2.372471112E-05
   286  6.175180224E-05
   287  8.393804568E-05
   288 -8.128336559E-05
   289  2.007912604E-04
   290 -2.739122716E-04
   291  1.258617998E-04
   292 -1.774768124E-04
   293  6.992525122E-07
   294 -2.458954305E-05
   295  1.615000604E-04
   296  6.574631602E-04
   297 -8.724910551E-04
   298  3.990997767E-04
   299  2.866088018E-04
   300  4.350282274E-02
   301  5.572768426E-02
   302  2.477090164E-02
   303 -1.505726968E-03
   304  6.488522401E-04
   305 -3.691523197E-03
   306 -8.045729577E-03
   307 -6.034056176E-02
   308 -7.998336027E-02
   309 -3.266709609E-02
   310 -7.489520850E-05
   311 -3.139746193E-03
   312  2.685478927E-03
   313  7.641658572E-03
   314 -5.598046107E-02
   315 -7.300423026E-02
   316 -2.978813290E-02
   317 -3.890471111E-03
   318 -5.195021109E-04
   319 -7.416466777E-04
   320  1.301371341E-02
   321  5.597737329E-02
   322  7.300649970E-02
   323  2.965591458E-02
   324  1.553131411E-03
   325  3.617398192E-03
   326 -6.724482752E-04
   327 -1.287852714E-02
   328 -3.685569989E-07
   329 -3.272529060E-05
   330  2.256513215E-04
   331  6.561840287E-04
   332 -8.739726788E-04
   333  3.973681424E-04
   334 -1.555658374E-04
   335  4.348961730E-02
   336  5.570419949E-02
   337  2.480675065E-02
   338 -2.779141419E-03
   339  2.234021435E-03
   340  1.892926784E-03
   341 -7.875042003E-03
   342 -6.030761019E-02
   343 -7.993397958E-02
   344 -3.266047150E-02
   345  6.540442489E-04
   346 -4.046045183E-03
   347 -5.130823672E-04
   348  7.555009006E-03
   349 -3.224687607E-02
   350 -4.487605431E-02
   351 -1.815074306E-02
   352  2.971130660E-04
   353 -2.859826544E-03
   354  5.042390830E-03
   355  1.148804831E-04
   356 -3.228499591E-02
   357 -4.492221293E-02
   358 -1.818955620E-02
   359  1.975622787E-03
   360 -4.944692525E-03
   361 -2.308535450E-03
   362  1.463872157E-04
   363  8.172877106E-02
   364  1.116016037E-01
   365  5.370138992E-02
   366  1.403985887E-04
   367  5.852955889E-03
   368 -1.628685624E-03
   369 -4.341617819E-03
   370  6.034184647E-02
   371  7.996493121E-02
   372  3.267999348E-02
   373  3.000220063E-03
   374 -8.003951965E-04
   375  2.724344682E-03
   376 -8.065256871E-03
   377 -4.350852762E-02
   378 -5.572620222E-02
   379 -2.472480490E-02
   380 -1.626762646E-04
   381  1.667611483E-03
   382 -3.674593882E-03
   383  7.600218646E-03
   384  3.223982352E-02
   385  4.485499957E-02
   386  1.829284919E-02
   387  2.597730710E-03
   388 -1.111256717E-03
   389  5.070462378E-03
   390  2.390322953E-04
   391  3.229933611E-02
   392  4.493600022E-02
   393  1.833161833E-02
   394  4.273010250E-03
   395 -3.198322316E-03
   396 -2.279709907E-03
   397  1.444251242E-04
   398 -8.172907570E-02
   399 -1.115998902E-01
   400 -5.378905728E-02
   401 -5.651324621E-03
   402  1.451370385E-03
   403 -1.700665710E-03
   404  4.489807901E-03
Ene=   -3.2769593563E-01
Spin= Alpha
Occup=   2.0000000
     1  7.867289087E-07
     2  1.090647365E-06
     3  1.011422185E-02
     4 -1.363614174E-02
     5 -4.821306579E-02
     6 -8.136181338E-07
     7  1.472034397E-02
     8 -1.986328010E-02
     9 -7.023068005E-02
    10 -1.172316298E-05
    11  1.120475016E-02
    12 -1.506251670E-02
    13 -5.333680313E-02
    14 -6.075067469E-03
    15 -4.183827140E-04
    16  1.049961275E-02
    17 -3.024321109E-03
    18 -2.794150831E-03
    19  3.345153980E-03
    20  5.961490467E-03
    21 -9.702082717E-03
    22 -3.416734844E-02
    23  1.001090355E-02
    24  1.591382529E-02
    25 -6.446700987E-02
    26  8.591085540E-02
    27  3.878266942E-03
    28 -4.679046877E-02
    29 -9.285104723E-02
    30  1.255838539E-01
    31  5.916091880E-03
    32 -4.996113022E-02
    33 -8.056402197E-02
    34  1.062512566E-01
    35  5.158403020E-03
    36  9.772535041E-04
    37  8.111030523E-03
    38  3.892208442E-03
    39  8.179755430E-03
    40 -8.109567802E-03
    41  1.386453793E-01
    42  8.068325663E-03
    43 -3.389596173E-02
    44 -1.709561890E-02
    45  1.562377390E-04
    46  2.480963207E-04
    47  1.058825325E-03
    48  8.022967222E-04
    49 -1.145922303E-05
    50 -7.184384151E-04
    51  1.540735311E-03
    52  1.165922837E-03
    53 -1.507611292E-05
    54 -8.081901676E-04
    55  1.285927862E-03
    56  1.018917127E-03
    57 -3.435102548E-05
    58  3.414189165E-03
    59  2.677122633E-03
    60 -3.593257346E-03
    61  4.977377417E-04
    62  1.948213112E-03
    63 -3.080751537E-04
    64 -7.085444882E-04
    65  8.365003161E-04
    66 -8.260518539E-04
    67 -7.761938945E-07
    68 -1.457119369E-06
    69  6.004947904E-02
    70 -7.830460783E-02
    71  3.645668367E-02
    72  1.239541613E-05
    73  8.846694687E-02
    74 -1.153685037E-01
    75  5.371097722E-02
    76 -1.244846836E-04
    77  5.950019564E-02
    78 -7.765941150E-02
    79  3.609021061E-02
    80 -2.918563901E-03
    81  1.878392661E-03
    82  6.137379392E-03
    83  1.347397133E-02
    84 -5.480202615E-03
    85 -4.201241729E-04
    86  2.741706165E-02
    87 -3.635656999E-02
    88  1.610838005E-02
    89 -1.015874174E-02
    90 -1.614898378E-02
    91 -4.865780555E-02
    92  6.392395027E-02
    93 -7.323840235E-02
    94  4.747922855E-02
    95 -7.151728468E-02
    96  9.213265178E-02
    97 -1.067000643E-01
    98  5.074887152E-02
    99 -5.993308183E-02
   100  7.969309708E-02
   101 -9.117294581E-02
   102 -8.509735312E-04
   103 -1.270288163E-03
   104  1.138521276E-03
   105  1.453176284E-02
   106  1.549205635E-03
   107 -1.455582280E-01
   108  1.738114973E-02
   109 -1.857426530E-03
   110  3.528790322E-02
   111  8.274521707E-07
   112  1.485990023E-06
   113 -1.120295061E-02
   114  1.280257121E-02
   115  4.822307388E-02
   116 -1.191115652E-05
   117 -1.632180610E-02
   118  1.863885052E-02
   119  7.024830341E-02
   120  9.934052963E-05
   121 -1.236745939E-02
   122  1.416402752E-02
   123  5.334624660E-02
   124 -6.281218904E-03
   125 -9.864128629E-03
   126  3.259350358E-03
   127  1.353249525E-03
   128 -3.884528577E-03
   129  6.557562348E-03
   130 -7.533995024E-03
   131  9.588447738E-03
   132  3.609141518E-02
   133  1.357355832E-04
   134  2.158793607E-04
   135 -1.075502194E-03
   136 -8.114109546E-04
   137  9.749611127E-06
   138 -6.362252892E-04
   139 -1.571272253E-03
   140 -1.181507192E-03
   141  1.562154392E-05
   142 -7.350129377E-04
   143 -1.284582560E-03
   144 -9.928785513E-04
   145  9.513511401E-06
   146  6.351029318E-03
   147  5.408190415E-03
   148 -7.232038536E-03
   149  9.028695330E-04
   150  3.597149467E-03
   151 -3.369402072E-04
   152  2.311162769E-04
   153 -1.767292376E-05
   154  2.634947066E-04
   155 -1.423160091E-06
   156 -2.408908317E-06
   157 -5.879182707E-02
   158  7.925685546E-02
   159 -3.646026448E-02
   160  1.253077617E-05
   161 -8.661960223E-02
   162  1.167645188E-01
   163 -5.371721354E-02
   164 -9.258193213E-05
   165 -5.832852308E-02
   166  7.855949768E-02
   167 -3.610798931E-02
   168 -3.097867824E-03
   169 -6.528850743E-03
   170  1.043654651E-04
   171 -1.427177207E-02
   172  2.321518777E-03
   173 -2.827357121E-03
   174 -2.873679225E-02
   175  3.674434714E-02
   176 -1.675123621E-02
   177  1.001183055E-02
   178  1.591520639E-02
   179  6.558025220E-02
   180 -8.507248714E-02
   181 -3.855580836E-03
   182 -4.678828228E-02
   183  9.623678766E-02
   184 -1.230152820E-01
   185 -5.861664437E-03
   186 -5.002459249E-02
   187  8.088660693E-02
   188 -1.060449975E-01
   189 -5.161171591E-03
   190  6.683826265E-04
   191 -6.149429740E-03
   192 -6.701593054E-03
   193 -1.117575764E-02
   194 -2.554745287E-03
   195  1.448554064E-01
   196 -3.159807520E-02
   197  1.708726570E-02
   198  1.720663103E-02
   199 -5.335922596E-06
   200 -8.760910643E-06
   201 -3.615019530E-04
   202  6.422924206E-04
   203  1.587720639E-03
   204  3.366213467E-05
   205 -1.031857919E-03
   206  1.513655596E-03
   207  4.476015112E-03
   208 -9.228033447E-05
   209  1.004028195E-03
   210 -8.349440079E-04
   211 -3.935922830E-03
   212 -1.716121158E-03
   213 -1.104837242E-03
   214  2.167487407E-03
   215 -3.432158686E-04
   216 -8.800060403E-04
   217 -6.241366459E-04
   218  3.727459640E-03
   219 -4.490219825E-03
   220 -1.644109056E-02
   221 -1.015905791E-02
   222 -1.614925516E-02
   223  4.738768142E-02
   224 -6.488788196E-02
   225  7.322677537E-02
   226  4.747410206E-02
   227  6.791103438E-02
   228 -9.487453384E-02
   229  1.066612536E-01
   230  5.080907448E-02
   231  5.928810349E-02
   232 -8.014058643E-02
   233  9.118924877E-02
   234 -8.380323173E-04
   235 -8.110085242E-04
   236  1.827597736E-03
   237 -1.162279097E-02
   238  8.796889911E-03
   239 -1.432263152E-01
   240  3.962888351E-03
   241  1.860286175E-02
   242 -3.450904937E-02
   243 -4.200702883E-06
   244 -6.781959485E-06
   245  5.445827472E-04
   246 -4.948445753E-04
   247 -1.599773793E-03
   248  2.188240752E-05
   249  1.253784927E-03
   250 -1.336124439E-03
   251 -4.494577928E-03
   252 -1.366568830E-05
   253 -6.281722406E-04
   254  1.102364448E-03
   255  3.940604755E-03
   256 -1.730102257E-03
   257 -1.760695684E-03
   258  1.663862153E-03
   259 -1.094589388E-04
   260 -9.365352971E-04
   261 -6.948526268E-04
   262 -3.721479043E-03
   263  4.799326578E-03
   264  1.624540840E-02
   265  6.830613691E-02
   266  1.001647604E-01
   267  5.141987359E-02
   268  4.293546265E-03
   269  2.875186090E-03
   270  2.856227795E-03
   271  1.350012323E-02
   272  2.218608808E-02
   273  3.485190535E-02
   274  1.364338367E-02
   275 -4.670371425E-03
   276  3.148282910E-03
   277 -2.091252050E-03
   278  2.493176398E-02
   279  5.687612369E-04
   280  8.589597219E-04
   281  4.815124429E-04
   282  2.055998394E-04
   283 -2.122169538E-04
   284  3.812378736E-05
   285  4.570601609E-04
   286  6.079825262E-04
   287  9.104097141E-04
   288  5.173931856E-04
   289 -1.506762899E-04
   290  2.545551830E-04
   291 -3.675646685E-05
   292  2.199427011E-04
   293 -4.592604403E-05
   294 -5.142843871E-05
   295  2.422670758E-05
   296  3.281788374E-03
   297 -4.283344524E-03
   298  1.995333183E-03
   299 -1.148128111E-04
   300 -2.280884532E-02
   301 -3.579560825E-02
   302 -1.405472559E-02
   303 -1.801332012E-03
   304  5.505344375E-03
   305 -1.828900446E-03
   306 -2.525730588E-02
   307 -6.887927283E-02
   308 -1.010417126E-01
   309 -5.167495676E-02
   310 -2.902709837E-03
   311 -4.799181328E-03
   312 -2.051587545E-03
   313 -1.332069073E-02
   314  6.162049668E-04
   315  9.277427586E-04
   316  5.684677810E-04
   317 -1.345623915E-05
   318 -3.822292842E-05
   319  1.325114064E-04
   320  3.023598480E-04
   321  6.215940600E-04
   322  9.334048908E-04
   323  5.282412332E-04
   324 -3.905710573E-05
   325 -2.796671061E-07
   326 -1.310485747E-04
   327  1.789781870E-04
   328 -4.370374707E-05
   329 -5.816954226E-05
   330  3.676388576E-05
   331 -3.216922405E-03
   332  4.331941334E-03
   333 -1.996445549E-03
   334 -8.579708522E-05
   335  2.216933249E-02
   336  3.484785815E-02
   337  1.353169325E-02
   338  1.750621397E-03
   339 -5.367930278E-03
   340  2.054866956E-03
   341  2.503265976E-02
   342  6.832156291E-02
   343  1.002046633E-01
   344  5.129233643E-02
   345  3.962239478E-03
   346  3.403382580E-03
   347 -2.753484932E-03
   348  1.328052675E-02
   349  6.315018020E-04
   350  3.860017310E-04
   351  4.207725458E-03
   352  3.461157564E-04
   353  1.970563440E-04
   354  3.626764135E-05
   355  1.220886421E-02
   356 -4.629722763E-04
   357 -1.242192288E-04
   358 -4.370480260E-03
   359 -3.639998761E-04
   360 -1.564088166E-04
   361 -2.652351205E-06
   362 -1.220952427E-02
   363 -2.032590590E-04
   364 -3.005788738E-04
   365 -3.092621155E-04
   366  2.057631303E-04
   367 -2.590513815E-04
   368 -8.637827762E-04
   369  2.105907577E-04
   370 -6.886296502E-02
   371 -1.010157136E-01
   372 -5.171886159E-02
   373 -5.432257736E-03
   374 -1.540218424E-03
   375  1.946906157E-03
   376 -1.341006254E-02
   377 -2.282564014E-02
   378 -3.582845984E-02
   379 -1.406495467E-02
   380  4.794033888E-03
   381 -3.230925419E-03
   382  1.864429086E-03
   383 -2.526199222E-02
   384  6.423563998E-04
   385  3.874054338E-04
   386  4.430737212E-03
   387  2.830444352E-04
   388  2.806307068E-04
   389 -2.822218677E-05
   390  1.223209664E-02
   391 -4.735465358E-04
   392 -1.426047074E-04
   393 -4.294681591E-03
   394 -2.476599254E-04
   395 -3.077667220E-04
   396 -5.440439063E-06
   397 -1.227096580E-02
   398 -1.960191440E-04
   399 -2.905612253E-04
   400 -2.845102481E-04
   401 -2.079431870E-04
   402  2.572873963E-04
   403  8.626221058E-04
   404 -3.663353499E-05
Ene=   -3.2631975626E-01
Spin= Alpha
Occup=   2.0000000
     1 -1.172090091E-04
     2 -1.921523988E-04
     3 -7.797352932E-02
     4 -1.702484404E-05
     5 -1.723575875E-02
     6  7.900484551E-04
     7 -1.146698973E-01
     8 -2.156338249E-04
     9 -2.530303756E-02
    10 -2.006434210E-05
    11 -8.578584162E-02
    12  2.827710857E-03
    13 -1.976662160E-02
    14  1.221205261E-03
    15 -5.723808326E-03
    16  3.199214892E-03
    17 -3.663760051E-03
    18  1.383497531E-02
    19  7.087415398E-02
    20  4.172697080E-02
    21  2.704779549E-02
    22 -3.477941969E-04
    23 -6.931189163E-03
    24 -1.101763945E-02
    25  3.012786037E-02
    26 -4.836641351E-02
    27 -2.635141784E-02
    28  3.221205619E-02
    29  4.407862062E-02
    30 -7.018651746E-02
    31 -3.826646712E-02
    32  3.716413256E-02
    33  3.873595901E-02
    34 -6.211317161E-02
    35 -2.997545938E-02
    36  5.364840848E-03
    37 -2.790866028E-03
    38 -7.993317145E-03
    39 -4.187799754E-03
    40 -2.752627648E-03
    41  4.226334531E-02
    42  3.997195941E-03
    43 -1.625510942E-03
    44 -1.359131904E-02
    45  1.435236883E-02
    46  2.282754155E-02
    47  9.604036806E-02
    48  7.306801087E-02
    49  1.183843189E-03
    50 -6.714093292E-02
    51  1.397301025E-01
    52  1.063005319E-01
    53  1.721736730E-03
    54 -6.232577327E-02
    55  1.171438889E-01
    56  8.925044573E-02
    57  1.415098632E-03
    58  7.590886306E-03
    59 -5.466094487E-03
    60  7.107507442E-03
    61  2.235510768E-03
    62  7.698388522E-03
    63 -2.486865155E-01
    64  2.746613442E-02
    65  2.237612147E-02
    66  8.090406055E-04
    67 -1.287809014E-05
    68 -1.719531618E-05
    69  4.801923814E-02
    70  5.797369402E-02
    71  4.421690307E-02
    72  6.976760815E-05
    73  7.036810563E-02
    74  8.518620257E-02
    75  6.527845847E-02
    76 -1.669090785E-03
    77  4.657807797E-02
    78  5.392832811E-02
    79  3.785345202E-02
    80 -1.166242781E-02
    81 -4.410933729E-04
    82 -9.301268627E-03
    83  2.815307411E-03
    84  2.621456183E-03
    85 -3.402010802E-03
    86  1.347061061E-02
    87  1.362588935E-02
    88  7.824531510E-03
    89 -6.716965780E-03
    90 -1.067825730E-02
    91 -1.890278219E-02
    92  1.673792361E-02
    93 -5.513305276E-02
    94  3.124665128E-02
    95 -2.725995823E-02
    96  2.459439661E-02
    97 -8.015347335E-02
    98  3.564845316E-02
    99 -2.590081332E-02
   100  2.355586378E-02
   101 -6.774642046E-02
   102 -5.883540501E-04
   103 -4.721875748E-03
   104  8.098664980E-04
   105  4.459376449E-03
   106 -8.934155838E-03
   107  3.122194872E-02
   108  5.428246083E-03
   109 -5.325369623E-03
   110 -1.051676639E-02
   111 -1.163216237E-04
   112 -1.904226251E-04
   113 -2.116249728E-02
   114 -7.539431142E-02
   115  1.599608451E-02
   116  7.682126601E-04
   117 -3.129162962E-02
   118 -1.108362340E-01
   119  2.348114037E-02
   120  9.983516845E-05
   121 -2.076446766E-02
   122 -8.366645106E-02
   123  1.838986745E-02
   124  1.327815915E-03
   125 -1.307496460E-03
   126  6.384649795E-03
   127  1.037434631E-02
   128  9.886701145E-03
   129  8.609068468E-02
   130  2.829711662E-02
   131  3.560749909E-02
   132 -5.224623841E-03
   133  1.280623515E-02
   134  2.035177993E-02
   135 -1.001242696E-01
   136 -7.615708155E-02
   137 -1.236471318E-03
   138 -5.920422799E-02
   139 -1.457739838E-01
   140 -1.108775390E-01
   141 -1.801553700E-03
   142 -7.950475541E-02
   143 -1.264355535E-01
   144 -9.613625194E-02
   145 -1.586450394E-03
   146 -1.243279902E-02
   147  6.362995477E-03
   148 -8.069147192E-03
   149 -1.000898337E-03
   150 -3.199688511E-03
   151  2.706260120E-02
   152  2.875801875E-04
   153 -8.900129706E-05
   154 -4.174831192E-04
   155 -1.229377507E-05
   156 -1.646487923E-05
   157  6.938148099E-02
   158  3.133286484E-02
   159 -4.277514683E-02
   160  7.322125533E-05
   161  1.019063334E-01
   162  4.585365149E-02
   163 -6.315856516E-02
   164 -1.727815474E-03
   165  6.498754148E-02
   166  3.090151469E-02
   167 -3.648971573E-02
   168 -1.144294663E-02
   169  9.431173200E-03
   170 -1.748397112E-03
   171 -1.236803411E-03
   172  3.616449798E-03
   173 -5.172481625E-03
   174  1.745326993E-02
   175  9.418940629E-03
   176 -7.478380903E-03
   177 -6.932987504E-03
   178 -1.102159350E-02
   179 -3.893109528E-02
   180  4.167069801E-02
   181  2.625851174E-02
   182  3.225192009E-02
   183 -5.638841680E-02
   184  6.081419395E-02
   185  3.814218263E-02
   186  3.680850469E-02
   187 -4.997621718E-02
   188  5.353774293E-02
   189  2.968990913E-02
   190  5.610862646E-03
   191  8.273877512E-03
   192  3.356734151E-04
   193  2.044360702E-03
   194 -4.626334188E-03
   195  2.859711945E-02
   196 -4.820658843E-04
   197  1.379759321E-03
   198  1.192931854E-02
   199 -5.866100837E-04
   200 -9.329698859E-04
   201  6.733001731E-04
   202  1.624971063E-02
   203 -4.500158116E-03
   204  2.734110524E-03
   205 -2.698559394E-05
   206  2.043693771E-02
   207 -5.891787809E-03
   208  1.324380187E-03
   209  4.651748316E-03
   210  2.680580764E-02
   211 -6.525214145E-03
   212 -1.987033364E-04
   213 -4.099991084E-04
   214  2.162950586E-03
   215  3.887011225E-03
   216  4.336742379E-03
   217 -3.263061085E-02
   218  1.048610014E-02
   219  6.722936901E-03
   220  6.235187929E-04
   221 -6.714242992E-03
   222 -1.067268109E-02
   223  1.014569265E-02
   224 -2.340562944E-02
   225  5.502478175E-02
   226  3.119347065E-02
   227  1.505596727E-02
   228 -3.388744439E-02
   229  8.000310983E-02
   230  3.614365040E-02
   231  1.468911068E-02
   232 -3.211902092E-02
   233  6.778566062E-02
   234 -4.826169986E-04
   235  3.080697810E-04
   236  4.790748806E-03
   237 -8.374136383E-03
   238 -5.439588376E-03
   239  3.547414641E-02
   240 -2.916661365E-03
   241  4.840888381E-03
   242  1.151958688E-02
   243 -5.876472723E-04
   244 -9.341891972E-04
   245  1.571741751E-02
   246 -3.765432333E-03
   247  4.699731553E-03
   248  2.732508244E-03
   249  1.952376462E-02
   250 -5.579101867E-03
   251  6.131623410E-03
   252  1.353257198E-03
   253  2.690710030E-02
   254 -2.804039498E-03
   255  6.897288818E-03
   256 -2.356604716E-04
   257 -1.909863932E-03
   258  1.080087019E-03
   259 -1.051090656E-03
   260  5.719344279E-03
   261 -4.196808727E-02
   262  9.113575898E-03
   263  1.026195313E-02
   264 -9.750030167E-04
   265 -2.534408655E-02
   266 -3.832602032E-02
   267 -2.067914979E-02
   268 -1.320456595E-03
   269 -2.140096783E-03
   270 -2.490074910E-03
   271 -9.895292974E-03
   272 -3.097837397E-02
   273 -4.626968164E-02
   274 -2.722539656E-02
   275  2.979025160E-03
   276 -4.846617522E-04
   277  1.591219779E-03
   278 -5.356982283E-03
   279  5.332641763E-02
   280  7.947246357E-02
   281  4.936181011E-02
   282  3.850643039E-03
   283  4.074688922E-04
   284 -5.491314216E-03
   285  2.021345399E-02
   286  5.333354458E-02
   287  7.948175225E-02
   288  4.940401464E-02
   289  1.332201753E-03
   290  3.536783561E-03
   291  5.555305525E-03
   292  2.080835754E-02
   293 -4.226281357E-03
   294 -5.494979978E-03
   295 -2.913125902E-03
   296  2.335263490E-03
   297  3.072485273E-03
   298  2.680455439E-03
   299  5.394080335E-03
   300 -3.047854855E-02
   301 -4.552209824E-02
   302 -2.664235761E-02
   303  8.718174380E-05
   304  3.287521117E-03
   305 -1.475936487E-04
   306 -4.797571151E-03
   307 -2.387138804E-02
   308 -3.615637029E-02
   309 -1.951108191E-02
   310 -1.260247463E-03
   311 -2.026030352E-03
   312 -2.450965145E-03
   313 -1.035962501E-02
   314  5.760668209E-02
   315  8.749479757E-02
   316  4.552716562E-02
   317  1.141855659E-03
   318 -6.506427975E-03
   319  2.106046513E-03
   320  1.430084168E-02
   321  5.765918813E-02
   322  8.759197082E-02
   323  4.550666326E-02
   324 -5.929253494E-03
   325  2.870646268E-03
   326 -2.166112185E-03
   327  1.444858643E-02
   328 -4.214548728E-03
   329 -5.488135481E-03
   330 -2.779216282E-03
   331  3.625934168E-03
   332  1.465157831E-03
   333 -2.607372656E-03
   334  5.173062647E-03
   335 -3.096545971E-02
   336 -4.627897713E-02
   337 -2.704865849E-02
   338  3.562698978E-04
   339  3.019819910E-03
   340 -1.545752286E-03
   341 -5.337856048E-03
   342 -2.535435223E-02
   343 -3.833899204E-02
   344 -2.060981078E-02
   345 -2.452190082E-03
   346 -7.273630058E-04
   347  2.442807909E-03
   348 -1.009307796E-02
   349  7.489121494E-03
   350  1.115286821E-02
   351  3.142773191E-03
   352 -1.567084961E-04
   353  1.029659908E-03
   354 -1.389513969E-03
   355 -7.694588335E-03
   356  7.522982683E-03
   357  1.120391430E-02
   358  3.142057344E-03
   359 -5.777223612E-04
   360  1.564541589E-03
   361  4.871181004E-04
   362 -7.589125631E-03
   363 -1.825018041E-02
   364 -2.768474636E-02
   365 -1.275309959E-02
   366  5.539874247E-04
   367 -1.167297047E-03
   368  4.676010742E-04
   369  1.046728737E-02
   370 -2.384123768E-02
   371 -3.614364687E-02
   372 -1.922622650E-02
   373 -2.330772273E-03
   374 -7.038179393E-04
   375  2.406543653E-03
   376 -9.692609887E-03
   377 -3.052019865E-02
   378 -4.556959334E-02
   379 -2.674130927E-02
   380  3.189731346E-03
   381 -8.001626424E-04
   382  1.835323604E-04
   383 -5.089413186E-03
   384  7.459799012E-03
   385  1.112927572E-02
   386  3.067066262E-03
   387  9.271269412E-04
   388 -4.438771391E-04
   389  1.398225805E-03
   390 -7.934188623E-03
   391  7.498759131E-03
   392  1.116075535E-02
   393  3.341209834E-03
   394  1.358968449E-03
   395 -9.698743788E-04
   396 -4.745864984E-04
   397 -7.522768421E-03
   398 -1.820629499E-02
   399 -2.759832406E-02
   400 -1.273480161E-02
   401 -9.666406864E-04
   402  8.478044188E-04
   403 -4.707773734E-04
   404  1.016896799E-02
Ene=   -3.2166051610E-01
Spin= Alpha
Occup=   2.0000000
     1  1.420079380E-06
     2  1.996657811E-06
     3  9.838631424E-03
     4 -1.233101028E-02
     5 -4.341894319E-02
     6  3.311993145E-06
     7  1.461942046E-02
     8 -1.831816507E-02
     9 -6.450658094E-02
    10 -1.545398252E-04
    11  1.175919729E-02
    12 -1.477036361E-02
    13 -5.198514602E-02
    14  1.725073924E-03
    15  7.601651619E-03
    16  3.100380277E-03
    17 -2.590521153E-03
    18  1.584436543E-03
    19 -6.141991079E-03
    20 -5.738350113E-03
    21  5.628856252E-03
    22  2.067213072E-02
    23  6.224600828E-04
    24  9.814184297E-04
    25 -5.888475651E-02
    26 -5.085498308E-02
    27 -1.251937546E-03
    28 -2.376092379E-03
    29 -8.438077093E-02
    30 -7.466081173E-02
    31  3.112388731E-05
    32 -3.455259295E-03
    33 -7.420039625E-02
    34 -5.826552929E-02
    35 -1.073661515E-02
    36 -2.871949987E-03
    37  2.440931592E-03
    38 -9.146146838E-03
    39  1.932233493E-03
    40 -7.788383501E-03
    41 -1.367156841E-01
    42 -2.637586977E-02
    43  1.561570829E-02
    44  5.385441573E-03
    45  1.184648030E-06
    46  1.940209020E-06
    47 -1.794158721E-02
    48  2.230788917E-02
    49  7.883559935E-02
    50 -4.474965166E-06
    51 -2.534318812E-02
    52  3.150834220E-02
    53  1.113703000E-01
    54 -5.639918343E-05
    55 -2.553980433E-02
    56  3.179087994E-02
    57  1.119827313E-01
    58  3.025728432E-04
    59  1.372643028E-02
    60  1.050846131E-02
    61 -6.116551565E-03
    62  1.520783555E-03
    63  8.323361552E-03
    64 -9.279396892E-03
    65  8.969655721E-03
    66  3.524158240E-02
    67 -9.416713816E-04
    68 -1.490246638E-03
    69  4.781733588E-02
    70  6.089276270E-02
    71  5.456282561E-02
    72  4.238661769E-03
    73  7.140844204E-02
    74  9.059530912E-02
    75  8.074399635E-02
    76  6.476008466E-03
    77  5.445936343E-02
    78  6.996003976E-02
    79  6.325853555E-02
    80 -1.986326866E-03
    81 -2.740816398E-03
    82 -1.070396687E-02
    83 -5.338142776E-04
    84 -1.335494693E-02
    85  1.168479315E-01
    86  2.062958748E-02
    87  2.004582616E-02
    88  9.808366216E-03
    89  6.126026490E-04
    90  9.655680408E-04
    91 -6.392785084E-02
    92 -4.430984902E-02
    93 -4.350812375E-03
    94 -2.325448677E-03
    95 -9.383098008E-02
    96 -6.232925726E-02
    97 -5.758123653E-03
    98 -3.402072673E-03
    99 -7.217326103E-02
   100 -6.131086050E-02
   101 -9.513445626E-03
   102 -6.096880794E-03
   103 -1.606549114E-03
   104 -6.689561637E-03
   105 -3.147964551E-03
   106 -8.259344566E-03
   107 -1.351584796E-01
   108  1.857568205E-03
   109 -2.069029302E-02
   110  2.177305668E-02
   111 -3.310298576E-06
   112 -5.064578850E-06
   113  9.910054918E-03
   114 -1.222756266E-02
   115 -4.329605971E-02
   116  5.795514496E-06
   117  1.472145784E-02
   118 -1.816921407E-02
   119 -6.432450818E-02
   120  1.739760557E-04
   121  1.188555054E-02
   122 -1.464538546E-02
   123 -5.190586941E-02
   124 -1.451444982E-03
   125  4.997759936E-03
   126  6.557087587E-03
   127 -3.029677060E-03
   128 -1.888599990E-04
   129  6.215191277E-03
   130 -4.225603289E-03
   131  2.303727725E-03
   132  1.859534771E-02
   133  1.260744266E-06
   134  1.942221393E-06
   135  2.634460158E-02
   136 -3.275675540E-02
   137 -1.155752159E-01
   138 -4.199195066E-06
   139  3.892880663E-02
   140 -4.840599304E-02
   141 -1.707894744E-01
   142 -3.145176649E-06
   143  2.825374129E-02
   144 -3.509710139E-02
   145 -1.237450852E-01
   146 -1.237562181E-04
   147 -5.670090162E-03
   148 -4.346058881E-03
   149  2.536446921E-03
   150 -6.291630863E-04
   151  6.372747873E-04
   152  1.143954299E-03
   153 -6.339019096E-04
   154 -1.777446777E-03
   155  9.426542827E-04
   156  1.491718683E-03
   157 -7.230449618E-02
   158 -3.044173420E-02
   159  5.304174450E-02
   160 -4.239926429E-03
   161 -1.076474577E-01
   162 -4.553618964E-02
   163  7.847892061E-02
   164 -6.503359938E-03
   165 -8.283323575E-02
   166 -3.457225595E-02
   167  6.148790919E-02
   168  1.677866105E-03
   169 -1.085389990E-02
   170  2.974683153E-04
   171  6.600874502E-03
   172  1.184672688E-02
   173 -1.123662459E-01
   174 -2.377180056E-02
   175 -1.502873743E-02
   176  9.994844152E-03
   177 -6.128961118E-04
   178 -9.666898861E-04
   179  6.476102259E-02
   180  4.311295645E-02
   181  1.993729064E-04
   182  2.342680444E-03
   183  9.450016669E-02
   184  6.128016384E-02
   185  2.131739233E-03
   186  3.308267049E-03
   187  7.615183869E-02
   188  5.594277429E-02
   189 -8.979910854E-03
   190  2.753183908E-03
   191 -8.089137626E-03
   192  4.754508639E-03
   193  5.861826895E-03
   194  5.694957935E-03
   195  1.205565856E-01
   196 -6.801680436E-03
   197  2.638957148E-02
   198  3.821488680E-03
   199 -1.497238624E-06
   200 -2.621658666E-06
   201 -7.187106557E-03
   202  8.856168331E-03
   203  3.136660931E-02
   204  1.432902277E-05
   205 -1.013227994E-02
   206  1.249167182E-02
   207  4.422423528E-02
   208 -9.461584014E-05
   209 -9.161942530E-03
   210  1.127108437E-02
   211  4.012805050E-02
   212  1.553814932E-03
   213  7.512658482E-03
   214  3.277226470E-03
   215 -2.629054145E-03
   216  1.495124241E-03
   217 -2.723579009E-03
   218  1.717240710E-03
   219 -1.350882228E-03
   220 -4.589037593E-03
   221 -6.262231063E-04
   222 -9.873237899E-04
   223  5.984109927E-02
   224  4.983234328E-02
   225 -2.674185183E-03
   226  2.392130520E-03
   227  8.521338091E-02
   228  7.385479067E-02
   229 -3.329994530E-03
   230  3.445609368E-03
   231  7.848086306E-02
   232  5.331082809E-02
   233 -7.457611414E-03
   234  5.907025899E-03
   235 -6.896013268E-03
   236  2.441281950E-04
   237  1.666313879E-03
   238  8.781862288E-03
   239  1.387618080E-01
   240  2.033116822E-02
   241 -7.922963840E-03
   242  2.256437587E-02
   243  1.702558263E-06
   244  2.782168128E-06
   245 -7.120947101E-03
   246  8.926012362E-03
   247  3.141204881E-02
   248 -1.162807523E-05
   249 -1.003680377E-02
   250  1.258281064E-02
   251  4.428220721E-02
   252  6.248432517E-05
   253 -9.126394711E-03
   254  1.139196853E-02
   255  4.021080087E-02
   256 -1.281192746E-03
   257  5.163997781E-03
   258  6.440915575E-03
   259 -3.032621246E-03
   260 -9.104787424E-05
   261  1.735138703E-03
   262  1.107132425E-03
   263 -1.747757354E-03
   264 -4.758562594E-03
   265  3.933496266E-02
   266  5.506411165E-02
   267  3.756758697E-02
   268  8.958843738E-04
   269 -4.150698296E-03
   270  1.676945532E-03
   271  2.275163888E-03
   272 -4.611612236E-02
   273 -6.400350247E-02
   274 -3.199889021E-02
   275 -1.537014689E-03
   276  5.427831011E-04
   277  3.576458277E-03
   278  1.481873484E-03
   279  6.810301542E-02
   280  9.512811318E-02
   281  5.695364391E-02
   282 -2.683229978E-03
   283 -2.835920622E-03
   284 -1.767378691E-03
   285 -1.385326725E-02
   286 -6.810075800E-02
   287 -9.509535937E-02
   288 -5.738266339E-02
   289  3.478801714E-03
   290  1.847802924E-03
   291 -1.689560105E-03
   292  1.407529333E-02
   293  4.787149877E-03
   294  7.424215113E-03
   295  3.928740058E-03
   296  3.301241818E-03
   297  3.812557186E-03
   298  2.910111787E-03
   299 -9.917913642E-03
   300 -4.623042256E-02
   301 -6.415583998E-02
   302 -3.219030778E-02
   303 -1.478088956E-03
   304  4.681601393E-04
   305  3.615783101E-03
   306  1.573405716E-03
   307  3.935660792E-02
   308  5.508216086E-02
   309  3.751702107E-02
   310 -3.853612411E-03
   311  2.140529296E-03
   312 -1.199646927E-03
   313  3.033113785E-03
   314  4.981544110E-05
   315  7.370187520E-05
   316  7.988739420E-05
   317  1.566604019E-03
   318 -1.942137493E-03
   319 -6.843289710E-03
   320  6.854361273E-04
   321 -3.700631117E-05
   322 -5.578646340E-05
   323 -1.378250797E-04
   324  1.559645422E-03
   325 -1.944626398E-03
   326 -6.844091939E-03
   327 -1.611557301E-04
   328 -4.789193578E-03
   329 -7.419868138E-03
   330 -4.015101398E-03
   331 -4.601638318E-03
   332 -2.196530556E-03
   333  2.811509563E-03
   334  9.729174182E-03
   335  4.618494614E-02
   336  6.407120436E-02
   337  3.256522576E-02
   338 -1.734236558E-04
   339  1.580378311E-03
   340  3.594500043E-03
   341 -1.469420804E-03
   342 -3.934254840E-02
   343 -5.508551562E-02
   344 -3.726525029E-02
   345  3.732757833E-03
   346 -1.995464376E-03
   347  1.708180899E-03
   348 -3.197566285E-03
   349  2.859137077E-02
   350  4.182371877E-02
   351  2.794330841E-02
   352 -1.219850959E-03
   353 -6.763391888E-04
   354 -8.827929147E-04
   355  7.209449006E-03
   356 -2.865329123E-02
   357 -4.192280733E-02
   358 -2.788805874E-02
   359  1.540859854E-03
   360  2.723735628E-04
   361 -5.287168939E-04
   362 -7.133516821E-03
   363  5.446665843E-05
   364  7.689143327E-05
   365 -2.874686131E-05
   366 -4.910338213E-04
   367  6.123354496E-04
   368  2.143198199E-03
   369 -3.936726260E-05
   370 -3.935876037E-02
   371 -5.509036109E-02
   372 -3.763216041E-02
   373 -1.014379042E-03
   374  4.302384458E-03
   375 -1.158168456E-03
   376 -2.329740602E-03
   377  4.615126428E-02
   378  6.406238434E-02
   379  3.192945641E-02
   380 -1.094434836E-04
   381  1.507622256E-03
   382  3.633010927E-03
   383 -1.853068976E-03
   384 -2.863202504E-02
   385 -4.188929652E-02
   386 -2.783318551E-02
   387  9.942913043E-04
   388  1.006971747E-03
   389 -8.549090191E-04
   390 -7.038030346E-03
   391  2.869592556E-02
   392  4.198294409E-02
   393  2.794921940E-02
   394 -6.674326064E-04
   395 -1.407581840E-03
   396 -5.570503093E-04
   397  7.117696893E-03
   398 -5.492560688E-05
   399 -8.026374827E-05
   400 -5.641897484E-05
   401 -4.933129149E-04
   402  6.117801023E-04
   403  2.145501598E-03
   404 -8.542877821E-05
Ene=   -3.1693161193E-01
Spin= Alpha
Occup=   2.0000000
     1 -1.534106383E-06
     2 -2.415332054E-06
     3  2.179666596E-02
     4 -2.695834112E-02
     5 -9.497563457E-02
     6  9.270841158E-06
     7  3.246531524E-02
     8 -4.015226380E-02
     9 -1.414600331E-01
    10 -4.876481679E-05
    11  2.326682848E-02
    12 -2.874162444E-02
    13 -1.012607204E-01
    14  8.933250852E-04
    15  1.378892093E-02
    16  9.491531768E-03
    17 -5.816184791E-03
    18  1.802697090E-03
    19 -5.812040550E-03
    20 -2.195385533E-02
    21  3.153969292E-02
    22  1.008948085E-01
    23  6.548214986E-03
    24  1.041424886E-02
    25 -1.201548618E-02
    26 -1.636847149E-02
    27  1.018862973E-01
    28 -2.977632364E-02
    29 -1.985847118E-02
    30 -2.536538878E-02
    31  1.476271408E-01
    32 -4.370326820E-02
    33 -6.372990235E-03
    34 -1.107775995E-02
    35  1.257455854E-01
    36  4.122967076E-03
    37  4.883383624E-03
    38  7.932553110E-03
    39 -8.862401390E-03
    40  2.683846199E-03
    41 -3.699146569E-01
    42 -5.474449929E-02
    43  5.410760476E-02
    44  4.004715519E-02
    45 -5.241952304E-06
    46 -8.097157381E-06
    47 -8.104452653E-05
    48  5.681647001E-05
    49 -7.621629036E-05
    50  1.921245564E-05
    51 -1.184148956E-04
    52  8.329990355E-05
    53 -1.145264388E-04
    54  6.344937202E-05
    55 -1.192539352E-04
    56  7.417420059E-05
    57 -7.103510588E-05
    58  5.733511597E-03
    59  4.718346217E-03
    60 -6.326151424E-03
    61  8.196072055E-04
    62  3.208876664E-03
    63  3.886561953E-03
    64 -4.236833268E-05
    65 -1.324707283E-03
    66  6.591807777E-04
    67  2.577006138E-06
    68  4.152722881E-06
    69 -2.413321981E-02
    70  3.187078588E-02
    71 -1.460338538E-02
    72 -1.620071508E-05
    73 -3.592587204E-02
    74  4.744552274E-02
    75 -2.173895664E-02
    76  6.336501901E-05
    77 -3.315505759E-02
    78  4.382493026E-02
    79 -2.009604644E-02
    80 -5.842458917E-03
    81 -6.119953761E-03
    82  5.460330487E-03
    83 -5.160534495E-03
    84 -2.031989020E-03
    85  9.614944785E-03
    86 -3.342060157E-02
    87  4.649372608E-02
    88 -2.227987436E-02
    89 -6.548164951E-03
    90 -1.041439611E-02
    91  5.775637066E-02
    92 -4.412562773E-02
    93 -7.426822962E-02
    94  2.978107896E-02
    95  8.596226359E-02
    96 -6.206340541E-02
    97 -1.077106320E-01
    98  4.366849566E-02
    99  6.061898978E-02
   100 -6.052543341E-02
   101 -9.308613546E-02
   102 -4.394895357E-03
   103 -8.249252390E-03
   104 -9.980928778E-03
   105 -1.542509242E-03
   106  1.309392940E-04
   107  3.624153161E-01
   108 -9.470191822E-03
   109  3.179686842E-02
   110 -7.864632899E-02
   111 -5.382086418E-07
   112 -8.845078686E-07
   113 -2.174308027E-02
   114  2.690402326E-02
   115  9.504792947E-02
   116  3.907297061E-06
   117 -3.238676180E-02
   118  4.007010069E-02
   119  1.415753205E-01
   120 -1.321865097E-05
   121 -2.317570735E-02
   122  2.869905913E-02
   123  1.012886105E-01
   124  3.356515397E-04
   125 -1.278106047E-02
   126 -1.084483529E-02
   127  6.004126679E-03
   128 -1.124891429E-03
   129  2.176426166E-04
   130  2.149376270E-02
   131 -2.978334554E-02
   132 -1.004494619E-01
   133 -2.366019137E-06
   134 -4.056245659E-06
   135  5.545003141E-05
   136 -2.780754785E-05
   137  9.574229051E-05
   138  1.784923324E-05
   139  7.494928266E-05
   140 -3.138738113E-05
   141  1.432350335E-04
   142 -4.825416118E-05
   143  9.897623393E-05
   144 -8.672585886E-05
   145  5.190247661E-05
   146 -2.526314017E-03
   147 -2.088785715E-03
   148  2.789721702E-03
   149 -3.736053102E-04
   150 -1.412375608E-03
   151 -3.743159227E-03
   152 -2.622885263E-04
   153 -9.752332706E-04
   154  6.851907319E-05
   155  2.328620205E-07
   156  3.303262811E-07
   157  2.403648475E-02
   158 -3.182851711E-02
   159  1.449268313E-02
   160  1.294071470E-06
   161  3.578322391E-02
   162 -4.737855492E-02
   163  2.157692443E-02
   164 -1.875670644E-05
   165  3.304876799E-02
   166 -4.378783401E-02
   167  1.990796844E-02
   168 -5.778922081E-03
   169 -3.448561322E-03
   170  7.357651735E-03
   171  3.498200859E-03
   172 -4.478611144E-03
   173 -1.242754393E-03
   174  3.527751916E-02
   175 -4.766320505E-02
   176  2.124498219E-02
   177  6.548809618E-03
   178  1.041521380E-02
   179 -1.730284763E-02
   180 -5.949450426E-03
   181 -1.022131837E-01
   182 -2.978386356E-02
   183 -2.730529934E-02
   184 -1.054040334E-02
   185 -1.481556445E-01
   186 -4.367170453E-02
   187 -1.040849104E-02
   188 -1.634256847E-03
   189 -1.259575723E-01
   190  3.834294529E-03
   191 -8.940884469E-03
   192 -2.814645076E-03
   193  9.086592815E-03
   194 -2.126009275E-03
   195 -3.719446526E-01
   196  3.839404642E-02
   197 -6.649770449E-02
   198 -4.077562714E-02
   199  3.494838866E-06
   200  5.698584538E-06
   201  1.043456169E-02
   202 -1.286519854E-02
   203 -4.553366221E-02
   204 -1.979898552E-05
   205  1.440336088E-02
   206 -1.774897688E-02
   207 -6.283223912E-02
   208  1.411236003E-05
   209  1.337875962E-02
   210 -1.655864912E-02
   211 -5.854962706E-02
   212 -3.402944584E-03
   213 -1.269633954E-02
   214 -4.171447446E-03
   215  4.039234741E-03
   216 -2.896855486E-03
   217  3.400931343E-04
   218 -2.577476168E-03
   219  3.290641172E-03
   220  1.165350428E-02
   221 -6.546725832E-03
   222 -1.041140824E-02
   223 -2.839133085E-02
   224  6.638035644E-02
   225  7.462789722E-02
   226  2.976108766E-02
   227 -3.871989926E-02
   228  9.786068985E-02
   229  1.082903375E-01
   230  4.379618142E-02
   231 -4.377841624E-02
   232  7.325817531E-02
   233  9.333178781E-02
   234 -3.972892294E-03
   235  1.197154538E-02
   236  5.330098006E-03
   237  1.258150713E-03
   238 -9.161191959E-04
   239  3.778162221E-01
   240  2.670735906E-02
   241 -1.997687350E-02
   242  8.167700646E-02
   243  1.844878442E-06
   244  3.090813388E-06
   245 -1.044169252E-02
   246  1.291345919E-02
   247  4.548141215E-02
   248 -1.238944029E-05
   249 -1.440955579E-02
   250  1.781992241E-02
   251  6.275539606E-02
   252  3.796451866E-05
   253 -1.343475388E-02
   254  1.658341226E-02
   255  5.851240728E-02
   256 -2.974454831E-03
   257  7.427962694E-03
   258  1.121898025E-02
   259 -4.923003493E-03
   260 -6.924210572E-04
   261 -1.781006594E-03
   262  2.781454395E-03
   263 -2.962914124E-03
   264 -1.185392462E-02
   265 -2.890735220E-02
   266 -3.759841571E-02
   267 -1.612001998E-02
   268 -3.429524935E-03
   269 -2.169196713E-04
   270  4.976859546E-03
   271 -1.543694344E-02
   272  5.955101979E-02
   273  8.734451088E-02
   274  6.303594327E-02
   275 -2.890417607E-03
   276 -4.263020164E-03
   277 -1.692198704E-05
   278  3.621605837E-03
   279 -4.588867304E-05
   280 -5.241507937E-05
   281 -1.776277974E-04
   282 -8.122076959E-04
   283  1.077944991E-03
   284 -4.894311978E-04
   285 -1.693080505E-04
   286  2.080212725E-05
   287  3.165831345E-05
   288  5.008112311E-05
   289  8.041418511E-04
   290 -1.070671276E-03
   291  4.866283274E-04
   292  2.014696327E-04
   293 -1.361425165E-06
   294  7.427687582E-06
   295 -1.659364572E-04
   296 -1.659227904E-03
   297  2.192795677E-03
   298 -1.004116149E-03
   299  3.176604119E-04
   300 -5.949833320E-02
   301 -8.728139607E-02
   302 -6.287944923E-02
   303  4.654395289E-03
   304  1.926290737E-03
   305  1.077386908E-03
   306 -3.457891867E-03
   307  2.889149436E-02
   308  3.757501879E-02
   309  1.612964185E-02
   310  3.348150232E-03
   311  3.284469934E-04
   312 -5.027342079E-03
   313  1.531150568E-02
   314 -8.145728014E-05
   315 -1.335087693E-04
   316  1.121487954E-04
   317  6.966051616E-05
   318 -9.205487857E-05
   319 -3.252519340E-04
   320  5.258043007E-04
   321  5.420225585E-05
   322  7.965532895E-05
   323  2.726022736E-05
   324 -7.207639616E-05
   325  9.879248304E-05
   326  3.333896820E-04
   327 -4.946230296E-04
   328  1.307411106E-05
   329  2.094849207E-05
   330 -2.122229750E-06
   331  1.654492147E-03
   332 -2.189552289E-03
   333  9.989384857E-04
   334 -2.276094190E-04
   335  5.955907469E-02
   336  8.733427124E-02
   337  6.320210590E-02
   338 -4.874034596E-03
   339 -1.642935057E-03
   340 -7.712225461E-05
   341  3.483709989E-03
   342 -2.891683594E-02
   343 -3.762727912E-02
   344 -1.602041756E-02
   345 -1.045033648E-03
   346 -3.186856850E-03
   347 -5.030748570E-03
   348 -1.507747964E-02
   349 -4.312552432E-02
   350 -6.459091057E-02
   351 -4.269209698E-02
   352  2.485168116E-03
   353  1.745510736E-03
   354  5.564876147E-04
   355 -8.622771946E-03
   356  4.321624296E-02
   357  6.472063314E-02
   358  4.292323307E-02
   359 -2.681452913E-03
   360 -1.495604956E-03
   361  3.069433813E-04
   362  8.624504792E-03
   363 -7.308789687E-05
   364 -1.029349932E-04
   365 -9.699408789E-05
   366  5.642966381E-04
   367 -7.027950772E-04
   368 -2.459508033E-03
   369 -2.307951503E-04
   370  2.896305719E-02
   371  3.771350974E-02
   372  1.589245163E-02
   373  1.132566659E-03
   374  3.066650264E-03
   375  5.084592044E-03
   376  1.483317100E-02
   377 -5.960435841E-02
   378 -8.739847788E-02
   379 -6.317280857E-02
   380  3.116980896E-03
   381  3.972284885E-03
   382 -9.894079035E-04
   383 -3.078174785E-03
   384 -4.315991403E-02
   385 -6.463294619E-02
   386 -4.278132985E-02
   387  2.351126506E-03
   388  1.933155568E-03
   389 -5.013190262E-04
   390 -8.741706104E-03
   391  4.312126323E-02
   392  6.458508295E-02
   393  4.272406343E-02
   394 -2.157017107E-03
   395 -2.175627231E-03
   396 -3.638489035E-04
   397  8.536960507E-03
   398  4.740080644E-05
   399  6.289785894E-05
   400  1.111188990E-04
   401 -5.611036546E-04
   402  6.959297748E-04
   403  2.459725758E-03
   404  1.234554425E-04
Ene=   -3.1460807823E-01
Spin= Alpha
Occup=   2.0000000
     1  9.296158433E-04
     2  1.468798868E-03
     3 -8.903091213E-02
     4 -1.116217894E-02
     5 -1.722491037E-02
     6 -4.168780134E-03
     7 -1.328858295E-01
     8 -1.657296948E-02
     9 -2.573178763E-02
    10 -9.470823126E-03
    11 -9.999500964E-02
    12 -1.285014832E-02
    13 -1.923653565E-02
    14  1.163267039E-02
    15 -7.581715710E-03
    16  5.429983423E-03
    17 -6.467852289E-03
    18  2.692841126E-03
    19 -6.444313816E-02
    20  5.180183813E-02
    21 -1.307858894E-01
    22  5.251546133E-02
    23 -5.424087533E-04
    24 -8.631136296E-04
    25  4.556089051E-02
    26  5.320205909E-02
    27 -1.899648961E-02
    28  2.165015317E-03
    29  6.529195808E-02
    30  7.821588498E-02
    31 -2.947112587E-02
    32  1.014913776E-03
    33  5.844665232E-02
    34  6.321707745E-02
    35 -1.565121666E-02
    36  9.645480105E-03
    37 -2.064530239E-04
    38  4.199696132E-03
    39 -1.382287377E-03
    40  4.653010916E-05
    41  8.496796127E-02
    42  1.428383850E-02
    43  1.892371085E-05
    44 -5.165594010E-03
    45  5.385396600E-06
    46  8.297850817E-06
    47  6.539615840E-02
    48 -8.659297440E-02
    49  3.944696334E-02
    50 -1.932192080E-05
    51  9.623333760E-02
    52 -1.274233211E-01
    53  5.805208329E-02
    54 -3.000051371E-05
    55  7.638053962E-02
    56 -1.011165904E-01
    57  4.604560098E-02
    58 -3.496918665E-05
    59 -2.085938775E-03
    60 -1.503138197E-03
    61 -6.748467743E-03
    62  1.905367817E-03
    63 -1.483191332E-02
    64  1.517207275E-02
    65 -1.527964463E-02
    66  7.018382599E-03
    67 -5.810822526E-07
    68 -9.745599299E-07
    69  3.580868795E-02
    70 -4.749294385E-02
    71  2.163036463E-02
    72  4.631207739E-06
    73  5.326614554E-02
    74 -7.064482100E-02
    75  3.217642728E-02
    76 -2.918137952E-05
    77  3.913542372E-02
    78 -5.199705461E-02
    79  2.362678215E-02
    80  3.487656708E-03
    81  5.294653118E-03
    82 -2.018816650E-03
    83  8.496028704E-03
    84 -3.157998287E-04
    85 -7.314850719E-04
    86  1.547867138E-02
    87 -1.979069280E-02
    88  9.632465364E-03
    89  5.364695604E-04
    90  8.535561138E-04
    91 -6.882080056E-02
    92 -2.218880238E-02
    93  4.838641685E-03
    94 -2.136215399E-03
    95 -1.011638908E-01
    96 -3.040887832E-02
    97  7.641583417E-03
    98 -1.018591025E-03
    99 -8.072907402E-02
   100 -3.346426477E-02
   101  2.153277859E-03
   102 -6.745810894E-03
   103  2.358094675E-03
   104 -7.558106642E-03
   105  1.033358606E-03
   106  1.797461273E-03
   107 -8.824277772E-02
   108 -7.133417603E-03
   109 -9.498658485E-03
   110  9.771915902E-03
   111 -9.292564067E-04
   112 -1.468250835E-03
   113  3.477173399E-02
   114  8.300364102E-02
   115 -1.545870484E-02
   116  4.163360244E-03
   117  5.182181331E-02
   118  1.239183722E-01
   119 -2.309798197E-02
   120  9.536573345E-03
   121  3.931332983E-02
   122  9.307696145E-02
   123 -1.730163311E-02
   124 -1.171999868E-02
   125  3.403609913E-03
   126 -8.425906237E-03
   127 -7.068082288E-03
   128  1.127073656E-03
   129  7.517852030E-02
   130  1.120918961E-01
   131 -8.077796745E-02
   132  4.892716532E-02
   133  5.844710753E-06
   134  9.670841332E-06
   135 -4.930752023E-02
   136  6.525744773E-02
   137 -2.967705154E-02
   138 -3.551511432E-05
   139 -6.941229999E-02
   140  9.186472053E-02
   141 -4.176495404E-02
   142  2.573254973E-05
   143 -6.499152116E-02
   144  8.601758091E-02
   145 -3.918386509E-02
   146  1.046393874E-04
   147  5.268041147E-03
   148  3.778768042E-03
   149  1.712754195E-02
   150 -4.822301634E-03
   151  3.692302879E-03
   152 -6.290052721E-03
   153  9.027060023E-03
   154 -3.853486037E-03
   155  9.941867541E-07
   156  1.581494623E-06
   157  3.595074398E-02
   158 -4.749681923E-02
   159  2.162545613E-02
   160 -2.407899905E-06
   161  5.347658181E-02
   162 -7.064518167E-02
   163  3.216410261E-02
   164 -5.348073715E-05
   165  3.934122233E-02
   166 -5.205204969E-02
   167  2.368824428E-02
   168 -3.402958230E-03
   169 -3.647959873E-04
   170  5.569750138E-03
   171  7.525634706E-03
   172 -4.197955009E-03
   173 -8.141696417E-03
   174  1.494999649E-02
   175 -2.170189382E-02
   176  7.835837176E-03
   177  5.504056206E-04
   178  8.757221645E-04
   179 -6.320583196E-02
   180 -2.942730331E-02
   181 -2.054900514E-02
   182 -2.197887530E-03
   183 -9.244301215E-02
   184 -4.161987520E-02
   185 -3.171728538E-02
   186 -1.114509428E-03
   187 -7.641539100E-02
   188 -3.918313597E-02
   189 -1.768861184E-02
   190 -9.547457259E-03
   191  4.233463173E-03
   192 -1.105155944E-03
   193 -1.269816455E-03
   194  6.321340199E-04
   195 -8.737600713E-02
   196 -3.882965627E-03
   197 -1.483908908E-02
   198 -5.042554518E-03
   199 -1.171970442E-03
   200 -1.867460563E-03
   201 -2.505452129E-02
   202 -5.075089320E-02
   203  8.595261492E-03
   204  5.625399416E-03
   205 -3.557154097E-02
   206 -7.107530360E-02
   207  1.192896651E-02
   208  5.590356790E-03
   209 -3.049136472E-02
   210 -6.472590961E-02
   211  1.128435514E-02
   212 -6.047894226E-03
   213  2.722059095E-03
   214 -8.309231309E-03
   215 -1.013596419E-02
   216 -7.019656943E-03
   217 -1.650952257E-01
   218  3.689836643E-02
   219  1.680714682E-03
   220  7.863695027E-03
   221 -5.559635921E-04
   222 -8.843589175E-04
   223  3.965483255E-02
   224  6.041832347E-02
   225  6.394039835E-03
   226  2.220823054E-03
   227  5.615403852E-02
   228  8.939899448E-02
   229  9.900177972E-03
   230  1.164703009E-03
   231  5.379119149E-02
   232  6.881136345E-02
   233  4.064030225E-03
   234  6.636731571E-03
   235 -6.837923023E-03
   236  4.132355766E-03
   237  1.114137394E-04
   238 -2.064660699E-03
   239  1.015810566E-01
   240  1.259295270E-02
   241  4.476830582E-03
   242  1.284750941E-02
   243  1.169986413E-03
   244  1.864068554E-03
   245  5.544627155E-02
   246  1.047760248E-02
   247  9.706098767E-03
   248 -5.610030659E-03
   249  7.777346709E-02
   250  1.513671538E-02
   251  1.348373778E-02
   252 -5.650139767E-03
   253  7.040286251E-02
   254  1.197893518E-02
   255  1.272037472E-02
   256  5.942918112E-03
   257 -7.372980952E-03
   258  4.982575212E-03
   259 -4.902506489E-03
   260  1.125203473E-02
   261  1.636668802E-01
   262 -1.186710968E-02
   263 -3.472728293E-02
   264  7.080057606E-03
   265 -2.268268250E-02
   266 -3.303156664E-02
   267 -2.594611229E-02
   268 -1.099468413E-04
   269  2.827347352E-03
   270 -1.477775909E-03
   271  4.624992425E-03
   272  3.008380580E-02
   273  4.265087294E-02
   274  2.154366377E-02
   275  1.812968606E-03
   276  1.746622750E-03
   277 -3.905576451E-03
   278 -1.215173200E-02
   279 -3.184765607E-05
   280 -5.703951245E-05
   281  2.033457168E-04
   282  3.142423245E-03
   283 -4.158751829E-03
   284  1.897079540E-03
   285  2.296957787E-04
   286  7.177518077E-05
   287  8.344712569E-05
   288  3.102546934E-04
   289  3.139256274E-03
   290 -4.162763624E-03
   291  1.901806386E-03
   292 -3.422097760E-04
   293 -6.473454312E-06
   294 -7.641442264E-06
   295  1.165549368E-05
   296  2.304554267E-03
   297 -3.056425716E-03
   298  1.392782594E-03
   299 -1.859042468E-05
   300 -3.005390727E-02
   301 -4.261237380E-02
   302 -2.170873154E-02
   303 -3.643462595E-03
   304  6.866505256E-04
   305  2.792103572E-03
   306  1.191600376E-02
   307  2.260473442E-02
   308  3.290444587E-02
   309  2.605372125E-02
   310 -2.927883332E-03
   311  1.199192576E-03
   312 -3.633005070E-04
   313 -4.024849592E-03
   314  7.110744546E-02
   315  1.019882416E-01
   316  6.174574911E-02
   317  4.707748496E-03
   318  1.415946415E-03
   319  6.792202316E-04
   320  6.595593648E-03
   321 -7.106100856E-02
   322 -1.019019372E-01
   323 -6.178797215E-02
   324 -2.638311166E-03
   325 -4.163950869E-03
   326  5.852774386E-04
   327 -6.995935094E-03
   328 -2.863501453E-06
   329 -1.310943117E-05
   330  9.838993284E-05
   331  2.313802439E-03
   332 -3.057723655E-03
   333  1.391216532E-03
   334 -1.895798357E-04
   335 -2.999302310E-02
   336 -4.253149547E-02
   337 -2.137641142E-02
   338 -2.113578496E-03
   339 -1.233549790E-03
   340 -3.956091392E-03
   341  1.252695177E-02
   342  2.261846389E-02
   343  3.294301777E-02
   344  2.601394078E-02
   345 -2.674913696E-03
   346  8.742421193E-04
   347 -1.517953232E-03
   348 -5.096634505E-03
   349 -3.027395454E-02
   350 -4.491022005E-02
   351 -3.065411546E-02
   352 -3.342357670E-04
   353 -1.161428373E-03
   354  2.714317768E-03
   355 -1.258906970E-02
   356 -3.010082824E-02
   357 -4.466402284E-02
   358 -3.045017967E-02
   359  6.472842827E-04
   360 -2.400695394E-03
   361 -1.627975886E-03
   362 -1.262584842E-02
   363  5.604184655E-02
   364  8.290657163E-02
   365  5.493738910E-02
   366 -1.806087215E-03
   367  2.515969398E-03
   368 -1.132979111E-03
   369  1.670934887E-02
   370 -2.257134325E-02
   371 -3.285109971E-02
   372 -2.618931104E-02
   373 -3.665043648E-04
   374  3.151796467E-03
   375 -3.196645924E-04
   376  5.096824271E-03
   377  2.990962797E-02
   378  4.243052102E-02
   379  2.103709947E-02
   380  2.762746131E-04
   381  3.667722386E-03
   382  2.838394529E-03
   383 -1.230123833E-02
   384  3.018822538E-02
   385  4.476789017E-02
   386  3.060129227E-02
   387  1.170371916E-03
   388 -1.795882475E-05
   389  2.732630887E-03
   390  1.264093258E-02
   391  3.019444707E-02
   392  4.480219344E-02
   393  3.042000727E-02
   394  2.161680317E-03
   395 -1.250995822E-03
   396 -1.610264694E-03
   397  1.227647989E-02
   398 -5.605091532E-02
   399 -8.292869124E-02
   400 -5.473970825E-02
   401 -1.924130489E-03
   402  2.428852113E-03
   403 -1.129340737E-03
   404 -1.652338142E-02
Ene=   -2.8358689310E-01
Spin= Alpha
Occup=   2.0000000
     1 -3.285907044E-03
     2 -5.225450271E-03
     3  5.876874282E-02
     4 -7.645816826E-02
     5  3.525169348E-02
     6  1.336270141E-02
     7  8.664794870E-02
     8 -1.138008521E-01
     9  5.228058911E-02
    10  2.708839027E-02
    11  6.624403674E-02
    12 -9.567738048E-02
    13  4.241844745E-02
    14  2.282246017E-03
    15  4.614625587E-03
    16  6.463629326E-03
    17  2.081909151E-02
    18 -3.384489368E-03
    19 -1.704484024E-01
    20 -8.962084717E-02
    21 -3.804091448E-01
    22  8.745293883E-02
    23  5.742267928E-03
    24  9.131734287E-03
    25 -2.140586400E-02
    26  5.735599625E-02
    27 -2.669418229E-02
    28 -2.619254323E-02
    29 -2.818539578E-02
    30  8.288322246E-02
    31 -3.757196509E-02
    32 -5.543192723E-02
    33 -3.427804855E-02
    34  7.819278976E-02
    35 -2.939042445E-02
    36 -2.465191503E-03
    37  2.650791070E-03
    38  4.847492035E-03
    39  1.262711901E-02
    40 -7.646437143E-03
    41 -1.891201611E-01
    42  3.216780613E-02
    43  9.344255978E-02
    44 -1.657641192E-02
    45  2.247336561E-05
    46  3.593392211E-05
    47 -6.512287476E-02
    48  8.653863422E-02
    49 -3.949533568E-02
    50 -1.118853696E-04
    51 -9.482471017E-02
    52  1.260003091E-01
    53 -5.750152331E-02
    54  3.985179500E-05
    55 -8.199584411E-02
    56  1.088660851E-01
    57 -4.970960894E-02
    58  9.719128278E-05
    59  3.909350576E-03
    60  2.831405664E-03
    61  1.283742683E-02
    62 -3.583821419E-03
    63 -1.898252831E-02
    64 -1.263606072E-01
    65  1.725935485E-01
    66 -7.793827167E-02
    67  1.398412686E-05
    68  2.226034163E-05
    69  4.794823060E-02
    70 -6.390391899E-02
    71  2.922970546E-02
    72 -6.411752517E-05
    73  7.019762762E-02
    74 -9.354000230E-02
    75  4.277877565E-02
    76 -1.756559279E-04
    77  5.299389233E-02
    78 -7.080194169E-02
    79  3.229432090E-02
    80  1.075197895E-03
    81  4.388194147E-03
    82  1.540365124E-03
    83  1.197612083E-02
    84 -2.767271133E-03
    85  1.415598877E-02
    86 -5.214871315E-02
    87  7.284911908E-02
    88 -3.365415498E-02
    89 -5.759661774E-03
    90 -9.160061910E-03
    91 -5.089836906E-02
    92  3.914330675E-02
    93 -1.751618310E-02
    94  2.628911773E-02
    95 -7.414993640E-02
    96  5.370371267E-02
    97 -2.501648750E-02
    98  5.538678578E-02
    99 -6.498509485E-02
   100  5.428068032E-02
   101 -3.112646818E-02
   102 -2.359667742E-03
   103  1.513213751E-03
   104  6.737671836E-03
   105  1.392740180E-02
   106 -2.816165639E-03
   107  1.833208653E-01
   108 -9.453855236E-02
   109 -8.619850711E-03
   110 -2.390143463E-02
   111  3.273165676E-03
   112  5.205436709E-03
   113  5.704382868E-02
   114 -7.774969966E-02
   115  3.522257793E-02
   116 -1.331932664E-02
   117  8.512934958E-02
   118 -1.149179235E-01
   119  5.224786718E-02
   120 -2.679949587E-02
   121  7.343174764E-02
   122 -9.036292011E-02
   123  4.259568542E-02
   124 -1.962517857E-03
   125  7.700898375E-03
   126  2.438246229E-03
   127  1.948951729E-02
   128 -7.929060783E-03
   129  1.892737398E-01
   130  3.990213068E-01
   131 -9.363303345E-03
   132  9.605639143E-02
   133 -1.282291881E-05
   134 -2.101016457E-05
   135 -2.378367449E-02
   136  3.172561639E-02
   137 -1.456425538E-02
   138  7.800526133E-05
   139 -3.178125626E-02
   140  4.240612083E-02
   141 -1.947808698E-02
   142 -1.874317574E-04
   143 -2.955407576E-02
   144  3.932355113E-02
   145 -1.807132938E-02
   146  1.227392101E-04
   147  4.338024022E-03
   148  3.139909097E-03
   149  1.421408080E-02
   150 -4.001473433E-03
   151 -7.296778527E-03
   152  2.216933090E-02
   153 -3.287055519E-02
   154  1.462158729E-02
   155  3.339424659E-07
   156  4.906323385E-07
   157  4.797915030E-02
   158 -6.389560295E-02
   159  2.920484006E-02
   160  1.454651196E-06
   161  7.024131801E-02
   162 -9.353553653E-02
   163  4.275176322E-02
   164 -8.144285374E-05
   165  5.298380150E-02
   166 -7.067831563E-02
   167  3.239365543E-02
   168 -8.773538475E-04
   169  2.810356696E-03
   170  3.681183767E-03
   171  1.169359337E-02
   172 -3.860108590E-03
   173  8.844663983E-03
   174 -5.424230411E-02
   175  7.339099535E-02
   176 -3.236799316E-02
   177 -5.744589891E-03
   178 -9.135882823E-03
   179 -4.883161590E-02
   180  3.645274582E-02
   181 -2.690708097E-02
   182  2.621474492E-02
   183 -7.132724803E-02
   184  5.000077654E-02
   185 -3.791406735E-02
   186  5.530093297E-02
   187 -6.535528044E-02
   188  5.462575030E-02
   189 -2.976069297E-02
   190  2.685710732E-03
   191  5.520036689E-03
   192  1.062902351E-03
   193  1.470306605E-02
   194 -1.515296490E-05
   195  1.966479573E-01
   196 -9.757862543E-02
   197 -3.724264201E-03
   198 -1.446740204E-02
   199 -1.481362919E-02
   200 -2.363351155E-02
   201 -7.549553216E-02
   202  3.517556382E-02
   203 -2.723620267E-02
   204  6.977089874E-02
   205 -1.109527276E-01
   206  4.931405747E-02
   207 -3.934991485E-02
   208  8.341474378E-02
   209 -8.728490383E-02
   210  4.438454434E-02
   211 -3.253006822E-02
   212 -7.773351680E-04
   213  2.063456750E-03
   214  2.504292404E-03
   215  9.173525879E-03
   216  9.428212828E-04
   217 -2.561140905E-01
   218  2.810370959E-02
   219 -3.087716799E-03
   220  7.108361532E-03
   221  5.758384552E-03
   222  9.157460918E-03
   223 -2.364623277E-02
   224  6.001586489E-02
   225 -1.710475568E-02
   226 -2.626845708E-02
   227 -3.127583970E-02
   228  8.653997881E-02
   229 -2.437526798E-02
   230 -5.555743281E-02
   231 -3.404748374E-02
   232  7.776905052E-02
   233 -3.073477239E-02
   234  2.586911494E-03
   235  6.951679047E-03
   236 -6.004912029E-04
   237  1.327143305E-02
   238 -4.813634451E-03
   239 -1.904074230E-01
   240  3.272129121E-02
   241  9.249336098E-02
   242 -2.183175668E-02
   243  1.485964857E-02
   244  2.370609682E-02
   245 -1.321375657E-02
   246  8.274467404E-02
   247 -2.651539357E-02
   248 -6.996208927E-02
   249 -1.716136680E-02
   250  1.209539786E-01
   251 -3.826315234E-02
   252 -8.397647019E-02
   253 -1.868168860E-02
   254  9.681827888E-02
   255 -3.177444988E-02
   256  9.030934813E-04
   257  2.976467151E-03
   258  1.142388640E-03
   259  7.352895700E-03
   260 -5.564823627E-03
   261  2.391290107E-01
   262 -5.024597007E-03
   263 -2.363134659E-02
   264  5.587909738E-03
   265  4.594031238E-02
   266  7.566231310E-02
   267  4.736121045E-02
   268  2.705289835E-03
   269  2.050754722E-03
   270 -1.369438192E-03
   271  1.956140694E-02
   272 -2.984404308E-04
   273  2.616228137E-03
   274 -1.007257815E-02
   275 -1.239477689E-03
   276  3.380023127E-03
   277 -1.780120189E-03
   278 -1.305439385E-02
   279  1.333737045E-05
   280  3.223328267E-05
   281  2.425278189E-04
   282 -3.848984158E-03
   283  5.111167250E-03
   284 -2.335385275E-03
   285  6.904874688E-05
   286  1.363477829E-04
   287  2.067972246E-04
   288  5.029839389E-04
   289 -3.856237167E-03
   290  5.110088130E-03
   291 -2.326702289E-03
   292  1.820950231E-04
   293  2.344722061E-04
   294  4.202853087E-04
   295 -1.211928212E-04
   296  3.002812885E-03
   297 -3.971232692E-03
   298  1.797532288E-03
   299  1.251337892E-04
   300  3.176392784E-04
   301 -2.622489407E-03
   302  9.920164383E-03
   303 -3.085175695E-03
   304  2.394355076E-03
   305 -8.645206012E-04
   306  1.373265067E-02
   307 -4.609731675E-02
   308 -7.588267834E-02
   309 -4.758298004E-02
   310 -3.216639875E-03
   311 -1.341687930E-03
   312  1.036434743E-03
   313 -1.873995785E-02
   314  4.255096805E-02
   315  6.797537864E-02
   316  5.249042466E-02
   317  2.398882398E-03
   318  1.750943984E-03
   319  4.325927843E-05
   320  2.459301853E-02
   321 -4.268991413E-02
   322 -6.821224194E-02
   323 -5.256074946E-02
   324 -2.322490502E-03
   325 -1.845564092E-03
   326 -1.400430288E-05
   327 -2.526146732E-02
   328  1.689686739E-05
   329  6.939939540E-05
   330 -2.549634067E-04
   331  2.988467490E-03
   332 -3.972707637E-03
   333  1.819717300E-03
   334  1.916894612E-04
   335  4.206129979E-04
   336 -2.420895947E-03
   337  9.744154534E-03
   338 -2.884614212E-03
   339  2.130450131E-03
   340 -1.784349668E-03
   341  1.380692171E-02
   342 -4.608419883E-02
   343 -7.584523968E-02
   344 -4.783199007E-02
   345 -2.658314571E-03
   346 -2.042540227E-03
   347 -1.429299124E-03
   348 -1.816051544E-02
   349 -7.210242834E-03
   350 -1.367530953E-02
   351 -2.355154576E-02
   352 -4.220483044E-03
   353  2.793987665E-03
   354 -6.777877711E-04
   355 -4.286716131E-03
   356 -7.158986654E-03
   357 -1.359510095E-02
   358 -2.338096261E-02
   359 -3.790163159E-03
   360  2.252962481E-03
   361 -2.583887610E-03
   362 -4.252474960E-03
   363 -3.309137644E-02
   364 -5.549595633E-02
   365 -5.367400604E-02
   366 -3.760852985E-03
   367 -7.032859574E-04
   368 -6.595518792E-04
   369 -1.410858352E-03
   370  4.595630609E-02
   371  7.570310130E-02
   372  4.740252602E-02
   373  2.139640385E-03
   374  2.747927808E-03
   375  1.102965489E-03
   376  1.886636983E-02
   377 -1.885174471E-04
   378  2.793862700E-03
   379 -9.793913453E-03
   380 -1.460993603E-03
   381  3.642465057E-03
   382 -8.311304047E-04
   383 -1.312040988E-02
   384  7.304298048E-03
   385  1.383645808E-02
   386  2.350355672E-02
   387 -1.555666687E-03
   388  4.833977039E-03
   389 -6.414308653E-04
   390  3.801979390E-03
   391  7.249530044E-03
   392  1.375611445E-02
   393  2.338439870E-02
   394 -1.116767839E-03
   395  4.293653614E-03
   396 -2.560087674E-03
   397  3.705165014E-03
   398  3.305966254E-02
   399  5.543254775E-02
   400  5.399409835E-02
   401  1.699990666E-03
   402  3.461467069E-03
   403 -5.944766967E-04
   404  1.146210424E-03
Ene=   -2.8117942325E-01
Spin= Alpha
Occup=   2.0000000
     1 -2.964820631E-03
     2 -4.661875417E-03
     3 -7.751818466E-02
     4 -6.182732347E-02
     5 -1.814019368E-05
     6  1.060352649E-02
     7 -1.139234431E-01
     8 -9.210342378E-02
     9  3.249258900E-04
    10  4.519256905E-02
    11 -9.268861231E-02
    12 -7.940030389E-02
    13  1.564746162E-03
    14  1.283590919E-02
    15 -6.245587387E-03
    16  1.047292600E-02
    17  6.022860243E-03
    18  5.362023758E-03
    19  7.880591580E-02
    20  1.234397095E-01
    21 -4.214780291E-02
    22  4.027674570E-02
    23 -3.292351798E-04
    24 -5.398373394E-04
    25  5.356010401E-02
    26  5.325595682E-02
    27 -2.977452938E-02
    28  1.535605269E-03
    29  7.499558137E-02
    30  7.653135456E-02
    31 -4.614541440E-02
    32 -2.499146629E-03
    33  6.593522709E-02
    34  6.558779436E-02
    35 -2.359690589E-02
    36  1.047309039E-02
    37 -5.723201385E-03
    38  7.818841037E-03
    39 -8.109123469E-06
    40  6.236409634E-03
    41  1.525652134E-01
    42  1.356861528E-02
    43 -7.378588845E-03
    44 -3.999544127E-02
    45  1.026986621E-02
    46  1.633778522E-02
    47  5.199062970E-02
    48  3.920085134E-02
    49  6.922308390E-04
    50 -4.611223411E-02
    51  7.394959509E-02
    52  5.575224355E-02
    53  9.923901559E-04
    54 -9.570972229E-02
    55  7.933827980E-02
    56  5.991349779E-02
    57  1.023088760E-03
    58  6.638618794E-03
    59 -6.129169365E-03
    60  8.028797625E-03
    61  3.434518106E-03
    62  1.208185187E-02
    63 -4.960323804E-01
    64  6.686926485E-02
    65  5.142162870E-02
    66  1.160611842E-03
    67  3.212524133E-03
    68  5.146538632E-03
    69 -7.398225852E-02
    70 -5.360931447E-02
    71  4.289044913E-03
    72 -1.542512453E-02
    73 -1.067169687E-01
    74 -7.808729240E-02
    75  4.514001212E-03
    76 -2.531932828E-02
    77 -9.548124532E-02
    78 -6.739091674E-02
    79  9.430410779E-03
    80  1.034954528E-02
    81 -1.123611172E-02
    82  5.269615317E-03
    83  4.250608542E-03
    84  7.327898842E-03
    85 -7.307094871E-02
    86 -2.292267333E-02
    87 -8.374876682E-03
    88  1.569915584E-02
    89 -2.988969754E-04
    90 -4.908331712E-04
    91  7.621263445E-02
    92  2.333160098E-02
    93 -1.610879871E-02
    94  1.378828071E-03
    95  1.101097563E-01
    96  3.014488245E-02
    97 -2.495779235E-02
    98 -2.516085695E-03
    99  8.879657133E-02
   100  3.533735033E-02
   101 -9.873901713E-03
   102  1.010730915E-02
   103 -5.184123199E-03
   104  8.845551329E-03
   105  2.697614458E-03
   106  5.230976860E-03
   107  1.662373164E-01
   108  1.260158096E-02
   109 -6.983138350E-03
   110 -4.262634299E-02
   111 -2.979551922E-03
   112 -4.684964689E-03
   113 -8.057961552E-02
   114 -5.774312055E-02
   115 -1.906100095E-03
   116  1.065615426E-02
   117 -1.196264168E-01
   118 -8.451902546E-02
   119 -3.173694780E-03
   120  4.546575035E-02
   121 -1.014734551E-01
   122 -6.753149646E-02
   123 -3.887013804E-03
   124  1.278965574E-02
   125 -8.778528565E-03
   126  8.664187837E-03
   127 -2.228004922E-03
   128  7.694041111E-03
   129  7.483302452E-02
   130  1.384558665E-03
   131  1.283937210E-01
   132 -3.804369492E-02
   133 -5.994456114E-03
   134 -9.560518714E-03
   135  4.525974924E-02
   136  3.425168345E-02
   137  4.885370834E-04
   138  2.759356849E-02
   139  6.467719951E-02
   140  4.895754166E-02
   141  6.944416662E-04
   142  5.060452008E-02
   143  5.937662948E-02
   144  4.489061655E-02
   145  6.521031522E-04
   146  1.340399634E-02
   147 -6.026735766E-03
   148  7.489917947E-03
   149 -1.854612964E-05
   150 -3.258280964E-04
   151 -7.862278263E-02
   152 -4.676123262E-02
   153 -3.566025326E-02
   154 -9.942953336E-04
   155  3.199897605E-03
   156  5.126315728E-03
   157 -7.159514802E-02
   158 -5.654853018E-02
   159 -6.031336866E-03
   160 -1.536482464E-02
   161 -1.040420863E-01
   162 -8.137798743E-02
   163 -7.042497466E-03
   164 -2.520704945E-02
   165 -9.059950608E-02
   166 -7.345360281E-02
   167 -1.167920291E-02
   168  1.053922849E-02
   169 -2.300744423E-03
   170  1.209807744E-02
   171  2.795883750E-04
   172  8.311275592E-03
   173 -7.898277740E-02
   174 -1.480218238E-02
   175 -1.935163164E-02
   176 -1.725671858E-02
   177 -2.896061827E-04
   178 -4.759365117E-04
   179  6.533415839E-02
   180  3.676747906E-02
   181  3.121936365E-02
   182  1.331507882E-03
   183  9.330716612E-02
   184  5.090355801E-02
   185  4.819090782E-02
   186 -2.518244972E-03
   187  8.061451970E-02
   188  4.540840490E-02
   189  2.543566721E-02
   190  1.044577374E-02
   191 -6.231252668E-03
   192  7.413418992E-03
   193  3.353288739E-03
   194  5.279673027E-03
   195  1.583657872E-01
   196 -6.266763377E-03
   197  1.539198552E-02
   198  3.988643246E-02
   199  1.069192374E-02
   200  1.705920967E-02
   201  6.149998227E-02
   202 -3.408170295E-03
   203  1.498739547E-02
   204 -5.011203360E-02
   205  8.912904218E-02
   206 -7.700357260E-03
   207  2.251145637E-02
   208 -6.658186853E-02
   209  7.710705621E-02
   210 -5.057532553E-04
   211  1.769220171E-02
   212  3.743471494E-03
   213 -3.352902230E-03
   214  4.598282355E-03
   215  2.250487563E-03
   216  6.711105782E-03
   217 -1.615877535E-02
   218  1.289464503E-03
   219 -1.421420317E-02
   220  4.414330998E-03
   221 -3.109676874E-04
   222 -5.104735414E-04
   223  4.269780183E-02
   224  6.664155536E-02
   225  1.752547214E-02
   226  1.444702113E-03
   227  5.820617666E-02
   228  9.722020357E-02
   229  2.696240316E-02
   230 -2.544212899E-03
   231  5.786164170E-02
   232  7.550938897E-02
   233  1.158515061E-02
   234  1.005915730E-02
   235 -7.394716038E-03
   236  7.212247295E-03
   237  5.415483464E-04
   238  5.860684472E-03
   239  1.597975657E-01
   240 -4.273879335E-03
   241  1.346192370E-02
   242  4.130807988E-02
   243  1.062681000E-02
   244  1.695536434E-02
   245  1.346520814E-02
   246  5.998050401E-02
   247 -1.396982055E-02
   248 -4.980970427E-02
   249  1.685676960E-02
   250  8.767381325E-02
   251 -2.106034145E-02
   252 -6.610216253E-02
   253  2.052864803E-02
   254  7.413403835E-02
   255 -1.637863883E-02
   256  3.742658817E-03
   257 -3.551455892E-03
   258  4.448439080E-03
   259  1.615550030E-03
   260  6.908717180E-03
   261 -7.646172360E-03
   262 -1.327313094E-02
   263  3.442563368E-03
   264 -4.241213167E-03
   265 -3.324320170E-02
   266 -5.253445386E-02
   267 -4.847532652E-02
   268  4.548504759E-04
   269  4.222932641E-03
   270 -2.102007975E-03
   271 -4.198783389E-03
   272  2.961139479E-02
   273  4.536062258E-02
   274  2.820894580E-02
   275  3.267780660E-03
   276  1.820776176E-03
   277 -3.696087075E-03
   278  7.143080564E-03
   279  3.432539795E-02
   280  6.080095679E-02
   281  3.881741500E-02
   282  1.653341396E-03
   283  2.326790448E-04
   284 -2.177977039E-03
   285  8.077486554E-03
   286  3.443049052E-02
   287  6.096118914E-02
   288  3.897551427E-02
   289  6.442161137E-04
   290  1.476790398E-03
   291  2.216915605E-03
   292  8.394920247E-03
   293  5.877085498E-02
   294  9.191931932E-02
   295  6.820801387E-02
   296 -3.929548377E-04
   297 -2.392183847E-03
   298 -4.626544232E-03
   299  1.055227811E-02
   300  2.961503963E-02
   301  4.542457335E-02
   302  2.797491184E-02
   303  4.163063285E-03
   304  6.374335787E-04
   305 -3.158009592E-03
   306  7.827835822E-03
   307 -3.301891253E-02
   308 -5.216608149E-02
   309 -4.845648748E-02
   310  4.576143923E-03
   311 -1.216299601E-03
   312  3.792232069E-04
   313 -3.902581593E-03
   314 -3.245609332E-02
   315 -5.605458332E-02
   316 -3.530357159E-02
   317 -5.498443907E-04
   318  2.163657092E-03
   319 -7.473281974E-04
   320 -3.351529324E-02
   321 -3.227026833E-02
   322 -5.578420275E-02
   323 -3.500314035E-02
   324  1.939436184E-03
   325 -1.114677156E-03
   326  7.511632369E-04
   327 -3.336676388E-02
   328  5.857518358E-02
   329  9.158442879E-02
   330  6.814922675E-02
   331 -2.503660846E-03
   332  2.118439424E-04
   333  4.577763896E-03
   334  1.011918939E-02
   335  2.970957680E-02
   336  4.557121943E-02
   337  2.831627756E-02
   338  2.572692334E-03
   339  2.605431213E-03
   340  3.775306990E-03
   341  7.414115521E-03
   342 -3.303458316E-02
   343 -5.219511095E-02
   344 -4.816162465E-02
   345  4.166481142E-03
   346 -7.127824048E-04
   347  2.157392160E-03
   348 -4.102632100E-03
   349  2.078492269E-02
   350  3.588843310E-02
   351  2.813218229E-02
   352  2.657611497E-03
   353 -9.563431511E-04
   354 -5.896030134E-04
   355  1.008273376E-02
   356  2.081131103E-02
   357  3.594216209E-02
   358  2.806348655E-02
   359  2.064754270E-03
   360 -2.195975963E-04
   361  1.999845657E-03
   362  1.010561846E-02
   363 -8.034303764E-03
   364 -1.176744552E-02
   365 -8.843224328E-03
   366  4.377399910E-03
   367 -8.497984842E-05
   368  1.022886398E-03
   369 -2.758230370E-03
   370 -3.321435184E-02
   371 -5.247115957E-02
   372 -4.855087166E-02
   373  5.141311925E-05
   374  4.720649302E-03
   375 -3.342527277E-04
   376 -3.681275098E-03
   377  2.972984149E-02
   378  4.557153236E-02
   379  2.820034275E-02
   380  1.677985766E-03
   381  3.780450128E-03
   382  3.233904399E-03
   383  7.488248225E-03
   384  2.080603487E-02
   385  3.591622932E-02
   386  2.808779421E-02
   387 -2.148258489E-04
   388  2.786052835E-03
   389  6.230917170E-04
   390  9.986959913E-03
   391  2.073511285E-02
   392  3.578919139E-02
   393  2.806632974E-02
   394  3.779938920E-04
   395  2.057742159E-03
   396 -1.958758115E-03
   397  1.024231007E-02
   398 -8.179379477E-03
   399 -1.201949087E-02
   400 -8.978929356E-03
   401  1.098034470E-03
   402  4.238170915E-03
   403 -9.536827108E-04
   404 -2.941680167E-03
Ene=   -2.7871434501E-01
Spin= Alpha
Occup=   2.0000000
     1  7.867613387E-06
     2  1.247845722E-05
     3 -2.101071406E-02
     4  2.629695283E-02
     5  9.204419917E-02
     6 -2.889034969E-05
     7 -3.076906219E-02
     8  3.851381561E-02
     9  1.347831063E-01
    10 -1.108913170E-04
    11 -2.708513589E-02
    12  3.390503487E-02
    13  1.187308527E-01
    14 -8.047459170E-04
    15 -1.191437372E-02
    16 -8.226034145E-03
    17  5.000829471E-03
    18 -1.566435845E-03
    19 -5.600343707E-04
    20  1.046875786E-02
    21 -1.422004777E-02
    22 -4.783778201E-02
    23 -5.785349738E-03
    24 -9.211316272E-03
    25  3.189393092E-02
    26  3.497698871E-03
    27 -6.843527720E-02
    28  2.563302418E-02
    29  4.781484391E-02
    30  6.340820899E-03
    31 -9.713033597E-02
    32  5.517361750E-02
    33  3.596940233E-02
    34 -9.381970977E-03
    35 -8.598885614E-02
    36  2.558794504E-04
    37 -9.253336784E-03
    38 -1.196998378E-02
    39  6.172165649E-03
    40  2.164239965E-03
    41  1.217193525E-01
    42  5.599110257E-03
    43 -1.197825325E-03
    44  3.599532931E-04
    45 -1.173178837E-05
    46 -1.817117611E-05
    47  8.914572263E-03
    48 -1.119761670E-02
    49 -3.888335696E-02
    50  3.894911529E-05
    51  1.157260723E-02
    52 -1.455348361E-02
    53 -5.045922612E-02
    54  2.301082524E-04
    55  1.499631605E-02
    56 -1.886798793E-02
    57 -6.547837677E-02
    58 -3.036523020E-04
    59 -1.355689390E-02
    60 -1.040074024E-02
    61  6.019624238E-03
    62 -1.507431115E-03
    63  1.075190880E-02
    64 -2.974136468E-03
    65  1.103249023E-04
    66  9.871522941E-03
    67  5.558981994E-03
    68  8.841089537E-03
    69 -2.639412069E-02
    70  2.068983472E-02
    71  8.868186717E-02
    72 -2.438800154E-02
    73 -3.651670402E-02
    74  3.059656031E-02
    75  1.270051288E-01
    76 -6.725667629E-02
    77 -4.213601115E-02
    78  2.403514591E-02
    79  1.218205901E-01
    80  4.084228040E-03
    81 -1.836626098E-02
    82 -9.048421633E-03
    83  7.587539340E-03
    84 -1.655279470E-05
    85 -1.466211217E-01
    86 -3.167541420E-02
    87 -1.639553928E-02
    88  1.316013493E-02
    89 -5.771222439E-03
    90 -9.188127556E-03
    91  4.107973004E-02
    92 -8.593251460E-03
    93 -6.293413234E-02
    94  2.554956282E-02
    95  6.037830672E-02
    96 -1.020789681E-02
    97 -8.960501008E-02
    98  5.525010996E-02
    99  3.852287411E-02
   100 -1.254653978E-02
   101 -8.461273806E-02
   102 -4.644056738E-03
   103 -1.333957955E-02
   104 -6.614787092E-03
   105  5.312733072E-03
   106 -5.390044355E-04
   107  1.402372262E-01
   108  6.195059733E-04
   109  8.424980770E-03
   110 -6.265047657E-03
   111 -5.314980044E-07
   112 -8.987112909E-07
   113 -2.100371782E-02
   114  2.628971359E-02
   115  9.205160695E-02
   116  8.777655828E-06
   117 -3.076227161E-02
   118  3.849951853E-02
   119  1.347958781E-01
   120 -7.642195947E-05
   121 -2.702722526E-02
   122  3.386115529E-02
   123  1.186622501E-01
   124  2.714046743E-04
   125 -1.103660019E-02
   126 -9.392692198E-03
   127  5.164595376E-03
   128 -9.672294512E-04
   129 -9.936949289E-03
   130  1.426419656E-02
   131 -1.795647428E-02
   132 -5.069983142E-02
   133  7.867340869E-06
   134  1.240375353E-05
   135  2.141479725E-02
   136 -2.673118442E-02
   137 -9.387233144E-02
   138 -2.912680471E-05
   139  3.113725807E-02
   140 -3.886340094E-02
   141 -1.365093502E-01
   142 -1.356584360E-04
   143  2.188370305E-02
   144 -2.739047907E-02
   145 -9.593361324E-02
   146 -2.369980842E-04
   147 -1.010569575E-02
   148 -7.757607317E-03
   149  4.479443430E-03
   150 -1.110094876E-03
   151 -6.760218798E-04
   152  3.744926170E-03
   153 -4.708290786E-03
   154 -1.572351121E-02
   155 -5.566736892E-03
   156 -8.853321761E-03
   157 -1.411269932E-02
   158  3.002305318E-02
   159  8.884674756E-02
   160  2.441793069E-02
   161 -2.149571653E-02
   162  4.202529951E-02
   163  1.272001511E-01
   164  6.740395854E-02
   165 -1.346706050E-02
   166  4.568277572E-02
   167  1.222601499E-01
   168 -4.805398002E-03
   169 -1.344103698E-02
   170 -1.535248492E-02
   171  6.543037573E-03
   172 -3.507363988E-03
   173  1.535392297E-01
   174  2.622100606E-02
   175  2.571603031E-02
   176  1.564686910E-02
   177  5.786450005E-03
   178  9.213195635E-03
   179 -1.096319685E-02
   180 -2.904818239E-02
   181 -6.905059759E-02
   182 -2.564175453E-02
   183 -1.756188693E-02
   184 -4.330698680E-02
   185 -9.807363435E-02
   186 -5.512731016E-02
   187  6.591153029E-04
   188 -3.625506126E-02
   189 -8.643421394E-02
   190 -7.859761840E-04
   191 -1.397341210E-02
   192 -5.851699582E-03
   193  4.320216968E-03
   194 -4.786609750E-03
   195 -1.391196985E-01
   196  1.488881055E-03
   197 -9.599608131E-03
   198 -9.763969850E-04
   199  7.558647002E-06
   200  1.235326998E-05
   201  3.906434201E-03
   202 -4.856853252E-03
   203 -1.697835886E-02
   204 -4.356187798E-05
   205  5.029116614E-03
   206 -6.239546656E-03
   207 -2.181458394E-02
   208  3.868578499E-05
   209  5.948751425E-03
   210 -7.474733992E-03
   211 -2.612212526E-02
   212 -3.064749039E-03
   213 -9.513132866E-03
   214 -2.252405644E-03
   215  2.746120740E-03
   216 -2.425620189E-03
   217 -2.550241470E-03
   218 -3.307630319E-03
   219  4.617896139E-03
   220  1.711363188E-02
   221  5.770440487E-03
   222  9.187465106E-03
   223 -1.803012103E-03
   224 -4.127257624E-02
   225 -6.350294607E-02
   226 -2.555978195E-02
   227 -5.020245264E-03
   228 -6.006099206E-02
   229 -9.047496626E-02
   230 -5.509655844E-02
   231  2.992422522E-03
   232 -3.949685435E-02
   233 -8.499852329E-02
   234  4.109703272E-03
   235 -9.989655645E-03
   236 -1.128278792E-02
   237  4.853604146E-03
   238 -1.990286876E-03
   239 -1.281765025E-01
   240 -6.564522254E-03
   241  1.567655302E-03
   242 -3.823327939E-03
   243 -3.348157229E-05
   244 -5.344334094E-05
   245  3.876623781E-03
   246 -4.999419675E-03
   247 -1.694195079E-02
   248  1.567040197E-04
   249  4.983501822E-03
   250 -6.457202213E-03
   251 -2.176811323E-02
   252  2.124326739E-04
   253  5.928182186E-03
   254 -7.624104857E-03
   255 -2.601757308E-02
   256  2.742999449E-03
   257 -4.718800444E-03
   258 -8.666451341E-03
   259  3.569670114E-03
   260  8.421938177E-04
   261  1.220991166E-03
   262 -3.533709736E-03
   263  4.402488605E-03
   264  1.691227767E-02
   265 -2.827684667E-03
   266 -9.832705605E-03
   267 -2.219791818E-03
   268  1.128637604E-03
   269  4.792193392E-04
   270 -4.250716256E-03
   271 -1.913260747E-02
   272 -4.536800182E-02
   273 -7.665938897E-02
   274 -5.542090485E-02
   275  2.111795413E-03
   276  2.805554959E-03
   277 -6.335501002E-04
   278 -1.842522216E-02
   279 -4.485925785E-02
   280 -6.906745813E-02
   281 -5.546996551E-02
   282  2.052024578E-03
   283  1.462268971E-03
   284 -1.649517575E-04
   285  4.837861282E-03
   286  4.478396190E-02
   287  6.895026952E-02
   288  5.506578782E-02
   289 -1.954861628E-03
   290 -1.587167829E-03
   291 -2.201309253E-04
   292 -4.741359173E-03
   293  8.326665714E-02
   294  1.320073045E-01
   295  1.003855437E-01
   296  4.250012827E-03
   297  2.386161675E-03
   298 -1.818962976E-03
   299  1.909939842E-02
   300 -4.537814935E-02
   301 -7.661424489E-02
   302 -5.607130109E-02
   303  3.394906569E-03
   304  1.109887116E-03
   305  1.391728378E-04
   306 -1.886320818E-02
   307 -2.704399585E-03
   308 -9.623330226E-03
   309 -2.340742411E-03
   310  2.466059469E-03
   311 -1.282732822E-03
   312 -3.448622333E-03
   313 -1.731329721E-02
   314 -2.155378367E-05
   315 -1.862617882E-05
   316 -6.546487194E-05
   317  1.324446488E-03
   318 -1.653052937E-03
   319 -5.805632773E-03
   320  3.437744540E-04
   321  1.040343570E-04
   322  1.717525534E-04
   323  2.202474609E-05
   324  1.326638247E-03
   325 -1.643462700E-03
   326 -5.808677382E-03
   327 -1.272401208E-04
   328 -8.340763253E-02
   329 -1.322272183E-01
   330 -1.005989168E-01
   331 -3.399816206E-03
   332 -3.435189086E-03
   333 -1.926564105E-03
   334 -1.849167279E-02
   335  4.530351185E-02
   336  7.651475489E-02
   337  5.597240250E-02
   338 -3.263129122E-03
   339 -1.280589536E-03
   340 -7.104030650E-04
   341  1.833210091E-02
   342  2.896274839E-03
   343  9.927982602E-03
   344  2.641204951E-03
   345 -7.062125024E-04
   346 -9.066575460E-04
   347 -4.277445561E-03
   348  1.760174599E-02
   349 -2.156556591E-02
   350 -3.513975932E-02
   351 -3.031844181E-02
   352  1.395766572E-03
   353  1.332231410E-05
   354  2.769591761E-05
   355 -1.787015670E-02
   356  2.154915379E-02
   357  3.510658788E-02
   358  3.052343438E-02
   359 -1.276288779E-03
   360 -1.603743292E-04
   361 -5.320550949E-04
   362  1.796033269E-02
   363  3.742218950E-05
   364  6.785056563E-05
   365  5.554164284E-05
   366  2.300434670E-04
   367 -2.878648562E-04
   368 -1.012670201E-03
   369 -2.593803166E-04
   370  2.786954181E-03
   371  9.764958541E-03
   372  2.089381264E-03
   373  6.305071620E-04
   374 -2.688780642E-03
   375 -3.471603334E-03
   376  1.816688999E-02
   377  4.529592379E-02
   378  7.651799850E-02
   379  5.561412763E-02
   380 -1.982833157E-03
   381 -2.985962830E-03
   382  6.374332423E-05
   383  1.868260265E-02
   384  2.151695946E-02
   385  3.505407672E-02
   386  3.044586969E-02
   387 -3.860688918E-04
   388 -1.348471337E-03
   389  4.936067960E-06
   390  1.802546419E-02
   391 -2.159394375E-02
   392 -3.518622773E-02
   393 -3.057081288E-02
   394  5.039316201E-04
   395  1.188026899E-03
   396 -5.046558736E-04
   397 -1.804877921E-02
   398 -2.190972798E-05
   399 -5.676525425E-05
   400  9.796834326E-06
   401  2.281399875E-04
   402 -2.969754073E-04
   403 -1.011213394E-03
   404  2.194615374E-04
Ene=   -1.3431573882E-02
Spin= Alpha
Occup=   0.0000000
     1  7.544606484E-04
     2  1.095694291E-03
     3 -3.783998111E-03
     4 -2.466401675E-03
     5 -1.483982331E-04
     6  1.001262986E-03
     7 -4.914535898E-03
     8 -3.339482941E-03
     9 -2.915283455E-04
    10 -5.953483359E-02
    11  1.063844796E-03
    12  1.431375498E-03
    13  9.559421326E-04
    14  2.611441092E-03
    15  3.202503888E-04
    16  2.809836815E-03
    17  5.435168490E-03
    18 -9.812784727E-04
    19 -4.850354338E+00
    20  1.837844032E-01
    21 -1.128213342E+00
    22  3.091957924E-01
    23 -1.246420362E-02
    24 -2.003823251E-02
    25 -1.162400718E-02
    26  1.672315918E-02
    27  7.368592645E-03
    28  5.632424153E-02
    29 -1.498169575E-02
    30  2.277369960E-02
    31  1.034527528E-02
    32  2.135405006E-01
    33 -5.571797319E-02
    34  5.306429913E-02
    35  2.073214438E-02
    36  7.160142002E-04
    37 -1.015733823E-03
    38 -2.602021653E-03
    39 -1.817067211E-04
    40  2.031687617E-03
    41  3.525304715E+00
    42  1.521447462E-01
    43  8.367249596E-02
    44 -4.532388133E-01
    45 -1.279573379E-02
    46 -2.073771482E-02
    47  1.426517816E-02
    48  1.083970102E-02
    49  1.805464425E-04
    50  6.264071033E-02
    51  1.835766031E-02
    52  1.399608629E-02
    53  2.400709535E-04
    54  1.356192933E-01
    55  7.946289618E-02
    56  5.919966704E-02
    57  9.011600597E-04
    58  1.263018024E-04
    59  1.426483662E-04
    60 -2.137061844E-04
    61 -2.434150072E-04
    62 -7.979937577E-04
    63  2.659256746E+00
    64 -1.260213521E-01
    65 -8.819428492E-02
    66  2.382029629E-02
    67 -3.937599567E-03
    68 -6.432491175E-03
    69 -1.788268821E-02
    70 -5.711713347E-03
    71  1.701288262E-02
    72  2.279327537E-02
    73 -2.429540249E-02
    74 -7.766820150E-03
    75  2.338439935E-02
    76  5.107735943E-02
    77 -7.659200709E-02
    78 -1.428970521E-02
    79  9.267840007E-02
    80 -3.083035127E-03
    81  5.504479213E-03
    82  7.218306336E-04
    83 -2.029789871E-03
    84 -6.229911555E-04
    85 -3.934822622E+00
    86 -8.879539860E-01
    87  1.861007850E-02
    88  1.431176742E+00
    89 -1.246825215E-02
    90 -2.003926956E-02
    91  7.191693060E-03
    92 -8.176701836E-03
    93  1.873611281E-02
    94  5.619253057E-02
    95  9.786623601E-03
    96 -1.030170403E-02
    97  2.539709479E-02
    98  2.153088356E-01
    99  1.794014915E-02
   100 -4.277981892E-02
   101  6.359740400E-02
   102 -1.643754994E-03
   103 -2.195912798E-03
   104  6.023608364E-04
   105  2.177763287E-03
   106 -5.217395558E-05
   107  3.828368677E+00
   108  2.800225635E-01
   109 -7.771054838E-02
   110 -4.268862669E-01
   111  7.550408023E-04
   112  1.095196179E-03
   113 -3.392006052E-03
   114 -2.982730834E-03
   115  8.214864740E-05
   116  1.109308581E-03
   117 -4.574526452E-03
   118 -3.843117819E-03
   119 -8.663179198E-05
   120 -6.108559789E-02
   121  2.511534617E-03
   122  4.317791650E-04
   123  6.840970263E-04
   124  2.541829005E-03
   125 -2.893243344E-03
   126  4.812767528E-04
   127 -5.111408568E-03
   128  1.985683522E-03
   129 -5.036657091E+00
   130 -9.761273423E-01
   131  4.352894203E-01
   132 -4.549834148E-01
   133 -1.211226083E-02
   134 -1.935203441E-02
   135 -1.934477360E-02
   136 -1.468466911E-02
   137 -2.149538029E-04
   138  5.102534224E-02
   139 -2.628916006E-02
   140 -2.011328724E-02
   141 -5.182862698E-04
   142  2.781111769E-01
   143 -4.730794677E-02
   144 -3.425413643E-02
   145  2.519632571E-03
   146  4.916227006E-03
   147 -1.681157557E-03
   148  2.158263679E-03
   149 -5.259034650E-04
   150 -1.885225633E-03
   151  5.130652158E+00
   152  4.721977878E-01
   153  3.696696511E-01
   154  2.138455093E-02
   155 -3.933154286E-03
   156 -6.418689757E-03
   157 -9.998754885E-03
   158 -1.546792158E-02
   159 -1.735016915E-02
   160  2.247468980E-02
   161 -1.362785605E-02
   162 -2.107677606E-02
   163 -2.388445947E-02
   164  5.469776043E-02
   165 -3.240921260E-02
   166 -6.721797332E-02
   167 -9.123063538E-02
   168 -3.321226757E-03
   169 -2.110839116E-03
   170 -5.176832904E-03
   171  1.400340646E-03
   172 -1.496132236E-03
   173 -3.203192064E+00
   174 -1.455709772E-01
   175 -7.350038528E-01
   176 -1.342808213E+00
   177 -1.246153980E-02
   178 -2.004774242E-02
   179  1.313647129E-02
   180 -1.553537054E-02
   181 -7.351841175E-03
   182  5.667901062E-02
   183  1.797538909E-02
   184 -2.057033464E-02
   185 -1.025067957E-02
   186  2.096631684E-01
   187  4.009626470E-02
   188 -6.639938172E-02
   189 -2.050082041E-02
   190  8.266296787E-04
   191  2.791103801E-03
   192  2.938693214E-04
   193  1.102368374E-03
   194  1.669132860E-03
   195  3.085159589E+00
   196  1.604538537E-01
   197  8.813266173E-02
   198  3.972928371E-01
   199 -8.690166976E-03
   200 -1.394027958E-02
   201  2.625445639E-02
   202 -8.335012703E-03
   203  8.349894003E-03
   204  3.894072370E-02
   205  3.668473703E-02
   206 -1.185600752E-02
   207  1.180170207E-02
   208  1.664275009E-01
   209  7.758788167E-02
   210 -2.989105849E-02
   211  2.529750648E-02
   212 -8.452938458E-04
   213  1.019767744E-03
   214  3.383772009E-05
   215  2.203253739E-03
   216 -4.509909966E-04
   217  3.426924553E+00
   218 -2.668906104E-01
   219  1.317148825E-01
   220 -8.966135720E-02
   221 -1.246378454E-02
   222 -2.005374852E-02
   223 -5.638291449E-03
   224  9.329056645E-03
   225 -1.869214123E-02
   226  5.679306830E-02
   227 -6.989488641E-03
   228  1.254593860E-02
   229 -2.534506598E-02
   230  2.084924600E-01
   231 -3.495194565E-02
   232  3.137032480E-02
   233 -6.582209892E-02
   234 -1.621881019E-03
   235  1.659257626E-05
   236  2.390823391E-03
   237 -1.815903758E-03
   238  1.046213270E-03
   239  3.181180832E+00
   240 -2.261963212E-02
   241  3.306276151E-01
   242  3.115213144E-01
   243 -8.683362192E-03
   244 -1.393480850E-02
   245 -8.805710677E-04
   246  2.760899520E-02
   247 -8.031021750E-03
   248  3.899966071E-02
   249 -1.449785801E-03
   250  3.867635433E-02
   251 -1.131567860E-02
   252  1.653077650E-01
   253 -7.697777188E-03
   254  8.290062359E-02
   255 -2.517326276E-02
   256 -8.822419363E-04
   257 -2.983189780E-04
   258 -8.932412454E-04
   259 -2.106915266E-03
   260  7.593164429E-04
   261  3.379252756E+00
   262  5.469480677E-02
   263 -2.780538035E-01
   264  9.536308561E-02
   265 -2.995799731E-04
   266 -8.011087736E-03
   267 -2.756322049E-01
   268  5.445621300E-03
   269 -5.341381181E-04
   270  2.675594237E-03
   271 -6.026498304E-01
   272  3.611507962E-04
   273 -2.723454009E-03
   274 -2.450527009E-01
   275 -2.902791907E-03
   276 -2.627564094E-03
   277 -4.671939040E-03
   278 -4.034854578E-01
   279  1.520957339E-03
   280 -4.019404907E-03
   281 -2.717933415E-01
   282 -5.406871651E-04
   283 -2.746813074E-03
   284 -5.153780742E-03
   285 -3.613317878E-01
   286  1.509907375E-03
   287 -4.054564624E-03
   288 -2.724642012E-01
   289 -2.873256382E-03
   290  1.618243539E-04
   291  5.106321419E-03
   292 -3.344665112E-01
   293 -4.092441275E-03
   294 -1.314270485E-02
   295 -2.823089079E-01
   296  3.184746089E-03
   297  2.458048094E-04
   298 -4.734066596E-03
   299 -9.850980377E-01
   300  3.221615519E-04
   301 -2.284664907E-03
   302 -2.526930657E-01
   303 -1.486408147E-03
   304 -4.545021939E-03
   305 -3.790549325E-03
   306 -3.990096858E-01
   307 -3.175976440E-04
   308 -7.786028136E-03
   309 -2.808224643E-01
   310  4.573009321E-04
   311  6.060422794E-03
   312 -3.154527349E-04
   313 -5.868250608E-01
   314 -1.461431894E-03
   315 -7.222655583E-03
   316 -2.583024109E-01
   317  5.097097561E-03
   318 -2.874240987E-03
   319  1.960762728E-03
   320 -5.100383967E-01
   321 -1.448635944E-03
   322 -7.331658125E-03
   323 -2.569188307E-01
   324 -1.364347699E-03
   325  5.687271982E-03
   326 -1.955689907E-03
   327 -5.069647184E-01
   328 -4.169511715E-03
   329 -1.230361057E-02
   330 -2.929056417E-01
   331  1.037584674E-03
   332  2.976638376E-03
   333  4.802480179E-03
   334 -9.591702270E-01
   335  3.709601150E-04
   336 -2.871138534E-03
   337 -2.456207042E-01
   338 -3.400846649E-03
   339 -2.159703951E-03
   340  4.591825587E-03
   341 -4.259632616E-01
   342 -2.213963369E-04
   343 -8.763463778E-03
   344 -2.640734804E-01
   345  9.700417326E-04
   346  5.429681289E-03
   347 -2.592591847E-03
   348 -5.658826437E-01
   349  1.645405178E-03
   350  8.488695759E-04
   351 -1.546218778E-01
   352  1.184497777E-03
   353 -3.866185241E-03
   354 -3.499412796E-03
   355 -4.439963333E-01
   356  1.629193161E-03
   357  8.440496990E-04
   358 -1.579860962E-01
   359 -7.715429873E-04
   360 -1.419021011E-03
   361  5.091632586E-03
   362 -4.498419841E-01
   363  4.749972453E-04
   364 -3.081887031E-03
   365 -1.660125449E-01
   366  2.540153199E-03
   367  4.864410030E-03
   368 -8.002170175E-04
   369 -3.566385039E-01
   370 -2.500353056E-04
   371 -8.484711305E-03
   372 -2.706464836E-01
   373  5.975089916E-03
   374 -1.180861972E-03
   375  4.220268239E-04
   376 -5.676803073E-01
   377  3.463027099E-04
   378 -2.599164586E-03
   379 -2.491197402E-01
   380 -4.838723764E-03
   381 -2.685359807E-04
   382  3.734228260E-03
   383 -4.130936614E-01
   384  1.650892066E-03
   385  7.088740755E-04
   386 -1.550194103E-01
   387 -3.464568242E-03
   388  2.139045275E-03
   389  3.469469504E-03
   390 -4.499851362E-01
   391  1.666946162E-03
   392  5.026684887E-04
   393 -1.534519442E-01
   394 -1.487740861E-03
   395 -2.873132818E-04
   396 -5.114647870E-03
   397 -4.421596271E-01
   398  5.116988396E-04
   399 -3.504766812E-03
   400 -1.632364866E-01
   401  5.341191828E-03
   402  1.146654517E-03
   403  8.841303859E-04
   404 -3.516023892E-01
Ene=    5.3146274266E-03
Spin= Alpha
Occup=   0.0000000
     1 -4.071442280E-03
     2 -6.723862004E-03
     3  6.418455176E-03
     4  5.352004559E-03
     5 -4.087229150E-05
     6  2.221346893E-02
     7  1.223469528E-02
     8  1.477978570E-02
     9 -1.328796293E-03
    10 -2.675712764E-03
    11  2.494003849E-02
    12 -5.046825233E-02
    13  1.970254433E-02
    14 -8.927926494E-04
    15  2.082745327E-03
    16 -8.285983228E-04
    17  2.321227243E-03
    18 -3.665003236E-03
    19  4.211625581E+00
    20  4.871102075E-01
    21 -1.924468950E+00
    22  6.593507739E-01
    23  4.813562373E-04
    24  7.742799363E-04
    25 -1.444905586E-02
    26 -6.084185739E-03
    27 -3.404324606E-03
    28 -2.161321347E-03
    29 -2.025533601E-02
    30 -1.000285554E-02
    31 -1.771942445E-03
    32  4.935757078E-03
    33 -3.950616278E-02
    34 -1.541626665E-03
    35 -3.866035007E-02
    36 -7.021085477E-04
    37  1.536761578E-04
    38 -3.787567238E-03
    39 -7.030523628E-04
    40  1.113402004E-03
    41  5.032710505E-01
    42 -3.383041348E-01
    43 -3.071301141E-01
    44 -1.961314913E-01
    45  6.674822793E-03
    46  1.047382910E-02
    47 -2.885636700E-02
    48 -2.218142737E-02
    49 -3.755422280E-04
    50 -2.362213694E-02
    51 -4.144331773E-02
    52 -3.183445467E-02
    53 -4.718351186E-04
    54 -2.180658509E-01
    55 -4.242581133E-02
    56 -3.325324515E-02
    57 -1.026417572E-03
    58 -1.752986136E-04
    59  7.057730245E-04
    60 -9.920545664E-04
    61 -7.508709925E-04
    62 -2.505160800E-03
    63 -5.610749498E+00
    64  6.177783300E-01
    65  4.478322263E-01
    66 -7.137980510E-04
    67 -6.789003523E-03
    68 -1.095322201E-02
    69 -8.297100307E-03
    70  3.839470085E-03
    71  2.169450104E-02
    72  3.153576742E-02
    73 -7.770664510E-03
    74  7.778988162E-03
    75  2.906563131E-02
    76  1.741031629E-01
    77 -5.923804377E-02
    78  2.664704540E-02
    79  1.543326312E-01
    80 -3.035876599E-03
    81  2.996805352E-03
    82 -1.202263211E-03
    83 -9.751938903E-04
    84 -1.091652565E-03
    85 -4.715646803E+00
    86 -1.115859925E+00
    87  1.801854141E-02
    88  1.823144884E+00
    89  3.281770399E-04
    90  5.402559641E-04
    91 -8.842058904E-03
    92 -1.362063732E-02
    93  2.227989827E-04
    94 -1.822219119E-03
    95 -1.485665883E-02
    96 -1.740338431E-02
    97  1.854816155E-03
    98  1.307083328E-02
    99 -1.263700751E-04
   100 -5.378617928E-02
   101 -1.600321315E-02
   102 -3.201532403E-03
   103 -1.053996668E-03
   104 -3.641357951E-04
   105  1.835787615E-03
   106 -1.145631839E-03
   107  6.715999093E-01
   108 -3.336824356E-01
   109 -3.331156079E-01
   110 -1.905989972E-01
   111 -4.017403685E-03
   112 -6.631722290E-03
   113  6.777033237E-03
   114  5.010720727E-03
   115  1.338461283E-04
   116  2.193050746E-02
   117  1.705746306E-02
   118  8.395308465E-03
   119  1.540909760E-03
   120 -2.021854187E-03
   121 -3.810219062E-02
   122  3.810675985E-02
   123 -1.902614675E-02
   124 -9.661823161E-04
   125  1.579416335E-04
   126 -2.240150464E-03
   127 -3.955755398E-03
   128 -1.941756664E-03
   129  3.870902059E+00
   130 -1.541344612E+00
   131  9.431228139E-01
   132 -5.919468131E-01
   133 -1.091650615E-02
   134 -1.713986687E-02
   135 -2.867978411E-02
   136 -2.208073613E-02
   137 -3.030250871E-04
   138  3.739226842E-02
   139 -4.324820033E-02
   140 -3.321412455E-02
   141 -4.882682664E-04
   142  3.949001327E-01
   143  5.135532200E-04
   144 -1.438752138E-03
   145  4.613864459E-04
   146  2.220957593E-03
   147 -6.644419061E-04
   148  7.651200491E-04
   149 -4.004124502E-04
   150 -1.407141792E-03
   151  6.517340878E+00
   152  3.893905755E-01
   153  2.763527703E-01
   154  1.233974630E-02
   155 -6.812527674E-03
   156 -1.099078330E-02
   157  1.610990078E-03
   158 -8.600546514E-03
   159 -2.198668769E-02
   160  3.160903138E-02
   161  5.541421620E-03
   162 -8.914263006E-03
   163 -2.934757281E-02
   164  1.758930527E-01
   165  1.062168477E-02
   166 -6.132558927E-02
   167 -1.568875680E-01
   168 -3.091675909E-03
   169  3.955750980E-04
   170 -3.170204761E-03
   171  1.571052637E-04
   172 -1.374589468E-03
   173 -4.743828797E+00
   174 -2.995125003E-01
   175 -1.019616289E+00
   176 -1.872488512E+00
   177  3.089394835E-04
   178  5.132588502E-04
   179 -9.418374408E-03
   180 -1.286658740E-02
   181  2.965381516E-03
   182 -1.842958704E-03
   183 -1.468319329E-02
   184 -1.763063980E-02
   185  1.105442351E-03
   186  1.493770936E-02
   187 -1.252092186E-02
   188 -3.782435870E-02
   189  3.923373201E-02
   190 -6.340432726E-04
   191  3.633322449E-03
   192 -1.123388237E-03
   193  1.037906195E-03
   194  5.550842463E-04
   195  8.162317915E-01
   196 -4.349461901E-01
   197 -2.039971374E-01
   198  1.877441774E-01
   199  1.280988318E-02
   200  2.059359001E-02
   201 -2.048232025E-02
   202 -7.112187555E-03
   203 -2.718096750E-03
   204 -6.182704500E-02
   205 -3.387191693E-02
   206 -1.076788626E-02
   207 -4.772763291E-03
   208 -1.546084771E-01
   209 -6.629700220E-02
   210  2.692571865E-04
   211 -1.530209719E-02
   212 -3.470492580E-05
   213  1.834767974E-04
   214  2.343111002E-04
   215  7.943206026E-04
   216  6.331379247E-05
   217 -1.071291456E+00
   218 -2.981165249E-01
   219 -1.964320565E-01
   220 -1.881569680E-02
   221  4.574025299E-04
   222  7.364336239E-04
   223 -1.517312444E-02
   224 -5.163535795E-03
   225 -3.258305008E-04
   226 -2.076721646E-03
   227 -2.026642311E-02
   228 -9.982608397E-03
   229 -2.018736024E-03
   230  6.075819453E-03
   231 -5.119399726E-02
   232  1.349732474E-02
   233  1.421873518E-02
   234 -3.200770606E-03
   235  6.333735756E-04
   236  1.004245984E-03
   237 -2.211480103E-03
   238 -4.183149567E-05
   239  4.292260110E-01
   240 -4.246701876E-01
   241 -1.926100433E-01
   242  1.431967492E-01
   243  1.314273815E-02
   244  2.112291043E-02
   245 -1.216533873E-02
   246 -1.853384886E-02
   247  2.420767726E-03
   248 -6.333775584E-02
   249 -1.922038518E-02
   250 -3.084646397E-02
   251  4.321662768E-03
   252 -1.592236466E-01
   253 -1.723687939E-02
   254 -6.688112197E-02
   255  1.450656870E-02
   256 -4.619831142E-05
   257 -2.682326552E-04
   258 -8.830779327E-05
   259 -6.334386927E-04
   260  4.688950297E-04
   261 -1.018368367E+00
   262 -2.552418872E-01
   263 -2.551869990E-01
   264  1.066348036E-02
   265  2.882620672E-03
   266  6.435449902E-03
   267 -9.372570997E-02
   268  2.549154732E-03
   269 -3.161640649E-06
   270  3.956381559E-04
   271 -3.477476091E-01
   272 -7.171152749E-03
   273 -1.638177044E-02
   274  9.728653247E-02
   275  9.333331912E-04
   276  1.444418967E-03
   277  1.339849838E-03
   278  3.117130277E-01
   279 -5.996525369E-03
   280 -1.368946360E-02
   281  2.034914956E-01
   282  1.083341211E-03
   283  3.104902943E-03
   284  5.003044911E-03
   285  5.440142804E-01
   286 -5.972444789E-03
   287 -1.354917916E-02
   288  2.006119593E-01
   289  3.336367802E-03
   290  2.821867139E-04
   291 -4.931241527E-03
   292  5.295770850E-01
   293 -3.360844077E-03
   294 -2.913947552E-02
   295 -2.449201478E-01
   296  3.922298945E-03
   297  1.745005658E-03
   298 -2.734468372E-03
   299 -1.580812641E+00
   300 -7.180008872E-03
   301 -1.608376716E-02
   302  9.488999691E-02
   303  1.015642034E-03
   304  1.265941458E-03
   305  1.366198959E-03
   306  2.932850149E-01
   307  3.070843606E-03
   308  6.671131281E-03
   309 -9.531215449E-02
   310  7.488061987E-04
   311  2.480661100E-03
   312 -7.136434982E-04
   313 -3.599093056E-01
   314  2.970857030E-03
   315  9.316057293E-03
   316 -2.081259627E-01
   317  6.066530128E-03
   318 -2.600844585E-03
   319  2.119345740E-03
   320 -9.714260994E-01
   321  3.145995660E-03
   322  9.500633294E-03
   323 -2.122188915E-01
   324 -8.626428772E-04
   325  6.625137368E-03
   326 -2.076489623E-03
   327 -9.959760759E-01
   328 -3.357447732E-03
   329 -2.944656252E-02
   330 -2.464933916E-01
   331  2.660018409E-03
   332  3.311239535E-03
   333  2.804470152E-03
   334 -1.593078462E+00
   335 -7.164105859E-03
   336 -1.599112713E-02
   337  9.230149465E-02
   338  1.591038182E-03
   339  5.084875248E-04
   340 -1.255023203E-03
   341  2.946811649E-01
   342  3.050830919E-03
   343  6.762285492E-03
   344 -9.783401067E-02
   345  6.773735270E-04
   346  2.574155644E-03
   347 -4.092756850E-04
   348 -3.540488464E-01
   349 -2.118377407E-03
   350 -1.300464008E-02
   351  2.500544560E-01
   352  1.698067402E-03
   353  4.155669708E-03
   354  5.527173447E-03
   355  9.031845893E-01
   356 -2.104404261E-03
   357 -1.289896563E-02
   358  2.494253958E-01
   359  4.217503630E-03
   360  9.797571206E-04
   361 -5.609827003E-03
   362  8.938320416E-01
   363  2.534629291E-03
   364 -7.556458738E-04
   365  1.722418290E-01
   366 -7.929178623E-04
   367 -2.515174979E-03
   368  5.282836516E-04
   369  2.652702764E-01
   370  2.895653240E-03
   371  6.267343246E-03
   372 -8.957105275E-02
   373  2.488001450E-03
   374  8.461048159E-05
   375  7.342028999E-04
   376 -3.570602010E-01
   377 -7.131728198E-03
   378 -1.650449820E-02
   379  1.004352293E-01
   380  1.529722914E-03
   381  6.729471487E-04
   382 -1.340471166E-03
   383  3.032700283E-01
   384 -2.078246776E-03
   385 -1.319545938E-02
   386  2.561779077E-01
   387  4.620494646E-03
   388  5.818591294E-04
   389 -5.541393986E-03
   390  9.078471813E-01
   391 -2.093135835E-03
   392 -1.317048838E-02
   393  2.571289692E-01
   394  2.026240795E-03
   395  3.816707587E-03
   396  5.824863139E-03
   397  9.137275995E-01
   398  2.458303883E-03
   399 -1.582507453E-03
   400  1.825565284E-01
   401 -2.826407326E-03
   402 -4.152440830E-05
   403 -6.317092723E-04
   404  2.974677983E-01
Ene=    5.9111668007E-03
Spin= Alpha
Occup=   0.0000000
     1  2.302633547E-03
     2  3.832236518E-03
     3  1.051347081E-02
     4 -8.289715457E-03
     5  4.813125986E-03
     6 -1.230440143E-02
     7  1.783079603E-02
     8 -1.989013157E-02
     9  9.972959006E-03
    10  8.004237710E-03
    11  3.312398122E-02
    12  5.210866708E-02
    13 -7.146098699E-03
    14 -2.372464899E-04
    15  1.152435283E-03
    16  1.464285267E-04
    17  2.720547676E-03
    18 -1.533252407E-03
    19 -7.751882125E+00
    20 -8.651041488E-01
    21  9.824414668E-01
    22 -3.652299980E-01
    23 -6.951168389E-03
    24 -1.101748252E-02
    25 -1.740794536E-02
    26  1.759566814E-02
    27  3.284275686E-04
    28  2.668464709E-02
    29 -2.468606592E-02
    30  2.572946070E-02
    31  7.558757398E-04
    32  1.970317513E-01
    33 -3.268198608E-02
    34  1.548852535E-02
    35 -1.147762028E-03
    36 -3.052373930E-04
    37  2.664967426E-04
    38  1.283449699E-03
    39  1.863983613E-03
    40 -1.230411952E-03
    41  2.565518879E+00
    42  2.233851957E-01
    43  1.475871557E-01
    44 -2.154225685E-01
    45  6.277115320E-05
    46  1.087050009E-04
    47 -9.137217041E-03
    48  1.151273796E-02
    49 -5.704302615E-03
    50 -5.394176541E-04
    51 -1.575879922E-02
    52  1.998979489E-02
    53 -9.654825381E-03
    54  2.890128873E-03
    55 -7.760917452E-03
    56  6.803522274E-03
    57 -4.974181790E-03
    58 -8.011304492E-06
    59  8.459770069E-04
    60  5.732518075E-04
    61  2.763913373E-03
    62 -7.928905839E-04
    63 -1.185395101E-01
    64 -1.445900647E+00
    65  1.933180856E+00
    66 -9.303663582E-01
    67 -3.095502817E-06
    68 -5.262885701E-06
    69  8.635451874E-03
    70 -1.110049347E-02
    71  5.049137158E-03
    72  1.934817367E-05
    73  1.278771029E-02
    74 -1.653653398E-02
    75  7.594438159E-03
    76 -1.398868986E-03
    77  4.807626323E-02
    78 -6.067198323E-02
    79  2.565625529E-02
    80  5.063055422E-06
    81  8.753439032E-04
    82  4.445139039E-04
    83  2.410131864E-03
    84 -6.694707794E-04
    85  4.358846585E-01
    86  1.978912181E-01
    87 -9.403691566E-02
    88  1.120670841E-02
    89  7.080720631E-03
    90  1.121024427E-02
    91 -8.803782881E-03
    92  1.650937147E-02
    93 -1.687605944E-02
    94 -2.685286117E-02
    95 -1.303840679E-02
    96  2.333796285E-02
    97 -2.446490302E-02
    98 -2.045126411E-01
    99 -7.034454742E-04
   100  3.053091397E-02
   101 -2.101839569E-02
   102 -8.842370376E-04
   103 -8.745724852E-06
   104  9.410793962E-04
   105  2.170616139E-03
   106 -6.078374129E-04
   107 -3.132408213E+00
   108 -2.512638576E-01
   109 -1.190314210E-01
   110  2.246886557E-01
   111 -2.397857350E-03
   112 -3.988264497E-03
   113  5.268817749E-03
   114 -1.229520602E-02
   115  4.749236924E-03
   116  1.278824058E-02
   117  1.458974664E-02
   118 -2.245816919E-02
   119  9.972742916E-03
   120 -6.155477263E-03
   121 -5.777201898E-02
   122 -1.924458575E-02
   123 -8.096927833E-03
   124  2.419637456E-04
   125  5.211688652E-04
   126  9.988002252E-04
   127  3.098960919E-03
   128 -1.471940396E-04
   129  8.038267896E+00
   130 -5.060942686E-01
   131  1.124965179E+00
   132 -3.421490556E-01
   133 -1.280612756E-04
   134 -2.132238834E-04
   135 -1.142282884E-02
   136  1.448236205E-02
   137 -6.816587081E-03
   138  8.310262624E-04
   139 -1.517522524E-02
   140  1.899824269E-02
   141 -8.927622651E-03
   142 -1.162384650E-03
   143 -4.378863117E-02
   144  5.602123935E-02
   145 -2.704348157E-02
   146  6.063586846E-05
   147  4.834675857E-04
   148  3.605549789E-04
   149  1.691475376E-03
   150 -5.107784535E-04
   151 -8.066917863E-02
   152 -4.248901780E-01
   153  5.162485895E-01
   154 -2.291143273E-01
   155 -1.606575404E-04
   156 -2.596729221E-04
   157  8.343830313E-03
   158 -1.156149494E-02
   159  4.540314378E-03
   160  8.010940967E-04
   161  1.244372800E-02
   162 -1.704173434E-02
   163  6.899421607E-03
   164  3.392504014E-03
   165  4.542399098E-02
   166 -6.404228153E-02
   167  2.504616749E-02
   168 -7.197700513E-05
   169  6.312523103E-04
   170  5.054486804E-04
   171  2.460580564E-03
   172 -7.713796818E-04
   173  5.898134437E-02
   174  9.825985312E-02
   175 -1.737587761E-01
   176  3.503762688E-02
   177  6.936834039E-03
   178  1.099177650E-02
   179 -1.247664020E-02
   180  2.119282891E-02
   181  4.514150213E-04
   182 -2.651401081E-02
   183 -1.851138731E-02
   184  3.018088877E-02
   185  7.825682731E-04
   186 -1.978373034E-01
   187 -5.152703299E-03
   188  3.654570763E-02
   189 -5.041106190E-04
   190  3.616869853E-04
   191  1.413940341E-03
   192 -1.015531961E-04
   193  2.243097428E-03
   194  1.068124592E-04
   195 -2.723200406E+00
   196 -1.515730953E-01
   197 -2.028722462E-01
   198 -1.792767824E-01
   199  1.603156678E-02
   200  2.567273944E-02
   201 -2.668919251E-02
   202  1.629015444E-02
   203 -1.099699780E-02
   204 -7.289190711E-02
   205 -4.405918845E-02
   206  2.409805472E-02
   207 -1.735674164E-02
   208 -2.522325258E-01
   209 -7.143539672E-02
   210  4.110620840E-02
   211 -2.842601208E-02
   212  1.881886427E-04
   213 -2.762237741E-04
   214  2.918708758E-04
   215  8.095310520E-05
   216  6.201486449E-04
   217 -2.626600116E+00
   218 -4.975361105E-02
   219  4.398148192E-01
   220 -1.459937977E-01
   221 -7.093544539E-03
   222 -1.123135259E-02
   223 -1.360263817E-02
   224  1.302891136E-02
   225 -1.696412959E-02
   226  2.693674573E-02
   227 -1.909576140E-02
   228  1.881399019E-02
   229 -2.469758136E-02
   230  2.044436854E-01
   231 -2.812009214E-02
   232  9.999874088E-03
   233 -2.081974247E-02
   234  8.590039987E-04
   235  9.241170640E-04
   236 -2.527594593E-04
   237  2.090227024E-03
   238 -5.754162018E-04
   239  3.107077725E+00
   240  1.665516942E-01
   241  2.608860577E-01
   242  2.610693764E-01
   243 -1.574229740E-02
   244 -2.521794981E-02
   245 -8.628853944E-03
   246  2.984786257E-02
   247 -1.071585175E-02
   248  7.182689930E-02
   249 -1.160963005E-02
   250  4.839761552E-02
   251 -1.687869326E-02
   252  2.447648155E-01
   253 -1.963695283E-02
   254  8.093755076E-02
   255 -2.755103943E-02
   256 -1.818036841E-04
   257  2.194469988E-04
   258 -3.343174106E-04
   259 -2.338008393E-04
   260 -5.988903021E-04
   261  2.199734026E+00
   262 -4.121803517E-01
   263  2.607392508E-01
   264 -1.802322618E-01
   265  8.433217787E-03
   266  1.980010901E-02
   267 -2.037112805E-01
   268  5.376389574E-03
   269 -1.540145050E-03
   270  2.388829866E-03
   271 -4.976957579E-01
   272  5.972767965E-04
   273 -1.990958270E-03
   274 -1.027217460E-01
   275 -1.247275344E-03
   276 -1.622679426E-03
   277 -1.660515539E-03
   278 -4.960014569E-01
   279 -1.695263980E-04
   280 -3.730968702E-04
   281  4.719033043E-03
   282  4.580614069E-04
   283 -4.952074811E-04
   284  3.676347253E-04
   285  2.862642235E-02
   286 -2.442571518E-07
   287  2.598357702E-04
   288 -9.904652038E-04
   289  4.319399687E-04
   290 -5.743924849E-04
   291  2.437288275E-04
   292 -1.405333553E-02
   293 -1.069738522E-04
   294  8.211224651E-04
   295 -4.360681408E-03
   296  1.513657245E-03
   297 -1.898646164E-03
   298  8.767208747E-04
   299  2.659085702E-02
   300 -8.534172168E-04
   301  7.772937996E-04
   302  1.112062865E-01
   303  1.262476795E-03
   304  1.848243678E-03
   305  1.785943367E-03
   306  5.266921767E-01
   307 -8.321158503E-03
   308 -1.957324838E-02
   309  2.085498855E-01
   310  3.296734992E-04
   311 -5.980656705E-03
   312  1.025681134E-03
   313  5.234627879E-01
   314  7.838352080E-03
   315  1.835305603E-02
   316 -1.518447950E-01
   317  2.767954233E-03
   318 -1.278734520E-03
   319  1.021796912E-03
   320 -6.965280688E-01
   321 -7.753797637E-03
   322 -1.820008949E-02
   323  1.469400520E-01
   324  4.295004495E-04
   325 -2.831847660E-03
   326  9.265603691E-04
   327  6.770393972E-01
   328 -8.120832976E-05
   329 -3.282183711E-05
   330 -1.353145313E-02
   331  1.519607390E-03
   332 -1.832363847E-03
   333  9.922304582E-04
   334 -4.265249111E-02
   335 -7.384637992E-04
   336  1.260416663E-03
   337  1.049038587E-01
   338  1.977794670E-03
   339  7.881870994E-04
   340 -1.635688239E-03
   341  5.062130986E-01
   342 -8.398338805E-03
   343 -1.911274190E-02
   344  2.016666460E-01
   345  3.746049917E-05
   346 -5.519852634E-03
   347  2.311167472E-03
   348  4.898495894E-01
   349  1.770568009E-04
   350  1.558100526E-04
   351  1.837205954E-01
   352  4.941555222E-04
   353  4.263973835E-03
   354  5.032042742E-03
   355  6.790734103E-01
   356  3.081747253E-04
   357 -5.596947172E-05
   358  1.858735470E-01
   359  2.895766976E-03
   360  1.182016399E-03
   361 -5.738630255E-03
   362  6.689777793E-01
   363 -5.041569049E-03
   364 -1.933905422E-02
   365  3.094197821E-01
   366 -1.411735884E-03
   367 -9.033922245E-03
   368  2.244888606E-03
   369  1.485514931E+00
   370  8.348599395E-03
   371  2.021887230E-02
   372 -2.141568535E-01
   373  5.740661825E-03
   374 -1.916976012E-03
   375  1.106084095E-03
   376 -5.199498869E-01
   377  6.993507127E-04
   378 -1.348211304E-03
   379 -1.126803431E-01
   380 -2.120817779E-03
   381 -7.121605269E-04
   382  1.704587413E-03
   383 -5.100109033E-01
   384 -2.134869597E-04
   385 -4.596510526E-04
   386 -1.770010891E-01
   387 -4.253563027E-03
   388  5.996080320E-04
   389  4.865665336E-03
   390 -6.683450249E-01
   391 -3.385489385E-04
   392 -3.521738247E-04
   393 -1.794630945E-01
   394 -1.795563277E-03
   395 -2.339296023E-03
   396 -5.681746532E-03
   397 -6.550568030E-01
   398  5.135565654E-03
   399  1.887205827E-02
   400 -2.988251668E-01
   401  8.995974447E-03
   402 -1.098389546E-03
   403  2.362166487E-03
   404 -1.482403023E+00
Ene=    6.8815500708E-03
Spin= Alpha
Occup=   0.0000000
     1  2.169517786E-05
     2  3.757804763E-05
     3  1.235396064E-03
     4 -1.432087440E-03
     5 -4.603813528E-03
     6 -1.101405383E-04
     7  3.069859030E-03
     8 -3.777933663E-03
     9 -1.243502876E-02
    10 -3.786032956E-04
    11  3.819575099E-03
    12 -4.309960646E-03
    13 -1.270317119E-02
    14 -1.623369525E-03
    15  3.515405267E-03
    16  5.674632022E-03
    17 -2.391787144E-03
    18 -4.412367049E-04
    19 -2.415974751E-01
    20  8.595702586E-02
    21 -3.435402014E-01
    22 -8.953687825E-01
    23 -5.450768483E-03
    24 -8.483503606E-03
    25 -1.074982444E-02
    26  1.975648362E-02
    27  2.560778621E-02
    28  1.724010804E-02
    29 -1.937437167E-02
    30  2.677584333E-02
    31  3.804553037E-02
    32  2.157946144E-01
    33  1.704459239E-02
    34  2.375967926E-02
    35  4.980365594E-02
    36  4.913163428E-04
    37 -2.157783645E-04
    38 -1.612996757E-03
    39 -1.451471242E-03
    40  1.435609098E-03
    41  4.669018918E+00
    42  4.893410906E-01
    43 -3.014348042E-01
    44  4.274772450E-01
    45  3.381355130E-05
    46  6.502865421E-05
    47 -5.581128529E-03
    48  6.732553581E-03
    49  2.338684007E-02
    50 -4.506668397E-04
    51 -7.083563752E-03
    52  8.476579622E-03
    53  2.914709396E-02
    54  1.370800020E-03
    55 -1.789250472E-02
    56  2.114258982E-02
    57  7.779506841E-02
    58  2.226455056E-05
    59  1.340665755E-03
    60  1.019660438E-03
    61 -5.792148171E-04
    62  1.418458948E-04
    63  3.989436354E-01
    64 -3.164373533E-01
    65  2.628387874E-01
    66  7.898194199E-01
    67 -5.910022921E-03
    68 -9.516225228E-03
    69 -2.049974010E-02
    70 -4.819972736E-03
    71  2.395086403E-02
    72  2.678534258E-02
    73 -2.538429926E-02
    74 -6.694663491E-03
    75  2.813816732E-02
    76  2.094355723E-01
    77 -1.513422243E-01
    78 -4.116404967E-02
    79  1.625171615E-01
    80  1.105561017E-03
    81  2.322673699E-03
    82  2.395984234E-03
    83 -1.317292006E-03
    84 -3.095783305E-04
    85 -5.501539525E+00
    86 -2.413529079E+00
    87 -9.588991962E-01
    88  1.788168022E+00
    89 -5.257655389E-03
    90 -8.164711553E-03
    91  2.776160297E-03
    92  1.984350249E-03
    93  3.345604117E-02
    94  1.613395664E-02
    95  5.962516154E-04
    96  3.818609484E-04
    97  4.972114979E-02
    98  2.153226051E-01
    99  7.591436272E-03
   100  3.786889064E-02
   101  4.115139049E-02
   102 -1.147851415E-03
   103 -4.689773801E-04
   104  1.044141602E-03
   105  2.111494807E-03
   106 -5.614980003E-04
   107  4.921604642E+00
   108 -3.009494573E-01
   109  6.741743404E-01
   110 -7.470867069E-02
   111 -3.803485425E-05
   112 -6.240108069E-05
   113  1.165458520E-03
   114 -1.480268984E-03
   115 -4.600694658E-03
   116  3.205091475E-04
   117  3.018038051E-03
   118 -3.795637103E-03
   119 -1.244099155E-02
   120 -1.648200769E-03
   121  3.408068464E-03
   122 -3.523835817E-03
   123 -1.275998459E-02
   124  1.817119034E-03
   125  6.360898469E-03
   126  1.865894555E-03
   127 -1.892414692E-03
   128  1.487641938E-03
   129 -2.654072901E-01
   130  3.061603885E-01
   131 -2.714054906E-01
   132 -8.594529098E-01
   133 -1.339582611E-05
   134 -2.114409410E-05
   135 -1.623813609E-03
   136  1.907292247E-03
   137  6.084826409E-03
   138  6.482830097E-05
   139 -2.531222802E-03
   140  3.116067563E-03
   141  1.012691871E-02
   142  9.181757146E-04
   143 -3.161217352E-03
   144  3.073937495E-03
   145  9.326686652E-03
   146  2.159926576E-05
   147  6.814338062E-04
   148  5.182497904E-04
   149 -2.890416566E-04
   150  5.745229186E-05
   151  5.482150775E-02
   152  7.114749374E-02
   153 -6.883491855E-02
   154 -3.197893680E-01
   155  5.891611026E-03
   156  9.494578968E-03
   157  9.779180112E-03
   158  1.817043353E-02
   159  2.424979065E-02
   160 -2.698515847E-02
   161  1.269113550E-02
   162  2.221453684E-02
   163  2.855514563E-02
   164 -2.050689813E-01
   165  8.011588207E-02
   166  1.343252460E-01
   167  1.642099423E-01
   168 -9.943250083E-04
   169  2.975872878E-03
   170  1.662931500E-03
   171 -1.002730489E-03
   172  8.828862373E-04
   173  5.518691150E+00
   174  1.557417991E+00
   175  2.072774786E+00
   176  1.835293552E+00
   177  5.480684945E-03
   178  8.544094883E-03
   179 -1.665522884E-02
   180  1.525900861E-02
   181  2.559078195E-02
   182 -1.771867999E-02
   183 -2.143960548E-02
   184  2.533946723E-02
   185  3.795936481E-02
   186 -2.125779520E-01
   187 -2.622092887E-02
   188 -1.151515995E-02
   189  5.288282962E-02
   190 -5.124740946E-04
   191 -1.632817386E-03
   192  2.620116999E-04
   193 -2.005026615E-03
   194 -4.339824078E-04
   195 -4.657360955E+00
   196  1.533415745E-01
   197 -5.705214575E-01
   198  4.229844662E-01
   199  2.557015200E-04
   200  4.187849392E-04
   201 -4.888045831E-03
   202  5.716288824E-03
   203  1.926920144E-02
   204 -1.378971498E-03
   205 -7.436393376E-03
   206  8.658211594E-03
   207  2.921353733E-02
   208 -1.626482471E-03
   209 -1.119346554E-02
   210  1.138564152E-02
   211  3.916355684E-02
   212 -3.464915115E-04
   213 -1.111770723E-03
   214 -3.480744772E-04
   215  3.525017745E-04
   216 -2.661332408E-04
   217 -2.601029460E-02
   218 -1.207025579E-01
   219  1.541968311E-01
   220  4.714070989E-01
   221  5.292874352E-03
   222  8.233366956E-03
   223 -3.302449194E-03
   224 -2.587916649E-03
   225  3.343001997E-02
   226 -1.665590638E-02
   227 -1.381230972E-03
   228 -1.252503755E-03
   229  4.973548667E-02
   230 -2.119434321E-01
   231 -4.071787510E-02
   232  5.716591386E-03
   233  4.194185454E-02
   234  1.162590502E-03
   235  8.868202267E-04
   236 -7.561935415E-04
   237  2.114997277E-03
   238 -6.071538261E-04
   239 -4.974873651E+00
   240 -5.823234224E-01
   241  4.863506912E-01
   242 -9.661210438E-02
   243 -1.807040362E-04
   244 -2.853913752E-04
   245 -4.623035988E-03
   246  5.841366629E-03
   247  1.929540477E-02
   248  6.279353369E-04
   249 -6.881263848E-03
   250  8.980067631E-03
   251  2.925130314E-02
   252  5.452407960E-03
   253 -1.051075854E-02
   254  1.057391308E-02
   255  3.948590046E-02
   256  2.736711655E-04
   257 -6.250454489E-04
   258 -1.011975504E-03
   259  4.300541470E-04
   260  7.373015530E-05
   261  1.174946180E-01
   262 -1.166693015E-01
   263  1.246318050E-01
   264  4.835668220E-01
   265 -1.246746178E-03
   266 -2.703820983E-03
   267 -4.089717680E-02
   268  2.897075905E-03
   269 -2.520546109E-04
   270  1.299522582E-03
   271 -3.324560204E-01
   272  5.064577695E-03
   273  1.242777397E-02
   274 -2.238621508E-01
   275 -2.833031237E-03
   276 -3.502922748E-03
   277 -5.680992757E-03
   278 -1.080511025E+00
   279  6.571038561E-03
   280  1.986879980E-02
   281 -1.748325459E-01
   282 -1.292536512E-03
   283 -2.556741783E-03
   284 -3.454855424E-03
   285 -4.475170751E-01
   286 -6.647920865E-03
   287 -1.955204345E-02
   288  1.645669929E-01
   289  2.919897983E-03
   290  6.101717624E-04
   291 -3.482851616E-03
   292  4.568473441E-01
   293  3.345465131E-04
   294 -2.819025064E-02
   295 -3.705226915E-01
   296  2.876935016E-03
   297  2.215633431E-04
   298 -4.159796280E-03
   299 -2.383187088E+00
   300  4.997927265E-03
   301  1.294365752E-02
   302 -2.237266642E-01
   303 -1.766912258E-03
   304 -4.829823923E-03
   305 -4.988576010E-03
   306 -1.049530661E+00
   307 -1.503544705E-03
   308 -3.022529923E-03
   309 -3.825019546E-02
   310  3.277687880E-04
   311  2.984630559E-03
   312 -2.222194270E-04
   313 -3.328388261E-01
   314  8.838012014E-05
   315  6.290695454E-04
   316 -7.273165989E-03
   317  2.593713687E-04
   318 -2.706346082E-04
   319 -8.822517576E-04
   320 -1.841713189E-02
   321 -9.893651601E-05
   322 -2.922579188E-04
   323  1.174902467E-04
   324  2.199487010E-04
   325 -2.816030019E-04
   326 -8.850543072E-04
   327  2.067446446E-02
   328 -3.338064095E-04
   329  2.778202624E-02
   330  3.705536017E-01
   331 -9.370641150E-04
   332 -2.677257481E-03
   333 -4.218495052E-03
   334  2.397133621E+00
   335 -5.104318787E-03
   336 -1.246047834E-02
   337  2.277139598E-01
   338  4.213696756E-03
   339  1.891146828E-03
   340 -5.637792019E-03
   341  1.075677373E+00
   342  1.262572604E-03
   343  2.572923589E-03
   344  3.873075155E-02
   345 -5.619341909E-04
   346 -2.903768061E-03
   347  1.264949102E-03
   348  3.103161553E-01
   349  3.602311246E-03
   350  8.092002593E-03
   351 -7.473706180E-02
   352 -1.513588288E-03
   353 -2.111536149E-03
   354 -3.045378026E-03
   355 -6.128542767E-01
   356 -3.682677328E-03
   357 -7.352750005E-03
   358  7.497742464E-02
   359  2.930024805E-03
   360  5.131493270E-04
   361 -2.972769833E-03
   362  6.317761182E-01
   363 -7.168014441E-05
   364 -2.349793008E-04
   365  2.747094950E-03
   366 -7.880774409E-05
   367 -9.663325032E-05
   368  2.077590926E-04
   369  3.122264071E-02
   370  1.521427113E-03
   371  2.824106415E-03
   372  3.719364332E-02
   373 -2.995587104E-03
   374  4.878165007E-04
   375 -2.651658551E-04
   376  3.070666917E-01
   377 -5.030750672E-03
   378 -1.308068647E-02
   379  2.291126489E-01
   380  5.257783055E-03
   381  4.463550220E-04
   382 -4.921671173E-03
   383  1.044790530E+00
   384 -3.630984560E-03
   385 -8.077290007E-03
   386  7.847000191E-02
   387  2.536111656E-03
   388  9.255648549E-04
   389 -3.029983671E-03
   390  6.222359401E-01
   391  3.649343923E-03
   392  7.470801643E-03
   393 -7.177753135E-02
   394 -1.203743315E-03
   395 -2.632658179E-03
   396 -2.979954040E-03
   397 -6.247932304E-01
   398  8.613272391E-05
   399  7.551490995E-05
   400 -2.896334693E-03
   401  5.656042043E-05
   402  3.222489235E-05
   403  2.039661405E-04
   404 -2.992698890E-02
Ene=    2.1680492436E-02
Spin= Alpha
Occup=   0.0000000
     1  1.557042497E-03
     2  2.533688457E-03
     3 -6.342107429E-03
     4 -9.868174974E-03
     5  1.393897211E-03
     6 -7.051433890E-03
     7 -9.635553993E-03
     8 -1.817480169E-02
     9  2.903386864E-03
    10 -3.529634729E-02
    11 -4.596090790E-02
    12 -2.816658994E-02
    13 -1.179881996E-03
    14 -6.803402232E-03
    15  3.511714641E-03
    16 -4.513475624E-03
    17 -5.612103230E-04
    18 -1.759954142E-03
    19 -6.646258572E+00
    20 -1.318259286E-01
    21  3.948835825E-01
    22 -1.171454392E-01
    23  3.548054117E-03
    24  5.700716040E-03
    25 -2.892472262E-02
    26 -1.574063842E-02
    27 -1.387284144E-02
    28 -1.568987058E-02
    29 -3.654448168E-02
    30 -2.146300907E-02
    31 -1.849708760E-02
    32 -6.450068400E-02
    33 -1.356027598E-01
    34 -6.220046474E-02
    35 -5.524157929E-02
    36  3.978863369E-03
    37 -1.078718175E-03
    38  4.896885715E-03
    39 -8.434257329E-05
    40  5.831525081E-04
    41 -4.106137947E-01
    42 -1.258017593E+00
    43 -6.930628603E-01
    44 -6.540882982E-01
    45 -9.972108479E-04
    46 -1.651406204E-03
    47 -2.173905455E-02
    48 -1.402923047E-02
    49 -1.111163780E-03
    50  5.944493829E-03
    51 -3.077144812E-02
    52 -1.988225092E-02
    53 -1.581141247E-03
    54 -2.906435336E-02
    55 -9.142909378E-02
    56 -6.588305502E-02
    57 -2.418630629E-03
    58  3.213847787E-04
    59 -1.065472754E-03
    60  1.148045167E-03
    61  3.766242971E-04
    62  3.162759730E-03
    63  6.939644305E+00
    64 -1.677188278E+00
    65 -1.483414622E+00
    66  4.860732900E-02
    67  8.232131136E-03
    68  1.330135659E-02
    69  6.998921944E-03
    70  2.834445400E-03
    71 -7.676891058E-03
    72 -3.873890472E-02
    73  8.700847713E-03
    74  2.676919502E-03
    75 -1.097166512E-02
    76 -1.537325346E-01
    77  4.034203462E-02
    78  2.050280879E-02
    79 -1.976348055E-02
    80  1.845606479E-03
    81 -5.224911223E-04
    82 -2.053976299E-03
    83 -3.477776097E-04
    84 -4.960805525E-03
    85  9.500243611E-01
    86  9.227964034E-01
    87  1.722382995E-01
    88 -5.983082923E-01
    89  3.755564766E-03
    90  5.978910037E-03
    91 -1.915359590E-02
    92 -2.442775030E-02
    93 -8.561857838E-03
    94 -1.482440183E-02
    95 -2.540853224E-02
    96 -3.138939039E-02
    97 -1.279381152E-02
    98 -1.043490804E-01
    99 -7.636696647E-02
   100 -1.081460772E-01
   101 -1.438054393E-02
   102  5.351759861E-03
   103 -1.043804647E-03
   104  2.919696336E-03
   105 -1.005854612E-03
   106  1.644901895E-03
   107 -2.546126674E-01
   108 -5.045587202E-01
   109 -1.015768007E+00
   110 -5.355683366E-01
   111  1.000053792E-03
   112  1.588312973E-03
   113 -1.427157529E-02
   114 -2.550974269E-03
   115 -2.535411082E-03
   116 -2.917849538E-03
   117 -2.414800798E-02
   118 -3.497464648E-03
   119 -4.605607831E-03
   120 -5.738375553E-02
   121 -6.721922774E-02
   122 -3.405110479E-02
   123 -6.886000101E-03
   124 -6.343998931E-03
   125  3.626544630E-03
   126 -4.047254625E-03
   127  3.303481975E-04
   128 -1.959494695E-03
   129 -8.550642334E+00
   130 -1.038912934E+00
   131 -2.701945625E-02
   132 -3.163508301E-01
   133 -1.510305837E-03
   134 -2.356031182E-03
   135 -1.111311228E-02
   136 -3.216264122E-03
   137 -1.651500250E-03
   138  4.135429680E-03
   139 -1.429921624E-02
   140 -4.662510402E-03
   141 -2.142212579E-03
   142  8.227220548E-02
   143 -5.015456199E-02
   144 -3.552027893E-03
   145 -7.734479634E-03
   146 -4.102012675E-03
   147  1.748252649E-03
   148 -2.390379996E-03
   149 -5.632107951E-04
   150  2.608096390E-04
   151 -2.861822804E+00
   152 -1.613674077E+00
   153 -8.622628563E-01
   154 -1.004024170E-01
   155  8.256314583E-03
   156  1.334784074E-02
   157  3.643230050E-03
   158  7.080248788E-03
   159  7.341937352E-03
   160 -3.915705522E-02
   161  3.647130828E-03
   162  8.916674048E-03
   163  1.033540401E-02
   164 -1.517693501E-01
   165  3.428687015E-02
   166  3.165310465E-02
   167  2.605601937E-02
   168  1.323821306E-03
   169  1.749166800E-03
   170  4.974497695E-04
   171 -1.542824969E-03
   172 -4.976930000E-03
   173  1.551972372E+00
   174  7.016808863E-01
   175  5.736498925E-01
   176  8.851148489E-01
   177  3.769855057E-03
   178  5.981792487E-03
   179 -2.360966981E-02
   180 -1.878166369E-02
   181  1.090308001E-02
   182 -1.426980232E-02
   183 -3.172817944E-02
   184 -2.345153217E-02
   185  1.515347179E-02
   186 -1.118445048E-01
   187 -8.382633122E-02
   188 -9.542996183E-02
   189  3.285213843E-02
   190  4.057979702E-03
   191 -4.274549734E-03
   192  2.634698510E-03
   193 -2.977683731E-04
   194  7.367550656E-04
   195 -1.013006169E+00
   196 -6.747535160E-01
   197 -7.650590820E-01
   198  6.308126317E-01
   199 -1.290502595E-02
   200 -2.063065537E-02
   201 -4.396971483E-03
   202 -2.365996923E-02
   203  5.632753702E-03
   204  5.640678353E-02
   205 -1.112342995E-03
   206 -3.596861061E-02
   207  9.910075795E-03
   208  2.552876305E-01
   209 -7.026033289E-02
   210 -5.868154141E-02
   211 -4.184852381E-04
   212  9.834342202E-04
   213 -7.460723590E-04
   214  9.053807847E-04
   215  2.627701954E-04
   216  1.039988272E-03
   217  6.592271051E+00
   218 -1.177397542E+00
   219 -2.469313931E-01
   220 -1.907693459E-01
   221  3.524889405E-03
   222  5.652259292E-03
   223 -3.357568057E-02
   224 -9.876175671E-03
   225  6.658763237E-03
   226 -1.517071480E-02
   227 -4.312325832E-02
   228 -1.358132956E-02
   229  9.881564913E-03
   230 -6.952571163E-02
   231 -1.521365742E-01
   232 -3.827377847E-02
   233  1.739157388E-02
   234  5.120236329E-03
   235 -3.214198741E-03
   236  1.190675260E-03
   237  1.511872443E-03
   238  9.549460802E-04
   239 -3.217636720E-01
   240 -1.446738034E+00
   241 -4.070090012E-01
   242  3.610086608E-01
   243 -1.046062012E-02
   244 -1.673448064E-02
   245 -2.768882552E-02
   246 -1.340354637E-04
   247 -6.395335346E-03
   248  4.670773233E-02
   249 -4.039388508E-02
   250  4.439940829E-03
   251 -1.075640407E-02
   252  1.855039265E-01
   253 -8.900880046E-02
   254 -3.766811240E-02
   255 -9.090903759E-03
   256  1.064335515E-03
   257 -7.482068925E-04
   258  1.037079045E-03
   259  4.228441129E-04
   260  1.130700696E-03
   261  4.269051424E+00
   262 -6.386336406E-01
   263 -7.370381892E-01
   264  6.370421686E-02
   265  1.671501084E-03
   266  4.308435599E-03
   267 -2.143143120E-01
   268  3.813130568E-03
   269 -3.449257127E-03
   270  2.292608387E-03
   271 -1.097837048E+00
   272  1.387737677E-03
   273 -1.407457131E-03
   274  3.807534487E-01
   275  7.416600020E-04
   276  2.139371200E-03
   277  7.382575881E-03
   278  1.522243140E+00
   279  1.573719537E-03
   280  2.021200680E-02
   281 -2.201274431E-02
   282 -8.606952944E-04
   283  1.332546152E-03
   284  3.110668318E-03
   285  6.863203462E-01
   286  1.596228365E-03
   287  2.020088350E-02
   288 -2.264314053E-02
   289  6.158090722E-04
   290 -5.301004957E-04
   291 -3.361541503E-03
   292  7.016878456E-01
   293 -1.879425977E-03
   294 -1.934808124E-03
   295  1.595437377E-01
   296 -1.213940823E-03
   297  1.285866815E-03
   298  5.117955824E-03
   299  1.038678362E+00
   300  1.378056532E-03
   301 -1.029030122E-03
   302  3.228957848E-01
   303 -1.306463432E-03
   304  4.034376951E-03
   305  6.205348015E-03
   306  1.444855651E+00
   307  1.479313671E-03
   308  6.557496388E-03
   309 -1.852497444E-01
   310 -2.862023091E-03
   311  3.856717818E-03
   312 -1.086029177E-03
   313 -7.411758286E-01
   314  4.319326053E-03
   315  4.219285221E-03
   316 -7.293980461E-02
   317  1.920316960E-03
   318 -9.011735928E-04
   319  6.880416028E-04
   320 -1.137437381E+00
   321  4.271699418E-03
   322  6.062804355E-03
   323  1.511649619E-02
   324 -4.169613199E-04
   325  6.947270402E-04
   326 -3.280605438E-04
   327 -6.491344573E-01
   328 -1.984207237E-03
   329 -1.345682375E-03
   330  1.531206451E-01
   331  1.112672723E-03
   332 -1.587947241E-03
   333 -5.027124738E-03
   334  1.085970607E+00
   335  1.432548557E-03
   336 -1.497561929E-03
   337  3.305453561E-01
   338  1.756226767E-03
   339  2.047475431E-04
   340 -7.249270445E-03
   341  1.404917241E+00
   342  1.557903613E-03
   343  5.665869296E-03
   344 -1.671741858E-01
   345 -2.622992007E-03
   346  3.537084589E-03
   347 -2.236693004E-03
   348 -7.358471026E-01
   349 -6.781196698E-04
   350  1.319859489E-02
   351 -1.505018718E-01
   352 -1.776064971E-03
   353 -1.321255373E-03
   354 -2.105379805E-04
   355 -2.695379276E-01
   356 -6.450449619E-04
   357  1.295127861E-02
   358 -1.519723913E-01
   359 -1.851753165E-03
   360 -1.229857432E-03
   361  1.060464567E-04
   362 -2.761979967E-01
   363  3.399027502E-03
   364  1.133647714E-02
   365 -3.391273035E-01
   366 -9.286263377E-04
   367  8.638504321E-03
   368 -2.668504121E-03
   369 -1.819124142E+00
   370  1.665701881E-03
   371  4.481270713E-03
   372 -2.219709505E-01
   373  4.007818131E-03
   374 -3.683432383E-03
   375  1.492482148E-03
   376 -1.064325036E+00
   377  1.352483935E-03
   378 -6.288423393E-04
   379  3.661271490E-01
   380  3.829046231E-03
   381 -1.820443332E-03
   382 -6.384396560E-03
   383  1.509258500E+00
   384 -1.290772128E-03
   385  1.212433353E-02
   386 -1.212270652E-01
   387 -1.149144403E-03
   388 -1.273701050E-03
   389 -8.009804491E-04
   390 -3.150907463E-02
   391 -1.336960964E-03
   392  1.204336501E-02
   393 -1.229467634E-01
   394 -1.480664849E-03
   395 -7.960205432E-04
   396  8.212525192E-04
   397 -2.828434230E-02
   398  3.910570722E-03
   399  1.121837136E-02
   400 -3.392094792E-01
   401  8.063515938E-03
   402 -3.278089769E-03
   403  2.751466631E-03
   404 -1.764533424E+00
Ene=    2.2002605426E-02
Spin= Alpha
Occup=   0.0000000
     1  2.766306045E-03
     2  4.613754034E-03
     3  4.250261244E-04
     4  1.777385513E-02
     5 -4.960639700E-03
     6 -1.752874436E-02
     7  1.954736448E-03
     8  2.480789219E-02
     9 -6.680754165E-03
    10  5.655008274E-02
    11  1.619479969E-02
    12  1.257147033E-01
    13 -3.206950794E-02
    14 -1.464460953E-03
    15  2.070636713E-03
    16  2.645589258E-04
    17  4.711812311E-03
    18 -1.085534088E-03
    19  8.051020689E+00
    20 -3.759269333E-02
    21  4.783415950E+00
    22 -1.495973930E+00
    23 -1.426586289E-03
    24 -2.034171729E-03
    25 -2.104736435E-02
    26  1.128549293E-02
    27 -9.985822401E-03
    28 -2.159557857E-03
    29 -2.743707121E-02
    30  1.514881619E-02
    31 -1.046108581E-02
    32  1.859509875E-01
    33 -8.556085667E-02
    34  9.436977228E-03
    35 -8.807737566E-02
    36 -7.639754915E-04
    37  2.229324184E-03
    38  3.263305336E-04
    39 -3.790255862E-03
    40  1.237753510E-03
    41  3.588256937E-01
    42 -1.514219801E+00
    43 -3.883835245E-01
    44  3.438477682E-01
    45  1.334723427E-04
    46  2.136470195E-04
    47 -1.071799220E-02
    48  1.821972788E-02
    49 -7.526534811E-03
    50 -4.677665472E-04
    51 -1.473796745E-02
    52  2.516365921E-02
    53 -1.043533175E-02
    54 -5.238126907E-03
    55 -2.936822155E-02
    56  6.048021488E-02
    57 -2.335399198E-02
    58 -5.057266815E-05
    59 -1.344368301E-03
    60 -1.158244578E-03
    61 -4.745480878E-03
    62  9.951412260E-04
    63  2.213536322E-01
    64  2.191943563E-01
    65 -2.046094403E-01
    66  1.570613760E-01
    67 -7.957488535E-04
    68 -1.283676390E-03
    69 -5.206099857E-03
    70  5.734575092E-03
    71 -2.027676345E-03
    72  3.627739113E-03
    73 -7.220545998E-03
    74  8.087858963E-03
    75 -2.875799255E-03
    76  1.739509989E-02
    77  4.441743821E-03
    78 -9.246859477E-03
    79  9.153773398E-03
    80  2.586498972E-03
    81  3.505499714E-03
    82 -1.955498835E-03
    83  4.562464882E-03
    84  9.039726519E-04
    85 -4.474672958E-01
    86  8.607642088E-01
    87 -1.384764327E+00
    88  7.013687250E-01
    89  7.390916284E-04
    90  9.420889543E-04
    91 -2.234372903E-03
    92  2.978306160E-02
    93 -4.677283209E-03
    94  4.795574207E-03
    95 -2.216760714E-03
    96  3.778871059E-02
    97 -8.035814143E-03
    98 -1.668777347E-01
    99  5.874230292E-03
   100  1.366296883E-01
   101  3.232914590E-02
   102  1.982012738E-04
   103 -3.340062404E-03
   104 -2.777470426E-03
   105 -1.588407249E-03
   106  3.250783600E-04
   107 -1.038982641E-01
   108  1.084412817E+00
   109  1.317836307E+00
   110 -5.299861269E-01
   111 -2.997743610E-03
   112 -4.988554335E-03
   113 -1.463209323E-02
   114  5.049644504E-03
   115 -4.759843661E-03
   116  1.858424814E-02
   117 -2.005410768E-02
   118  5.658742253E-03
   119 -6.216524543E-03
   120 -5.251479410E-02
   121 -1.159209550E-01
   122  2.906787923E-02
   123 -3.396886570E-02
   124  2.837842535E-03
   125  6.704711083E-05
   126  2.638746063E-03
   127  4.548044309E-03
   128 -1.183501927E-03
   129 -7.398190811E+00
   130 -4.905098563E+00
   131  1.050143648E+00
   132 -1.494445543E+00
   133  1.865715037E-04
   134  3.007601753E-04
   135 -2.489549970E-02
   136  3.484870087E-02
   137 -1.552517237E-02
   138 -9.038288867E-04
   139 -3.038655587E-02
   140  4.289851882E-02
   141 -1.913746855E-02
   142 -2.296113373E-03
   143 -1.441779993E-01
   144  2.012133034E-01
   145 -8.920048609E-02
   146  3.509259967E-04
   147 -2.047800670E-03
   148 -1.098075594E-03
   149 -6.045225902E-03
   150  1.698305784E-03
   151  4.547213885E-01
   152 -1.467956766E+00
   153  2.352022817E+00
   154 -1.011469481E+00
   155 -8.360421665E-04
   156 -1.348861179E-03
   157 -4.929650722E-03
   158  5.305245859E-03
   159 -3.504487560E-03
   160  3.814895676E-03
   161 -6.818673178E-03
   162  7.400784283E-03
   163 -4.729563267E-03
   164  1.894741819E-02
   165  4.905300429E-03
   166 -1.130022547E-02
   167 -1.822950679E-03
   168 -2.857918657E-03
   169 -1.124837802E-03
   170  3.943837132E-03
   171  3.814447323E-03
   172 -2.170110303E-03
   173 -2.856300504E-01
   174  9.248671418E-01
   175 -1.401758741E+00
   176  5.133950121E-01
   177  7.198171978E-04
   178  9.124260624E-04
   179 -4.873797042E-04
   180  2.758205525E-02
   181 -1.218094988E-02
   182  4.833430330E-03
   183 -9.366150437E-04
   184  3.595061195E-02
   185 -1.351954990E-02
   186 -1.655765727E-01
   187  3.327500694E-02
   188  1.029750448E-01
   189 -9.086688211E-02
   190  4.939736662E-06
   191  1.695014918E-03
   192  1.563646171E-03
   193 -3.949282996E-03
   194  7.440234586E-04
   195 -2.925488456E-01
   196  9.072097906E-01
   197  1.513133277E+00
   198  1.426017301E-01
   199 -1.167430093E-02
   200 -1.865982347E-02
   201  1.745871806E-02
   202  1.851292304E-02
   203 -1.233481991E-03
   204  4.848455496E-02
   205  2.893811306E-02
   206  2.568837283E-02
   207 -6.001420901E-04
   208  2.976750689E-01
   209 -2.233862110E-02
   210  8.442877111E-02
   211 -2.885701975E-02
   212 -5.351964176E-04
   213  3.889173754E-04
   214 -5.292141995E-04
   215 -3.211208321E-04
   216 -5.350160219E-04
   217  9.454548416E+00
   218 -1.137556647E+00
   219  9.492263947E-01
   220 -5.250862708E-01
   221 -1.421542607E-03
   222 -2.032328319E-03
   223 -2.187996504E-02
   224  1.230232992E-02
   225 -6.413333769E-03
   226 -2.056167591E-03
   227 -2.753533311E-02
   228  1.532069501E-02
   229 -1.052493479E-02
   230  1.853566556E-01
   231 -1.110891411E-01
   232  4.186444245E-02
   233  2.851285963E-02
   234 -1.403365104E-03
   235 -3.001318896E-03
   236 -2.755015423E-03
   237 -1.727849263E-03
   238  4.066393261E-04
   239 -1.416641004E-01
   240 -1.315295425E+00
   241 -7.057306518E-01
   242 -7.728510789E-01
   243  1.399335962E-02
   244  2.239533977E-02
   245 -1.756254080E-02
   246 -1.215658693E-02
   247 -4.946865395E-04
   248 -5.948457565E-02
   249 -2.492094500E-02
   250 -2.221172823E-02
   251  8.454583541E-04
   252 -3.323998538E-01
   253 -6.353805589E-02
   254  4.854745324E-02
   255 -2.886605840E-02
   256  2.789184546E-04
   257 -2.940454712E-04
   258  2.863860901E-04
   259 -1.238398296E-04
   260  4.883980806E-04
   261 -9.851061024E+00
   262 -4.656814553E-01
   263  1.367694265E+00
   264 -4.882915407E-01
   265  5.919164796E-04
   266 -8.605577853E-03
   267 -1.896841041E-01
   268  5.614192883E-03
   269  4.153850079E-04
   270  2.563763032E-04
   271 -1.508951668E+00
   272 -7.033320686E-05
   273 -2.042027311E-03
   274  1.812929201E-01
   275  6.406398883E-04
   276  2.787188262E-03
   277 -2.111744290E-04
   278  9.780601261E-02
   279 -1.942486076E-04
   280 -1.486357220E-03
   281 -1.146488518E-02
   282 -2.238024733E-03
   283  2.973447925E-03
   284 -1.722059981E-03
   285 -7.896576914E-02
   286 -1.871666266E-04
   287 -1.568414646E-03
   288 -8.619518776E-03
   289 -2.379366883E-03
   290  3.163465904E-03
   291 -1.097624168E-03
   292 -4.091855859E-02
   293  2.367029484E-04
   294 -7.629164501E-04
   295 -8.252245000E-03
   296  8.751919239E-04
   297 -1.288765627E-03
   298  1.388616340E-05
   299 -1.100824335E-01
   300 -1.776186369E-04
   301  2.527827314E-03
   302 -2.394522615E-01
   303 -2.521762228E-03
   304 -8.504683122E-04
   305 -2.310031030E-03
   306 -4.016661011E-01
   307 -8.574660437E-04
   308  6.953162937E-03
   309  2.260696809E-01
   310 -1.790790009E-03
   311 -5.788857015E-03
   312  2.033380453E-03
   313  1.637258743E+00
   314 -5.623374459E-04
   315 -5.353671482E-03
   316 -4.503074099E-01
   317  7.108202295E-03
   318 -1.494202866E-03
   319  2.039638883E-03
   320 -2.378794155E+00
   321 -3.160324797E-04
   322  4.140149463E-03
   323  4.545398447E-01
   324 -3.919667596E-04
   325 -7.615259234E-03
   326  2.077561726E-03
   327  2.599496252E+00
   328  2.752246491E-04
   329 -7.188327206E-04
   330 -1.082540098E-02
   331  6.803660944E-04
   332 -9.944605554E-04
   333  9.939422498E-04
   334 -1.276979401E-01
   335 -1.974474363E-04
   336  2.720999898E-03
   337 -2.421732743E-01
   338 -3.323697495E-03
   339  1.265906851E-04
   340  1.174345999E-03
   341 -4.097548375E-01
   342 -8.266403641E-04
   343  6.523921343E-03
   344  2.302203066E-01
   345 -1.449106383E-03
   346 -6.173165911E-03
   347  6.207718347E-04
   348  1.659947229E+00
   349  3.306814913E-03
   350  7.001696958E-03
   351 -1.964888908E-01
   352 -1.124546299E-03
   353 -2.927260242E-03
   354 -5.394242769E-03
   355 -1.249470258E+00
   356  3.241530352E-03
   357  7.591287750E-03
   358 -2.009714731E-01
   359 -3.535002528E-03
   360  6.437268019E-05
   361  5.166627022E-03
   362 -1.250888846E+00
   363 -2.909040560E-03
   364 -1.198216561E-03
   365 -7.872058928E-04
   366  1.313342268E-04
   367 -9.910024253E-04
   368  3.114119293E-04
   369  1.120241268E-01
   370  6.355284960E-04
   371 -9.213832127E-03
   372 -1.769697549E-01
   373  5.264209661E-03
   374  8.776623294E-04
   375  1.885231610E-03
   376 -1.500482196E+00
   377 -4.076533636E-05
   378 -2.575187546E-03
   379  1.896760150E-01
   380  8.270817780E-04
   381  2.583788090E-03
   382 -9.878119366E-04
   383  9.305644615E-02
   384 -3.169391634E-03
   385 -9.238173349E-03
   386  2.248169153E-01
   387  3.577169494E-03
   388  6.508951272E-04
   389 -5.291338992E-03
   390  1.296061909E+00
   391 -3.084291033E-03
   392 -9.691139180E-03
   393  2.311693000E-01
   394  1.171443459E-03
   395  3.606675121E-03
   396  5.171162666E-03
   397  1.297950041E+00
   398  2.133270412E-03
   399 -1.733235097E-04
   400  5.044273644E-02
   401 -7.111340793E-04
   402  2.465526634E-04
   403 -2.204005084E-04
   404  2.365631711E-01
Ene=    2.5560234939E-02
Spin= Alpha
Occup=   0.0000000
     1 -7.929814107E-06
     2 -1.669067257E-05
     3  3.924374272E-04
     4 -5.608853525E-04
     5 -1.826450862E-03
     6  7.776194912E-05
     7  1.803156163E-04
     8 -3.910182697E-04
     9 -9.564322531E-04
    10  2.742511799E-04
    11 -1.075540095E-02
    12  1.387570585E-02
    13  4.220317463E-02
    14  2.725567109E-03
    15  6.242738087E-03
    16  1.633022421E-04
    17 -1.444216375E-03
    18  1.944078762E-03
    19  1.695669863E-01
    20 -1.634781307E-02
    21  1.763105708E-01
    22  8.168096813E-02
    23  2.301911747E-03
    24  3.524659435E-03
    25  7.613724792E-03
    26 -3.200679739E-03
    27  2.424665616E-02
    28 -4.133126129E-03
    29  9.194857583E-03
    30 -5.043804382E-03
    31  3.198904859E-02
    32 -1.291183636E-01
    33 -3.116213826E-04
    34  4.564228873E-02
    35  1.206632506E-01
    36 -1.053422212E-03
    37  5.905079106E-04
    38  1.190267050E-04
    39  4.379655499E-03
    40 -2.688126163E-03
    41 -6.129337242E+00
    42 -4.368944453E-01
    43  8.495461181E-01
    44  2.090696118E+00
    45 -3.931745476E-05
    46 -6.518960722E-05
    47 -9.110044940E-03
    48  1.125781543E-02
    49  3.987036679E-02
    50  2.546274511E-04
    51 -1.185189193E-02
    52  1.467175973E-02
    53  5.191206564E-02
    54  2.943165912E-04
    55 -3.692817805E-02
    56  4.384440966E-02
    57  1.571574109E-01
    58 -1.434483650E-04
    59 -5.080850591E-03
    60 -3.924382335E-03
    61  2.292413326E-03
    62 -5.518204371E-04
    63  1.455637297E-01
    64 -2.767946331E-01
    65  2.849780179E-01
    66  1.373175669E+00
    67  9.449366544E-03
    68  1.538356451E-02
    69  1.933567937E-02
    70  5.504036760E-03
    71 -1.994035377E-02
    72 -4.815011029E-02
    73  2.249623347E-02
    74  7.936079835E-03
    75 -1.957869937E-02
    76 -2.036072120E-01
    77  1.580814972E-01
    78  4.928759114E-02
    79 -1.554418063E-01
    80 -2.916680080E-03
    81  3.700899878E-03
    82  1.696734375E-03
    83 -5.904594145E-04
    84  3.248058073E-03
    85  7.387110461E+00
    86  2.482396368E+00
    87  8.194478863E-02
    88 -3.905993375E+00
    89  2.290377154E-03
    90  3.503743119E-03
    91 -9.348488773E-03
    92  1.920528027E-02
    93  1.402949681E-02
    94 -4.034044607E-03
    95 -1.340891388E-02
    96  2.473645482E-02
    97  1.839034608E-02
    98 -1.298228679E-01
    99 -7.405249632E-03
   100  5.515978778E-02
   101  1.163948702E-01
   102 -1.438990194E-04
   103 -1.292385815E-03
   104 -2.881048766E-03
   105 -4.203208833E-03
   106  3.224557883E-04
   107 -6.106408896E+00
   108 -2.187013195E-01
   109  6.206359239E-01
   110  2.192473421E+00
   111 -5.052276325E-06
   112 -9.903930267E-06
   113  4.078326539E-04
   114 -5.387444853E-04
   115 -1.845219039E-03
   116 -2.232096946E-05
   117  1.649455296E-04
   118 -3.702898956E-04
   119 -9.229274096E-04
   120  1.554398443E-03
   121 -8.752389212E-03
   122  1.070813180E-02
   123  4.133951776E-02
   124 -2.588107943E-03
   125  1.903505496E-03
   126  6.033940775E-03
   127 -2.200243956E-03
   128 -1.022942388E-03
   129  2.735822890E-01
   130 -1.103860657E-02
   131 -9.727410307E-02
   132  8.171325047E-02
   133 -3.438773688E-05
   134 -7.033333193E-05
   135 -3.868255628E-03
   136  4.687469933E-03
   137  1.690566339E-02
   138  5.647556326E-04
   139 -4.771123448E-03
   140  5.464508727E-03
   141  2.007891222E-02
   142 -4.617119547E-03
   143 -1.582880983E-02
   144  1.970831510E-02
   145  7.044368692E-02
   146 -6.594926342E-05
   147 -4.323820040E-03
   148 -3.305883963E-03
   149  1.934415908E-03
   150 -4.858633199E-04
   151 -2.757811293E-01
   152 -5.515123300E-03
   153 -6.429628068E-02
   154 -1.213610997E-01
   155 -9.431658318E-03
   156 -1.536509927E-02
   157 -1.012775031E-02
   158 -1.693285743E-02
   159 -2.032165060E-02
   160  4.837049008E-02
   161 -1.351303651E-02
   162 -1.920640930E-02
   163 -2.002433541E-02
   164  1.988796515E-01
   165 -8.580349791E-02
   166 -1.381797061E-01
   167 -1.572856254E-01
   168  2.990782745E-03
   169  2.441138367E-03
   170  2.886424439E-03
   171 -2.133742614E-03
   172 -2.642769443E-03
   173 -6.656092283E+00
   174 -6.142381638E-01
   175 -2.304569149E+00
   176 -3.803647129E+00
   177 -2.334977289E-03
   178 -3.600303223E-03
   179  5.349941310E-04
   180 -8.705409965E-03
   181  2.420317037E-02
   182  4.907446378E-03
   183  1.907440293E-03
   184 -1.099280128E-02
   185  3.199766304E-02
   186  1.235975453E-01
   187 -4.732884985E-02
   188  1.058789153E-02
   189  1.182425941E-01
   190  1.115147485E-03
   191  2.863874684E-04
   192  4.777121335E-04
   193  5.181374342E-03
   194  2.367061375E-05
   195  5.422076484E+00
   196 -6.599809766E-01
   197  5.227686063E-01
   198  2.028060597E+00
   199 -2.865192706E-05
   200 -5.611138772E-05
   201 -6.538586345E-03
   202  7.958780381E-03
   203  2.868382215E-02
   204  4.085223055E-04
   205 -9.120392831E-03
   206  1.123840074E-02
   207  4.000061384E-02
   208 -2.842289456E-03
   209 -2.066064029E-02
   210  2.543093070E-02
   211  9.564004140E-02
   212  7.614115918E-04
   213  4.939695175E-04
   214 -8.679455333E-04
   215  1.459648762E-04
   216  4.240834166E-04
   217 -1.945689690E-01
   218 -1.965468769E-01
   219  2.822090332E-01
   220  1.101868254E+00
   221 -2.329348291E-03
   222 -3.585905083E-03
   223 -1.647378906E-02
   224  1.394667717E-02
   225  1.390121176E-02
   226  4.774752390E-03
   227 -2.094778109E-02
   228  1.917402895E-02
   229  1.817093315E-02
   230  1.248306724E-01
   231 -5.285825584E-02
   232  1.960088370E-02
   233  1.160151201E-01
   234  1.020221258E-04
   235 -3.177404153E-03
   236 -3.527208919E-04
   237 -3.779505341E-03
   238  1.986169158E-03
   239  6.026256889E+00
   240 -5.649067975E-01
   241  3.210453701E-01
   242  2.197929785E+00
   243 -5.019419730E-05
   244 -8.730989164E-05
   245 -6.587079996E-03
   246  8.189401847E-03
   247  2.862359562E-02
   248  5.272764075E-04
   249 -9.199716008E-03
   250  1.126898851E-02
   251  3.990463372E-02
   252 -2.852661230E-03
   253 -2.184956316E-02
   254  2.965378062E-02
   255  9.516166527E-02
   256 -7.412264803E-04
   257 -6.789638312E-04
   258  7.622120534E-04
   259 -6.512805911E-05
   260 -4.310772631E-04
   261 -1.294698325E-01
   262 -2.361406638E-01
   263  3.282809851E-01
   264  1.066301571E+00
   265  2.478375830E-03
   266 -8.352889526E-03
   267  2.869409968E-01
   268 -4.370518258E-03
   269  1.008363865E-04
   270  1.234763902E-03
   271  8.241413437E-01
   272  6.406535952E-04
   273 -4.687254263E-03
   274 -1.111186813E-01
   275 -2.211380926E-03
   276 -3.904583185E-03
   277 -1.825134468E-03
   278 -1.258367849E+00
   279 -9.258701490E-04
   280  1.532098501E-03
   281 -3.413807908E-01
   282 -3.145183649E-03
   283 -5.004919979E-03
   284 -5.746711288E-03
   285 -1.088932874E+00
   286  8.792239530E-04
   287 -7.984617093E-04
   288  3.354200073E-01
   289  5.748985297E-03
   290  1.762973045E-03
   291 -5.593130847E-03
   292  1.102732204E+00
   293 -1.206133039E-02
   294 -8.909581802E-03
   295  3.774844207E-01
   296 -4.694568373E-03
   297 -1.917787934E-03
   298  3.552775749E-03
   299  3.249214323E+00
   300  6.361456719E-04
   301 -4.680914846E-03
   302 -1.153003222E-01
   303 -3.410155571E-03
   304 -2.328489235E-03
   305 -2.547637281E-03
   306 -1.260775175E+00
   307  2.483296893E-03
   308 -8.365965186E-03
   309  2.810736605E-01
   310 -1.960947524E-03
   311 -3.071888353E-03
   312  2.699485639E-03
   313  8.478387367E-01
   314  4.323269537E-05
   315 -4.370607080E-04
   316  5.204768777E-03
   317 -9.945523088E-04
   318  1.217076236E-03
   319  4.451828099E-03
   320  1.636242484E-02
   321  4.318525219E-05
   322 -2.377671534E-04
   323  2.468157063E-03
   324 -1.041847467E-03
   325  1.308907882E-03
   326  4.395934286E-03
   327 -1.756501391E-04
   328  1.191417770E-02
   329  1.016055689E-02
   330 -3.893486541E-01
   331  3.099861706E-03
   332  4.029554602E-03
   333  3.714412054E-03
   334 -3.251376171E+00
   335 -5.625976776E-04
   336  3.776937841E-03
   337  1.270175766E-01
   338  4.406101681E-03
   339  1.081959463E-03
   340 -1.731083409E-03
   341  1.267962037E+00
   342 -2.442584982E-03
   343  8.236652104E-03
   344 -2.762528410E-01
   345  1.054664535E-03
   346  4.348591919E-03
   347  1.271244704E-03
   348 -8.318715127E-01
   349  5.176436699E-03
   350  5.445677833E-03
   351 -1.447448654E-01
   352 -1.594912769E-03
   353 -4.093996580E-03
   354 -3.270098282E-03
   355 -1.475151957E+00
   356 -5.119579667E-03
   357 -6.227096918E-03
   358  1.559674358E-01
   359  3.231526249E-03
   360  2.044653871E-03
   361 -3.909296755E-03
   362  1.485325770E+00
   363  2.429248975E-05
   364  2.552395084E-05
   365 -1.702629368E-03
   366 -5.609217748E-04
   367  7.711935319E-04
   368  2.475026903E-03
   369 -2.886050831E-02
   370 -2.508855127E-03
   371  8.847833167E-03
   372 -2.855125698E-01
   373  3.561599626E-03
   374  9.960979719E-04
   375  2.767670643E-03
   376 -8.148483751E-01
   377 -6.212698382E-04
   378  4.510917525E-03
   379  1.155473795E-01
   380  3.141899138E-03
   381  2.677604810E-03
   382 -2.494403100E-03
   383  1.291584234E+00
   384 -5.187970522E-03
   385 -5.170562723E-03
   386  1.437939485E-01
   387  4.370172052E-03
   388  4.740270198E-04
   389 -3.162845084E-03
   390  1.470069423E+00
   391  5.138710289E-03
   392  6.085195298E-03
   393 -1.569190221E-01
   394 -2.783618068E-03
   395 -2.532565762E-03
   396 -4.003944510E-03
   397 -1.481416880E+00
   398 -1.761813837E-05
   399  2.120192306E-04
   400 -4.725304292E-03
   401 -5.211662120E-04
   402  6.942841407E-04
   403  2.489468207E-03
   404  2.267958214E-03
Ene=    3.2587026869E-02
Spin= Alpha
Occup=   0.0000000
     1  1.938200584E-03
     2  3.120824490E-03
     3  1.175319670E-02
     4  2.719415220E-03
     5  1.677304688E-03
     6 -7.697939282E-03
     7  2.101771614E-02
     8  3.386332848E-03
     9  3.389028561E-03
    10 -5.657420777E-02
    11  2.024690982E-02
    12  1.815605029E-02
    13 -8.109640009E-04
    14  2.474474979E-03
    15  8.600086673E-04
    16 -8.370388042E-04
    17 -1.297874775E-03
    18 -7.297496282E-03
    19 -3.752642023E+00
    20 -5.130240550E+00
    21  4.964441922E-01
    22 -1.242675541E+00
    23 -4.824418752E-03
    24 -7.634115143E-03
    25 -5.257686299E-03
    26  9.471789978E-03
    27  1.021112788E-02
    28  1.766563233E-02
    29 -1.054781064E-02
    30  1.713027386E-02
    31  1.825460357E-02
    32  1.408306825E-01
    33  2.766022734E-02
    34 -1.148832607E-04
    35  2.238357781E-02
    36 -3.422004017E-03
    37  5.635441639E-04
    38 -3.336943456E-05
    39  4.968140157E-04
    40  1.671647998E-03
    41 -2.836551783E+00
    42 -4.069636813E-01
    43  3.067475800E-01
    44  1.718732218E+00
    45  7.323485005E-03
    46  1.167583679E-02
    47 -2.483958093E-02
    48 -1.897978151E-02
    49 -3.017057811E-04
    50 -3.120604653E-02
    51 -4.528168909E-02
    52 -3.462654378E-02
    53 -5.862115840E-04
    54 -1.072006454E-01
    55 -3.695476454E-02
    56 -2.952945039E-02
    57  5.006934710E-04
    58  1.564846189E-04
    59 -4.134595266E-04
    60  5.767460635E-04
    61  4.663976450E-04
    62  1.560103006E-03
    63  1.772448206E+01
    64 -3.264310891E+00
    65 -2.587584564E+00
    66 -9.583949358E-03
    67 -2.177949452E-03
    68 -3.518033553E-03
    69 -6.801910182E-03
    70 -9.269560913E-03
    71 -8.623766451E-03
    72  9.583904013E-03
    73 -1.006424507E-02
    74 -1.380725217E-02
    75 -1.253533665E-02
    76  5.363624208E-02
    77 -5.343222617E-02
    78 -7.580131670E-02
    79 -7.013222682E-02
    80 -1.271709114E-04
    81  1.735374824E-04
    82 -9.330216363E-04
    83 -4.529882655E-04
    84 -2.053288752E-03
    85  1.883687186E+00
    86 -3.290015537E-02
    87 -5.415993093E-01
    88 -9.444761358E-01
    89 -4.574716377E-03
    90 -7.258665465E-03
    91  2.235032759E-03
    92 -3.064694101E-04
    93  1.400455675E-02
    94  1.732766133E-02
    95  3.671076877E-03
    96 -1.732904782E-03
    97  2.557710381E-02
    98  1.239596256E-01
    99  4.644763757E-03
   100  3.766306400E-02
   101  1.029698024E-02
   102 -2.222953218E-03
   103  1.481607609E-03
   104 -1.332782766E-03
   105  4.492247022E-04
   106  2.499163441E-03
   107 -3.127606032E+00
   108 -4.185460184E-01
   109  5.362366051E-01
   110  1.664997602E+00
   111  1.952159102E-03
   112  3.133417011E-03
   113  5.808954903E-03
   114  1.060722316E-02
   115 -1.423757248E-03
   116 -7.498294598E-03
   117  9.347716769E-03
   118  1.919816161E-02
   119 -2.931621160E-03
   120 -6.403202574E-02
   121  1.611257463E-02
   122  1.334100284E-02
   123 -2.258047173E-04
   124  2.491755677E-03
   125  3.229737548E-04
   126 -1.161641549E-03
   127 -2.738990354E-03
   128 -6.810428736E-03
   129 -3.629788651E+00
   130 -1.506107023E+00
   131 -5.017208358E+00
   132  9.931106426E-01
   133  1.320535421E-02
   134  2.097728947E-02
   135  2.139829543E-02
   136  1.611286792E-02
   137  3.081895265E-04
   138 -5.000716261E-02
   139  3.808564279E-02
   140  2.866911077E-02
   141  5.510092975E-04
   142 -3.895749722E-01
   143 -1.475932285E-02
   144 -8.879510752E-03
   145 -4.229986339E-04
   146  1.102028807E-03
   147 -8.136318188E-04
   148  1.139671881E-03
   149  4.996681446E-04
   150  1.528107657E-03
   151 -4.244204060E+00
   152  8.802605413E-01
   153  6.689139797E-01
   154  7.501914559E-03
   155 -2.177563457E-03
   156 -3.514238566E-03
   157 -1.087244562E-02
   158 -4.209696402E-03
   159  8.410641618E-03
   160  9.502744665E-03
   161 -1.607312265E-02
   162 -6.475328181E-03
   163  1.210911045E-02
   164  5.282355587E-02
   165 -8.579484495E-02
   166 -3.303194677E-02
   167  7.124578079E-02
   168 -9.407368485E-05
   169  8.440263525E-04
   170 -5.365725751E-04
   171 -6.578177784E-04
   172 -1.990595060E-03
   173  1.952991919E+00
   174 -4.644357282E-01
   175  4.650736057E-02
   176  9.976338320E-01
   177 -4.831195992E-03
   178 -7.675980345E-03
   179  7.892410356E-03
   180 -7.650228905E-03
   181 -1.013044549E-02
   182  1.865049894E-02
   183  1.405998995E-02
   184 -1.488034974E-02
   185 -1.817280249E-02
   186  1.261457554E-01
   187  1.196710485E-02
   188  2.461625140E-02
   189 -2.496807096E-02
   190 -3.380199735E-03
   191 -2.457243313E-05
   192 -4.984851472E-04
   193  5.319414869E-04
   194  1.770699833E-03
   195 -3.345672865E+00
   196  3.326888169E-01
   197 -5.283238644E-01
   198 -1.738501667E+00
   199 -2.324714032E-04
   200 -3.068041618E-04
   201 -1.135956546E-02
   202 -2.645037276E-02
   203  4.394832010E-03
   204 -1.455200994E-03
   205 -1.704903881E-02
   206 -4.233971332E-02
   207  7.277545185E-03
   208  2.677094364E-02
   209 -3.117450872E-02
   210 -2.985536882E-02
   211  1.094036507E-03
   212  3.935591959E-04
   213 -2.871248976E-04
   214  7.480354844E-04
   215  8.608108954E-04
   216  9.889711501E-04
   217  1.130929839E+00
   218 -3.425243691E-01
   219  1.485001082E-01
   220 -1.229699093E-01
   221 -4.600204749E-03
   222 -7.280379951E-03
   223  6.827672225E-04
   224  2.353185394E-03
   225 -1.403213727E-02
   226  1.693507464E-02
   227  1.096198620E-04
   228  4.188399958E-03
   229 -2.559371989E-02
   230  1.329921217E-01
   231  3.523034191E-02
   232 -6.395360555E-03
   233 -6.669395927E-03
   234 -2.219323670E-03
   235  1.089378408E-03
   236 -1.669640850E-03
   237  8.711718067E-04
   238  2.365145188E-03
   239 -2.675749919E+00
   240  4.223834444E-01
   241 -6.133751826E-01
   242 -1.575782546E+00
   243 -3.088217418E-04
   244 -4.334278471E-04
   245 -2.824024064E-02
   246 -3.740996428E-03
   247 -4.901646168E-03
   248 -7.853478920E-04
   249 -4.504349197E-02
   250 -4.976384920E-03
   251 -8.144654338E-03
   252  2.153264050E-02
   253 -3.677827484E-02
   254 -1.760043794E-02
   255 -2.584483582E-03
   256  3.849725747E-04
   257 -6.477385520E-04
   258  5.001490110E-04
   259 -1.531481667E-04
   260  1.312246771E-03
   261  5.703580721E-01
   262  6.612679768E-02
   263 -2.681476134E-01
   264  1.034051308E-01
   265  2.733106751E-03
   266  7.520976048E-03
   267 -3.288557611E-03
   268  1.240012355E-03
   269 -2.519407921E-03
   270  1.605773784E-03
   271 -6.504113537E-01
   272  3.061303022E-03
   273 -8.892562135E-04
   274 -3.587727505E-02
   275  7.156615187E-04
   276 -3.699632487E-04
   277 -4.250039950E-03
   278 -1.431054344E+00
   279 -4.263351988E-03
   280 -6.014272199E-04
   281  8.731932301E-03
   282  2.112941370E-03
   283  3.430188072E-03
   284  4.152027762E-03
   285  1.858725334E+00
   286 -4.254051359E-03
   287 -4.616566365E-04
   288  8.489960600E-03
   289  3.939947428E-03
   290  1.170555568E-03
   291 -4.069917015E-03
   292  1.855998923E+00
   293 -1.369154703E-03
   294 -3.864513605E-03
   295 -1.750266707E-02
   296 -1.751156690E-03
   297 -2.499394579E-03
   298 -2.583196577E-03
   299 -1.339873226E-01
   300  2.998111255E-03
   301 -2.113867577E-03
   302 -3.650545046E-02
   303  1.713253274E-03
   304 -1.491977086E-03
   305 -3.538146909E-03
   306 -1.435930984E+00
   307  2.586391011E-03
   308  7.827729410E-03
   309  7.972293830E-04
   310 -2.342563850E-03
   311  2.179793296E-03
   312 -5.028540621E-04
   313 -5.589275555E-01
   314 -6.576309773E-03
   315 -1.364928774E-02
   316  1.825332145E-01
   317 -5.974951236E-03
   318  5.240639980E-04
   319 -1.546264199E-03
   320  2.257676975E+00
   321 -6.650338266E-03
   322 -1.258448952E-02
   323  1.783955497E-01
   324 -1.117508578E-03
   325 -5.820056076E-03
   326  1.441866265E-03
   327  2.246901853E+00
   328 -1.384674008E-03
   329 -3.607000021E-03
   330 -1.620370462E-02
   331 -2.968158736E-03
   332 -9.668095462E-04
   333  2.530494241E-03
   334 -1.105334076E-01
   335  3.158660372E-03
   336 -1.956212910E-03
   337 -3.431821388E-02
   338 -2.010607326E-04
   339  6.965498457E-04
   340  4.252106173E-03
   341 -1.447708871E+00
   342  2.724079072E-03
   343  7.955678547E-03
   344 -6.172185244E-03
   345 -2.066429197E-03
   346  2.011409877E-03
   347 -1.659009017E-03
   348 -6.599611461E-01
   349 -4.418765330E-03
   350 -1.631485176E-02
   351  8.088333362E-02
   352  1.407856102E-03
   353  2.364485047E-03
   354  2.361128314E-03
   355  5.831247910E-01
   356 -4.138591215E-03
   357 -1.518156441E-02
   358  7.658129101E-02
   359  2.362998613E-03
   360  9.906902868E-04
   361 -2.291266118E-03
   362  5.506869357E-01
   363  8.549854638E-03
   364  3.055274524E-02
   365 -1.599259468E-01
   366 -1.063092457E-03
   367  5.786800465E-03
   368 -1.877355484E-03
   369 -9.234538794E-01
   370  2.549271405E-03
   371  7.819741670E-03
   372 -4.696389566E-03
   373  1.382439394E-03
   374 -2.819828829E-03
   375  4.898367353E-04
   376 -5.771370179E-01
   377  2.915795862E-03
   378 -7.669354939E-04
   379 -4.231328268E-02
   380 -1.042370628E-03
   381  1.976691497E-03
   382  3.608739876E-03
   383 -1.415918980E+00
   384 -4.414010883E-03
   385 -1.577092143E-02
   386  7.268986490E-02
   387  2.660268143E-03
   388  7.327060907E-04
   389 -2.231242540E-03
   390  5.783792463E-01
   391 -4.173722234E-03
   392 -1.464343599E-02
   393  6.682406930E-02
   394  1.554004822E-03
   395  1.912533999E-03
   396  2.281514786E-03
   397  5.307677028E-01
   398  8.521775627E-03
   399  3.071267390E-02
   400 -1.639892402E-01
   401  5.251594463E-03
   402 -2.629297883E-03
   403  1.937517551E-03
   404 -8.915297483E-01
Ene=    3.3472981729E-02
Spin= Alpha
Occup=   0.0000000
     1  3.066599475E-05
     2  4.642181215E-05
     3 -3.320088228E-03
     4  4.412425587E-03
     5  1.536616537E-02
     6 -3.877256134E-05
     7 -5.687169066E-03
     8  7.559770999E-03
     9  2.640213129E-02
    10 -2.078953713E-03
    11 -7.749285180E-03
    12  9.650805640E-03
    13  3.439958388E-02
    14  3.609132308E-03
    15  1.023988272E-03
    16 -5.467766487E-03
    17  1.373827799E-03
    18  1.697561876E-03
    19 -2.846910347E-02
    20  5.284079533E-01
    21 -8.001284511E-01
    22 -2.510978810E+00
    23  8.364152726E-03
    24  1.329536413E-02
    25  1.760401960E-02
    26 -1.307739967E-02
    27 -1.369212068E-02
    28 -3.288460652E-02
    29  2.946497978E-02
    30 -2.550686725E-02
    31 -2.693692476E-02
    32 -1.969682448E-01
    33  5.326201765E-02
    34  3.616046094E-02
    35  5.625020929E-03
    36 -9.384931914E-04
    37 -1.611644159E-03
    38  1.531872018E-03
    39  7.505930213E-04
    40  6.457314703E-04
    41  1.788118626E+00
    42  1.789136714E+00
    43 -2.340310959E-01
    44 -4.557804567E-01
    45  1.147515752E-04
    46  1.806275185E-04
    47 -3.634096742E-04
    48 -2.517236167E-04
    49 -2.508503184E-05
    50 -4.525794787E-04
    51 -6.720056206E-04
    52 -4.671342504E-04
    53  3.057202790E-05
    54 -1.451327162E-03
    55 -6.132807514E-04
    56 -7.877374785E-05
    57 -7.488827346E-04
    58 -2.504441459E-03
    59 -2.074763587E-03
    60  2.781324548E-03
    61 -3.516654476E-04
    62 -1.384782671E-03
    63  3.930341243E-02
    64 -3.226752094E-02
    65  1.399715910E-02
    66 -3.322269820E-02
    67 -4.174175383E-05
    68 -6.684833754E-05
    69 -5.603901394E-03
    70  7.136603256E-03
    71 -3.446500398E-03
    72  1.714869557E-04
    73 -7.954075682E-03
    74  1.018713584E-02
    75 -4.893194642E-03
    76  1.006726312E-03
    77 -6.353357899E-02
    78  8.095701501E-02
    79 -3.919164623E-02
    80  2.126425093E-03
    81  2.099646321E-03
    82 -2.099714609E-03
    83  1.390972817E-03
    84  8.471358716E-04
    85  4.486898486E-02
    86 -2.234328077E-01
    87  2.830990387E-01
    88 -1.446038593E-01
    89 -8.513568141E-03
    90 -1.353680924E-02
    91 -4.086873901E-04
    92 -9.485875496E-03
    93  2.447568104E-02
    94  3.358939027E-02
    95  7.896911785E-04
    96 -1.439277326E-02
    97  4.592976631E-02
    98  1.992151064E-01
    99 -4.717338939E-02
   100 -4.161083113E-02
   101 -1.208189492E-03
   102 -1.303026828E-03
   103  6.985629105E-05
   104  9.423533605E-04
   105 -3.737238624E-04
   106 -1.970897646E-03
   107 -1.863854531E+00
   108 -6.221523008E-01
   109 -1.296765915E+00
   110  1.201547948E+00
   111  2.787982501E-05
   112  4.445068609E-05
   113  3.602845090E-03
   114 -4.189900706E-03
   115 -1.537058330E-02
   116 -1.026875284E-04
   117  6.144536995E-03
   118 -7.128211980E-03
   119 -2.640728403E-02
   120 -5.617148848E-04
   121  8.795922556E-03
   122 -9.518942077E-03
   123 -3.389991888E-02
   124  3.692623635E-03
   125  4.924302854E-03
   126 -2.486309276E-03
   127 -3.942980294E-04
   128  2.124262632E-03
   129 -2.910336421E-02
   130 -5.433629098E-01
   131  7.073760500E-01
   132  2.584527902E+00
   133  2.073760562E-04
   134  3.289172110E-04
   135  3.180933504E-04
   136  2.834331188E-04
   137 -1.080420330E-05
   138 -7.500285155E-04
   139  5.595626151E-04
   140  5.345341742E-04
   141 -1.414079045E-05
   142 -6.700119469E-03
   143 -2.619022367E-04
   144 -8.449569791E-04
   145 -1.058391169E-04
   146 -1.784635365E-03
   147 -1.502934193E-03
   148  1.990026619E-03
   149 -2.607701707E-04
   150 -9.796500219E-04
   151 -5.198439346E-02
   152  1.519921036E-02
   153 -2.487931061E-05
   154 -4.258780033E-03
   155 -3.915763761E-05
   156 -6.411472036E-05
   157  5.316482225E-03
   158 -7.339299815E-03
   159  3.447981023E-03
   160  1.886334293E-04
   161  7.588388091E-03
   162 -1.039000766E-02
   163  4.895443705E-03
   164  9.220354953E-04
   165  6.008994947E-02
   166 -8.313689859E-02
   167  3.859602742E-02
   168  2.105999250E-03
   169  1.403181831E-03
   170 -2.565409250E-03
   171 -8.075306720E-04
   172  1.465644045E-03
   173 -2.640464884E-02
   174  1.818108953E-01
   175 -2.521888837E-01
   176  1.046956267E-01
   177  8.362290319E-03
   178  1.329790512E-02
   179 -8.119897382E-03
   180  2.033127368E-02
   181  1.380283782E-02
   182 -3.302004545E-02
   183 -1.714861774E-02
   184  3.500345829E-02
   185  2.703310281E-02
   186 -1.945436194E-01
   187  4.820163666E-02
   188  4.196872796E-02
   189 -3.650140729E-03
   190 -9.350940454E-04
   191 -1.002356199E-03
   192  2.012726840E-03
   193 -2.845065790E-04
   194  9.068393406E-04
   195  2.024001201E+00
   196  1.975599832E-01
   197  1.800032893E+00
   198  4.972341008E-01
   199  1.857889789E-06
   200  3.157968217E-06
   201 -6.760668985E-03
   202  7.891152447E-03
   203  2.901414039E-02
   204 -8.116188079E-07
   205 -1.125578732E-02
   206  1.306923154E-02
   207  4.825522048E-02
   208 -5.563287218E-04
   209 -4.737710666E-03
   210  6.463672120E-03
   211  2.211417192E-02
   212 -2.490700502E-04
   213 -4.794141661E-04
   214  7.652590257E-05
   215  9.324531512E-05
   216 -1.602518657E-04
   217 -1.640697277E-02
   218 -3.401839739E-02
   219  4.349512502E-02
   220  1.414018513E-01
   221 -8.507706072E-03
   222 -1.352911859E-02
   223 -8.926682403E-03
   224  2.457634674E-03
   225 -2.457790574E-02
   226  3.357937773E-02
   227 -1.296074495E-02
   228  5.210753566E-03
   229 -4.608021738E-02
   230  1.985412502E-01
   231 -5.298228569E-02
   232 -3.392901320E-02
   233 -3.629639883E-04
   234 -1.321387884E-03
   235 -9.544662528E-04
   236  1.800410872E-04
   237 -6.766517843E-04
   238 -1.868650079E-03
   239 -1.950725986E+00
   240 -1.400469369E+00
   241 -1.871205077E-01
   242 -1.233702299E+00
   243  2.043411062E-05
   244  3.543283605E-05
   245  6.194989292E-03
   246 -8.291804279E-03
   247 -2.902605824E-02
   248 -2.028697783E-04
   249  1.030588367E-02
   250 -1.372833007E-02
   251 -4.826489367E-02
   252  8.845140875E-04
   253  4.894559893E-03
   254 -7.438227033E-03
   255 -2.208753761E-02
   256 -2.400018483E-04
   257  5.046296107E-05
   258  4.785010909E-04
   259 -1.650916644E-04
   260 -9.829009631E-05
   261  7.241267425E-02
   262  3.136738383E-02
   263 -5.243996852E-02
   264 -1.422729792E-01
   265 -4.854664425E-03
   266 -2.261131474E-03
   267  1.825182487E-01
   268 -4.677890569E-03
   269  5.864821883E-04
   270 -4.320422803E-04
   271  2.387887748E+00
   272 -4.261784911E-03
   273 -1.199328050E-02
   274  4.131363690E-02
   275  1.187742439E-03
   276  4.865077796E-03
   277  3.137541280E-03
   278  9.209406705E-01
   279 -4.055847826E-05
   280 -2.863483313E-04
   281  5.281866604E-03
   282 -1.573098650E-03
   283  2.173042035E-03
   284 -9.080824333E-04
   285  3.805049322E-02
   286 -5.527674982E-05
   287 -2.080863282E-04
   288  2.229347869E-03
   289  1.660630678E-03
   290 -2.101034734E-03
   291  9.112910077E-04
   292  1.324595038E-02
   293 -2.082416636E-05
   294  3.763006741E-05
   295 -1.533778724E-03
   296 -1.760386432E-03
   297  2.269181500E-03
   298 -1.094177486E-03
   299 -3.710553609E-03
   300  4.334506886E-03
   301  1.211349801E-02
   302 -4.740980996E-02
   303 -3.285894698E-03
   304 -2.078899011E-03
   305 -4.564102843E-03
   306 -9.680337127E-01
   307  4.935984270E-03
   308  2.471950008E-03
   309 -1.817004416E-01
   310  9.534015689E-04
   311  4.329746991E-03
   312 -1.795854332E-03
   313 -2.393783060E+00
   314 -1.114542522E-04
   315 -5.743753931E-05
   316  3.004026385E-03
   317 -6.670628726E-04
   318  7.433060775E-04
   319  2.560935004E-03
   320  3.067782241E-02
   321 -9.935338940E-05
   322 -2.463325693E-04
   323  3.105504406E-03
   324  5.729146781E-04
   325 -8.368279099E-04
   326 -2.556914053E-03
   327  3.006988653E-02
   328 -8.738756790E-06
   329 -1.245896099E-04
   330 -1.204271826E-04
   331  1.701171291E-03
   332 -2.327625560E-03
   333  1.088846215E-03
   334 -5.028255999E-03
   335 -4.285839219E-03
   336 -1.169761736E-02
   337  4.064781640E-02
   338  5.038101858E-03
   339 -1.116041734E-04
   340 -3.057804165E-03
   341  9.299700796E-01
   342 -4.868216004E-03
   343 -2.095922274E-03
   344  1.803397774E-01
   345 -6.972551684E-04
   346 -4.684878731E-03
   347  3.671554758E-04
   348  2.378987225E+00
   349  9.389379816E-03
   350  2.891530215E-02
   351 -8.178859926E-02
   352 -2.093412382E-03
   353 -2.673399574E-03
   354 -4.664429128E-03
   355 -8.308991243E-01
   356 -9.534426354E-03
   357 -2.916239803E-02
   358  7.891792936E-02
   359  4.150763313E-03
   360  2.140050545E-04
   361 -4.132531764E-03
   362  8.417621262E-01
   363  1.224202578E-04
   364  5.080824615E-04
   365 -1.489107755E-03
   366  1.573309001E-04
   367 -1.388292112E-04
   368 -7.973660218E-04
   369 -4.255975201E-03
   370  4.937268191E-03
   371  2.467640484E-03
   372 -1.830738376E-01
   373  4.410703964E-03
   374 -2.608419612E-04
   375  1.859849102E-03
   376 -2.404006878E+00
   377  4.366073272E-03
   378  1.164960236E-02
   379 -4.361796193E-02
   380 -2.936802090E-03
   381 -2.653162707E-03
   382  4.467911929E-03
   383 -9.605554793E-01
   384  9.404157308E-03
   385  2.862688278E-02
   386 -7.673883487E-02
   387 -3.196191094E-03
   388 -1.354871578E-03
   389  4.582124074E-03
   390 -8.279272000E-01
   391 -9.527619280E-03
   392 -2.925541267E-02
   393  8.274268989E-02
   394  1.253135968E-03
   395  3.900140564E-03
   396  4.210092123E-03
   397  8.395916623E-01
   398  1.380395942E-04
   399  3.642469712E-04
   400  6.603959779E-04
   401 -1.041761345E-04
   402  1.882125063E-04
   403  7.993552981E-04
   404 -1.486355864E-02
Ene=    4.4059752666E-02
Spin= Alpha
Occup=   0.0000000
     1 -6.662014231E-03
     2 -1.095883456E-02
     3 -2.914391426E-04
     4  1.675465824E-02
     5 -4.812968454E-03
     6  3.582055780E-02
     7 -5.187856321E-03
     8  2.109522517E-02
     9 -7.031082480E-03
    10  2.616510719E-01
    11 -8.993075789E-04
    12  1.347167299E-01
    13 -3.928674239E-02
    14 -1.964283044E-03
    15  5.945485660E-04
    16  2.403942353E-04
    17  2.324594007E-03
    18  2.500395663E-03
    19  3.548339249E+00
    20 -8.299903560E-01
    21  5.450502564E+00
    22 -1.670229847E+00
    23 -8.464078108E-03
    24 -1.375638120E-02
    25 -2.015724556E-02
    26  6.383525607E-03
    27  4.008260431E-03
    28  4.100077937E-02
    29 -2.905834311E-02
    30  7.084797267E-03
    31  4.101343105E-03
    32  1.040481340E-01
    33 -8.669922518E-02
    34  9.372429721E-02
    35  2.291275089E-02
    36  2.751775681E-03
    37 -4.829614314E-03
    38  1.052265512E-03
    39 -2.471685847E-03
    40  1.377788079E-03
    41 -3.415595715E-01
    42 -7.898830301E-01
    43 -6.504814293E-02
    44  6.265529493E-01
    45 -1.451342073E-02
    46 -2.315515266E-02
    47  2.365996281E-02
    48  1.804796587E-02
    49  2.658660775E-04
    50  5.778473666E-02
    51  3.241848541E-02
    52  2.445555291E-02
    53  2.649498159E-04
    54  3.677201225E-01
    55  4.979681538E-02
    56  4.525648691E-02
    57  2.147557799E-04
    58 -5.086873231E-03
    59  3.051852880E-03
    60 -3.856578230E-03
    61 -7.616366235E-04
    62 -2.804170843E-03
    63  9.683745693E+00
    64 -5.940881910E-01
    65 -3.698742967E-01
    66 -2.124847833E-02
    67  3.503149686E-03
    68  5.689499075E-03
    69  1.393170217E-02
    70  3.560250574E-03
    71 -1.539212929E-02
    72 -1.918534201E-02
    73  1.058799754E-02
    74  8.801176816E-04
    75 -1.591832918E-02
    76 -2.534941874E-02
    77  1.487301190E-01
    78  3.006848590E-02
    79 -1.774592882E-01
    80  1.228420636E-03
    81  2.372941265E-03
    82  4.883048828E-04
    83 -1.985806993E-03
    84 -4.250456363E-03
    85  6.208664189E+00
    86  2.527751719E+00
    87  4.659454911E-02
    88 -3.861693554E+00
    89 -8.464249308E-03
    90 -1.378517020E-02
    91 -3.423587686E-03
    92 -1.585876381E-02
    93  1.419973905E-02
    94  4.193147519E-02
    95 -5.648561184E-03
    96 -2.330988648E-02
    97  1.813334744E-02
    98  9.259834062E-02
    99  3.545369502E-02
   100 -7.580406361E-02
   101  1.047677489E-01
   102  3.943921210E-03
   103 -1.708495764E-03
   104  1.229674859E-03
   105  4.360458629E-03
   106  1.516218801E-04
   107 -1.016964533E+00
   108 -4.934136083E-01
   109 -4.314761010E-01
   110  8.852794694E-01
   111 -6.717803038E-03
   112 -1.103457703E-02
   113  1.579830587E-02
   114 -4.710985624E-03
   115  4.952695254E-03
   116  3.528636707E-02
   117  1.894633617E-02
   118 -1.083440256E-02
   119  7.525288414E-03
   120  2.718883333E-01
   121  1.219253926E-01
   122 -3.445956095E-02
   123  3.657046578E-02
   124 -1.916343503E-03
   125 -3.685600120E-04
   126 -3.985115527E-04
   127 -7.014879143E-04
   128  3.401994975E-03
   129  4.604263982E+00
   130  4.727884553E+00
   131 -2.105534255E+00
   132  1.706714617E+00
   133 -4.058357909E-03
   134 -7.019579811E-03
   135 -1.924653996E-03
   136 -1.451288380E-03
   137 -1.087512912E-04
   138  3.307754871E-02
   139 -7.213919077E-04
   140 -3.122415713E-04
   141  1.404200330E-04
   142 -1.599468064E-01
   143 -1.407984647E-01
   144 -1.085647231E-01
   145 -5.628483841E-03
   146 -1.914760320E-03
   147  1.994390767E-04
   148 -2.559273131E-04
   149  6.661942772E-04
   150  2.421471830E-03
   151 -8.754670637E+00
   152 -1.784406169E+00
   153 -1.358750321E+00
   154 -4.587591735E-02
   155  3.599464888E-03
   156  5.839779428E-03
   157  6.910262168E-03
   158  1.246833664E-02
   159  1.575037642E-02
   160 -1.930379625E-02
   161  3.537125597E-03
   162  1.007389470E-02
   163  1.623716974E-02
   164 -3.252635492E-02
   165  6.565282269E-02
   166  1.313879265E-01
   167  1.785352078E-01
   168  1.209799535E-03
   169 -1.152422253E-03
   170 -2.172226857E-03
   171 -4.292321467E-04
   172 -4.594499125E-03
   173  5.324015573E+00
   174  6.312557406E-01
   175  2.201578652E+00
   176  3.823355960E+00
   177 -8.472143414E-03
   178 -1.378217973E-02
   179  7.462061350E-04
   180 -2.111606882E-02
   181 -4.353655343E-03
   182  4.152277923E-02
   183 -4.888314196E-04
   184 -2.943209435E-02
   185 -4.650073420E-03
   186  9.766004917E-02
   187  6.124495986E-02
   188 -1.145970271E-01
   189 -2.814683604E-02
   190  2.808820281E-03
   191  2.319064956E-04
   192  4.743340189E-03
   193  2.928381467E-03
   194 -2.400649533E-04
   195 -3.751987455E-01
   196 -2.796114639E-01
   197 -8.278864094E-01
   198 -5.966009470E-01
   199  4.192010973E-03
   200  6.583854435E-03
   201  1.321452039E-04
   202 -7.771407480E-03
   203  2.235440772E-03
   204 -1.639898429E-02
   205 -6.140758139E-03
   206 -8.175800517E-03
   207  8.428325008E-04
   208 -1.334860192E-01
   209  1.133492582E-01
   210 -7.444477498E-02
   211  4.821471750E-02
   212 -1.519256549E-03
   213  2.540616853E-03
   214 -6.008197011E-04
   215  3.822443140E-03
   216 -3.205386608E-03
   217 -1.134205814E+01
   218  1.771784381E+00
   219 -9.799176870E-01
   220  6.791882123E-01
   221 -8.478741032E-03
   222 -1.376296594E-02
   223 -1.583519298E-02
   224  1.060468267E-03
   225 -1.447963847E-02
   226  4.056978000E-02
   227 -2.377031833E-02
   228  6.847064762E-04
   229 -1.853064860E-02
   230  1.091885254E-01
   231 -5.800510532E-02
   232  5.520830133E-02
   233 -9.892064615E-02
   234  4.037886974E-03
   235 -7.875798547E-04
   236  1.969423504E-03
   237 -3.661585050E-03
   238  2.352767849E-03
   239  1.467905647E-01
   240 -4.140601878E-01
   241 -4.866952079E-01
   242 -6.962908181E-01
   243  4.352854283E-03
   244  6.865253409E-03
   245 -7.440805554E-03
   246  2.008792255E-03
   247 -2.320420020E-03
   248 -1.754968689E-02
   249 -9.523382493E-03
   250 -4.148901222E-03
   251 -1.103503423E-03
   252 -1.319292056E-01
   253 -3.969962762E-02
   254  1.287567368E-01
   255 -4.532351510E-02
   256 -1.557437045E-03
   257 -1.973377712E-04
   258 -2.570197125E-03
   259 -5.040173340E-03
   260 -6.899179777E-04
   261 -1.139531173E+01
   262 -4.771318349E-01
   263  1.977150380E+00
   264 -6.702198743E-01
   265 -5.541821459E-03
   266 -2.695481892E-02
   267 -2.353746635E-01
   268  5.647989172E-03
   269 -1.233104455E-03
   270  5.673487150E-03
   271 -1.320414688E+00
   272 -4.837269962E-04
   273 -1.944563783E-02
   274 -4.476778926E-02
   275 -5.321094555E-03
   276 -7.323696144E-04
   277 -5.928641491E-04
   278 -2.553858043E-01
   279 -4.324780104E-03
   280 -1.286578207E-02
   281 -3.375804182E-01
   282  1.713539948E-04
   283 -3.262981011E-03
   284 -7.431343312E-03
   285 -1.804653750E+00
   286 -4.325276818E-03
   287 -1.301794445E-02
   288 -3.317832493E-01
   289 -3.242829303E-03
   290  9.324431227E-04
   291  7.398881360E-03
   292 -1.794640260E+00
   293 -7.150794486E-03
   294 -1.282436385E-02
   295  4.120927822E-01
   296 -1.892279948E-03
   297  2.748052892E-04
   298  3.770113403E-03
   299  3.788045954E+00
   300 -4.386047072E-04
   301 -2.019364382E-02
   302 -3.247179841E-02
   303 -2.301649953E-03
   304 -4.739349345E-03
   305  1.161986634E-03
   306 -2.494409334E-01
   307 -5.483220092E-03
   308 -2.713609576E-02
   309 -2.298778807E-01
   310 -1.199165607E-03
   311  7.916868644E-03
   312  1.508246124E-03
   313 -1.346541603E+00
   314 -9.248030472E-04
   315 -2.141424909E-02
   316 -5.392472426E-02
   317  6.483608015E-04
   318 -4.162534393E-03
   319  1.327088464E-03
   320 -2.174964354E-01
   321 -9.070137831E-04
   322 -2.101262445E-02
   323 -5.464465243E-02
   324 -3.827692768E-03
   325  1.743652318E-03
   326 -1.361023449E-03
   327 -2.036901358E-01
   328 -7.144339886E-03
   329 -1.351998045E-02
   330  4.262389512E-01
   331 -2.209095326E-04
   332 -1.932184342E-03
   333 -3.825091081E-03
   334  3.771319759E+00
   335 -4.533921199E-04
   336 -1.978844463E-02
   337 -3.582086269E-02
   338 -2.168085077E-03
   339 -4.905981301E-03
   340  5.502815318E-04
   341 -1.987762479E-01
   342 -5.559297662E-03
   343 -2.603056338E-02
   344 -2.482602868E-01
   345  4.283697099E-04
   346  5.862894872E-03
   347 -5.618439004E-03
   348 -1.397479064E+00
   349 -3.461796994E-03
   350 -3.245627464E-02
   351  2.670521583E-01
   352  2.870218357E-03
   353 -1.776449417E-03
   354  2.454929506E-03
   355  1.438857914E+00
   356 -3.406207108E-03
   357 -3.214489821E-02
   358  2.691822773E-01
   359  3.398239164E-03
   360 -2.430193462E-03
   361  1.771704381E-04
   362  1.444233894E+00
   363 -3.359050838E-03
   364 -3.630743176E-02
   365  1.440421480E-01
   366  4.138299625E-03
   367  7.535360036E-04
   368  7.371931502E-04
   369  3.264531489E-01
   370 -5.545618246E-03
   371 -2.659634917E-02
   372 -2.367408002E-01
   373  7.239229019E-03
   374 -3.267394713E-03
   375 -1.465141264E-03
   376 -1.307209598E+00
   377 -5.065039052E-04
   378 -1.904561556E-02
   379 -5.261982948E-02
   380 -5.165994712E-03
   381 -9.306185034E-04
   382 -1.335559123E-03
   383 -2.989400655E-01
   384 -3.464346638E-03
   385 -3.181328919E-02
   386  2.684672242E-01
   387 -8.510475908E-04
   388  3.247962125E-03
   389 -2.461445092E-03
   390  1.460680800E+00
   391 -3.544597045E-03
   392 -3.174404520E-02
   393  2.657129451E-01
   394 -1.401484711E-03
   395  3.906875101E-03
   396 -6.832727414E-05
   397  1.439926440E+00
   398 -3.451459032E-03
   399 -3.446475601E-02
   400  1.373587293E-01
   401  1.833980976E-03
   402  3.742147024E-03
   403 -6.359083339E-04
   404  2.985773748E-01
Ene=    5.2843464154E-02
Spin= Alpha
Occup=   0.0000000
     1 -2.862999804E-03
     2 -4.567537267E-03
     3 -6.129910688E-03
     4 -1.077297410E-02
     5  1.655852204E-03
     6  1.084069611E-02
     7 -1.358741699E-02
     8 -1.248275477E-02
     9  2.233576475E-04
    10  4.481844417E-02
    11 -1.818221674E-02
    12 -1.409464672E-01
    13  3.676873342E-02
    14 -1.659314018E-03
    15  2.466310737E-03
    16 -1.185377150E-03
    17  2.423119229E-03
    18 -3.658124118E-03
    19 -6.865304525E-01
    20 -2.115868225E+00
    21 -6.317865972E+00
    22  1.146614834E+00
    23  5.580823418E-03
    24  8.864020711E-03
    25 -7.154959027E-03
    26 -8.632526396E-03
    27 -7.006244131E-03
    28 -1.994460154E-02
    29 -6.948314050E-03
    30 -1.096258173E-02
    31 -8.901169314E-03
    32 -2.252546588E-01
    33 -6.622928228E-02
    34  3.317582494E-02
    35 -1.362456421E-02
    36  1.966887430E-03
    37 -1.615151899E-03
    38  6.893304762E-04
    39  5.371814629E-04
    40  5.946032487E-04
    41 -7.160344353E+00
    42 -1.052380983E+00
    43  6.837798068E-01
    44 -1.299076626E-01
    45  1.028954390E-05
    46  9.050879195E-06
    47 -7.653217144E-03
    48  1.010500297E-02
    49 -4.724748457E-03
    50  6.023315631E-05
    51 -9.807274847E-03
    52  1.290929582E-02
    53 -5.941437280E-03
    54  7.735888320E-04
    55 -2.017222699E-02
    56  2.806332812E-02
    57 -1.541145640E-02
    58  4.462467755E-06
    59 -1.552794726E-05
    60  7.308227303E-06
    61 -9.588210420E-06
    62 -5.513491818E-06
    63 -8.173212123E-01
    64 -3.371356124E+00
    65  4.733284745E+00
    66 -2.115116235E+00
    67  1.119128879E-04
    68  1.775125299E-04
    69 -5.128705725E-04
    70  8.498536650E-04
    71 -5.796393459E-04
    72 -2.814502494E-04
    73  2.343850842E-03
    74 -2.480919277E-03
    75  8.819838725E-04
    76 -5.913793243E-03
    77 -7.312275864E-02
    78  9.289145435E-02
    79 -4.197098840E-02
    80 -1.032194478E-03
    81 -1.095296853E-03
    82  1.089290276E-03
    83 -5.543992172E-04
    84 -5.009197282E-04
    85 -7.825867897E-01
    86 -1.148138653E+00
    87  1.351443856E+00
    88 -4.894101380E-01
    89 -5.648014145E-03
    90 -8.953698785E-03
    91  7.083452125E-03
    92  8.560506806E-03
    93  7.096513166E-03
    94  1.979281908E-02
    95  8.303140902E-03
    96  9.073361635E-03
    97  9.769974407E-03
    98  2.293051442E-01
    99 -1.716961032E-02
   100  6.934968094E-02
   101 -3.131004783E-02
   102 -1.756413572E-03
   103  1.876907585E-03
   104 -9.197136116E-04
   105 -4.067102742E-04
   106 -5.547711297E-04
   107  8.289649270E+00
   108 -2.566538584E-01
   109  1.078383419E+00
   110 -8.813733258E-01
   111  2.839146773E-03
   112  4.526927282E-03
   113  1.197379221E-02
   114  3.025496076E-03
   115  1.871416450E-03
   116 -1.076681164E-02
   117  1.587352794E-02
   118  9.951766887E-03
   119  4.528810681E-04
   120 -4.268565291E-02
   121  1.367998864E-01
   122 -2.156223090E-02
   123  4.117324311E-02
   124  1.708945590E-03
   125 -5.062176450E-04
   126  2.615005883E-03
   127  4.027372095E-03
   128  1.795072896E-03
   129  1.229461043E+00
   130  6.608931340E+00
   131  7.017085936E-01
   132  1.256334389E+00
   133  3.483506901E-06
   134  1.420818459E-05
   135  1.665340947E-02
   136 -2.196848064E-02
   137  1.010632065E-02
   138 -1.834911696E-04
   139  2.036192377E-02
   140 -2.664676261E-02
   141  1.187257556E-02
   142  1.079598491E-03
   143  1.187801950E-01
   144 -1.578103459E-01
   145  7.767546057E-02
   146 -1.550943610E-05
   147  6.637341001E-04
   148  4.930808372E-04
   149  1.968936794E-03
   150 -5.198431114E-04
   151  2.595248444E-01
   152  1.741762982E+00
   153 -2.256223141E+00
   154  1.053034659E+00
   155 -2.063505673E-05
   156 -3.002993834E-05
   157 -6.887851519E-04
   158  8.450057610E-04
   159 -3.996898952E-04
   160 -7.245893897E-05
   161  2.089832396E-03
   162 -2.753872623E-03
   163  1.203139191E-03
   164  2.836550396E-03
   165 -7.374852821E-02
   166  9.588508777E-02
   167 -4.170208211E-02
   168  1.048072889E-03
   169  7.151842288E-04
   170 -1.306232053E-03
   171 -3.004832489E-04
   172  6.992769317E-04
   173  4.428041065E-01
   174 -9.880252334E-01
   175  1.491410780E+00
   176 -6.430022141E-01
   177 -5.616133807E-03
   178 -8.922738776E-03
   179  1.041561225E-02
   180  4.629826318E-03
   181 -6.994791002E-03
   182  2.016100609E-02
   183  1.258868906E-02
   184  3.711422521E-03
   185 -8.825224794E-03
   186  2.242342140E-01
   187 -1.468495868E-02
   188  7.432423561E-02
   189 -1.676189019E-02
   190 -2.040819114E-03
   191  3.219553378E-04
   192 -1.665240171E-03
   193  1.408799735E-04
   194 -7.563100776E-04
   195  7.761236839E+00
   196 -3.915130799E-01
   197  1.320696964E+00
   198 -1.969999168E-02
   199  4.489632086E-04
   200  5.704226775E-04
   201  1.243550031E-02
   202  4.239761735E-02
   203 -9.265734136E-03
   204  3.800795386E-03
   205  1.496747089E-02
   206  6.259444900E-02
   207 -1.443720342E-02
   208 -1.209051696E-01
   209  1.241426407E-01
   210  1.173775802E-01
   211 -6.533254300E-03
   212 -2.559428035E-03
   213  1.232269446E-03
   214 -2.988204051E-03
   215 -3.117958973E-03
   216 -2.231898857E-03
   217 -6.088485558E+00
   218  1.418844450E+00
   219  1.923625857E+00
   220 -2.151740510E-01
   221  5.605938536E-03
   222  8.879903970E-03
   223 -1.033161143E-02
   224 -4.636112689E-03
   225  6.817903792E-03
   226 -1.940083301E-02
   227 -1.122632542E-02
   228 -5.510712497E-03
   229  9.499177847E-03
   230 -2.313381892E-01
   231 -6.095315632E-02
   232  3.213513318E-02
   233 -3.467145296E-02
   234  1.808706999E-03
   235 -4.464187103E-04
   236  1.963730111E-03
   237 -4.010858610E-05
   238  6.625168157E-04
   239 -8.418617655E+00
   240 -1.007655967E+00
   241  6.459983361E-01
   242 -8.994101490E-01
   243 -5.027478275E-04
   244 -6.654569610E-04
   245 -4.420215050E-02
   246 -4.811972258E-04
   247 -9.849703157E-03
   248 -3.452818226E-03
   249 -6.475266117E-02
   250  2.684779243E-03
   251 -1.525108749E-02
   252  1.205637150E-01
   253 -1.425796613E-01
   254 -8.864163264E-02
   255 -9.285140123E-03
   256  2.535870497E-03
   257 -2.602269966E-03
   258  1.957968388E-03
   259 -1.422633422E-03
   260  3.466565247E-03
   261  5.995615076E+00
   262 -2.245433297E+00
   263 -8.082255551E-01
   264 -2.589571706E-01
   265 -1.610960161E-03
   266 -4.256345063E-03
   267 -3.186567191E-02
   268 -1.251335564E-03
   269 -2.954277336E-03
   270  2.255625519E-03
   271 -1.672484918E-01
   272 -3.126647099E-04
   273 -1.419599356E-02
   274  3.074093975E-01
   275  3.251409811E-04
   276  2.842545164E-03
   277  3.018278421E-03
   278  1.523793537E+00
   279  2.267665735E-05
   280 -6.163382119E-04
   281  1.491319369E-02
   282 -1.707594634E-03
   283  2.255289752E-03
   284 -1.028781631E-03
   285  1.772146097E-02
   286  2.627986428E-05
   287 -7.034531458E-04
   288  5.848283311E-03
   289 -1.693371622E-03
   290  2.295440611E-03
   291 -1.027964473E-03
   292 -1.736457975E-02
   293  5.071867024E-06
   294 -3.740692919E-04
   295  8.902362579E-03
   296 -1.388606154E-03
   297  1.727882668E-03
   298 -7.138365133E-04
   299 -1.408138643E-02
   300  2.789961540E-04
   301  1.510341816E-02
   302 -3.235373661E-01
   303 -1.357916576E-03
   304 -1.485372311E-03
   305 -3.633811581E-03
   306 -1.515478542E+00
   307  1.544816217E-03
   308  5.572235496E-03
   309  1.561387686E-02
   310  3.794357623E-03
   311 -4.333665059E-04
   312 -6.892754076E-04
   313  1.460343266E-01
   314 -2.798183059E-03
   315 -5.109027587E-03
   316  4.017268021E-01
   317 -3.870937423E-03
   318  1.012250998E-03
   319 -1.187639068E-03
   320  2.721951027E+00
   321  2.725187879E-03
   322  6.010901413E-03
   323 -4.090255957E-01
   324  6.365361082E-05
   325  4.002437896E-03
   326 -1.132955729E-03
   327 -2.746782790E+00
   328 -1.856915750E-05
   329  4.024900425E-04
   330 -7.548443113E-03
   331 -1.258976539E-03
   332  1.764869515E-03
   333 -8.098281606E-04
   334  1.102067944E-02
   335  2.715532243E-04
   336  1.488920767E-02
   337 -3.287741631E-01
   338 -2.914381682E-03
   339  3.600889773E-04
   340  3.004798550E-03
   341 -1.537888809E+00
   342  1.590665541E-03
   343  4.480217579E-03
   344  2.511546629E-02
   345  3.146091053E-03
   346  3.874294953E-04
   347  2.258375689E-03
   348  2.332373476E-01
   349 -5.304596966E-04
   350  4.004670578E-03
   351 -2.721288806E-01
   352 -6.404914222E-04
   353 -9.067469474E-04
   354 -5.688129983E-03
   355 -1.492025231E+00
   356 -6.160746893E-04
   357  3.595523882E-03
   358 -2.765031370E-01
   359 -2.977452678E-03
   360  1.987366028E-03
   361  4.559795570E-03
   362 -1.489606302E+00
   363 -2.728854606E-03
   364 -1.449515242E-02
   365  3.416001243E-01
   366  2.234739093E-03
   367 -9.518774948E-03
   368  3.197180885E-03
   369  4.482886067E+00
   370 -1.544016064E-03
   371 -5.369764477E-03
   372 -1.190175772E-02
   373 -5.216332052E-04
   374 -3.786925238E-03
   375 -7.176950395E-04
   376 -1.831225798E-01
   377 -2.415950190E-04
   378 -1.536253604E-02
   379  3.255032998E-01
   380  1.837993765E-03
   381  1.000893731E-03
   382 -3.585135496E-03
   383  1.518585538E+00
   384  4.940317135E-04
   385 -4.759359762E-03
   386  2.731955316E-01
   387  1.157803097E-03
   388  4.800338877E-04
   389 -5.709789296E-03
   390  1.491621662E+00
   391  5.804905008E-04
   392 -4.042443425E-03
   393  2.764039308E-01
   394 -1.226498405E-03
   395  3.346440211E-03
   396  4.539699563E-03
   397  1.468991790E+00
   398  2.888880025E-03
   399  1.376550816E-02
   400 -3.252121618E-01
   401  8.561773845E-03
   402 -4.724153733E-03
   403  3.306720274E-03
   404 -4.476386392E+00
Ene=    5.4994090704E-02
Spin= Alpha
Occup=   0.0000000
     1  1.926691207E-06
     2  7.527506670E-06
     3  3.897826305E-03
     4 -4.966517324E-03
     5 -1.707180260E-02
     6 -2.102301037E-04
     7  7.088450406E-03
     8 -8.935122483E-03
     9 -3.115048387E-02
    10  3.055478514E-03
    11  1.314922577E-02
    12 -1.784989152E-02
    13 -6.066413704E-02
    14  9.582133253E-04
    15 -4.281206390E-03
    16 -5.210157564E-03
    17  2.439347704E-03
    18  1.487589100E-05
    19  3.546764908E-01
    20  9.916256287E-02
    21  6.666316696E-03
    22 -2.222384380E-01
    23 -7.346922731E-03
    24 -1.175145263E-02
    25 -1.311677133E-02
    26 -1.748219472E-03
    27 -1.733930416E-02
    28  3.054029029E-02
    29 -1.822615420E-02
    30 -1.713407498E-03
    31 -1.707338015E-02
    32  1.741766603E-01
    33 -6.245958786E-02
    34 -7.047451178E-02
    35 -1.162676645E-01
    36  7.372759870E-04
    37  2.611469588E-03
    38  1.800446231E-03
    39 -2.456269872E-03
    40 -6.625585100E-04
    41  4.859990366E+00
    42 -1.547352843E+00
    43 -2.947896012E-01
    44 -1.995916933E+00
    45  3.408551101E-05
    46  5.281187495E-05
    47 -6.953847342E-05
    48 -6.420982762E-05
    49 -1.193471594E-04
    50 -1.553562668E-04
    51 -1.022574836E-04
    52 -1.095069398E-04
    53 -7.651965382E-05
    54  2.129482941E-03
    55 -2.854401494E-04
    56 -1.222603965E-03
    57 -1.618915684E-03
    58  1.951542010E-03
    59  1.590637771E-03
    60 -2.129850743E-03
    61  2.774817860E-04
    62  1.127658048E-03
    63 -5.714352583E-01
    64  8.726869063E-02
    65  7.038995345E-02
    66 -3.114755605E-02
    67  5.935012379E-05
    68  9.194704850E-05
    69  3.207373627E-03
    70 -4.233517105E-03
    71  1.860740660E-03
    72 -6.846975523E-05
    73  4.653861640E-04
    74 -5.562876875E-04
    75  3.709702776E-04
    76 -5.537718857E-03
    77  8.030407414E-02
    78 -1.094122903E-01
    79  4.675752313E-02
    80  1.701414442E-03
    81  8.264819636E-04
    82 -2.289449833E-03
    83 -1.675403906E-03
    84  1.472565807E-03
    85 -2.482868595E-01
    86  7.930093344E-01
    87 -1.117133842E+00
    88  4.747495879E-01
    89  7.276453796E-03
    90  1.164140900E-02
    91 -5.859218293E-04
    92  1.978007640E-02
    93  9.168216261E-03
    94 -3.024651991E-02
    95  1.436789138E-03
    96  2.375269357E-02
    97  6.984764000E-03
    98 -1.740119724E-01
    99  3.111430705E-02
   100  1.082738247E-01
   101  1.024474674E-01
   102 -6.260179726E-04
   103 -3.021892079E-03
   104 -2.298384457E-03
   105  7.889496414E-04
   106  1.200644472E-03
   107 -4.560462717E+00
   108 -6.703521893E-02
   109  2.347628637E+00
   110  1.033533998E+00
   111  1.067104176E-06
   112  8.286030673E-07
   113 -3.892094023E-03
   114  4.858240183E-03
   115  1.705232283E-02
   116 -4.023787850E-05
   117 -7.021084639E-03
   118  8.887949953E-03
   119  3.104460297E-02
   120  1.153541836E-03
   121 -1.412093591E-02
   122  1.636363169E-02
   123  6.237644270E-02
   124  1.218555425E-03
   125  6.111891765E-03
   126  2.749410290E-03
   127 -2.130403351E-03
   128  1.158780107E-03
   129  2.997417190E-01
   130  4.511513914E-03
   131  1.730732692E-01
   132  2.623683316E-01
   133 -2.890556478E-05
   134 -4.528845284E-05
   135 -3.915571787E-05
   136  2.200268645E-06
   137  2.915705980E-06
   138  1.161342189E-04
   139 -1.018092564E-04
   140 -1.458880960E-04
   141 -6.394486810E-05
   142 -1.099700045E-03
   143 -9.249678391E-04
   144  9.797710684E-04
   145  1.009103167E-03
   146  9.417242904E-04
   147  7.788528473E-04
   148 -1.035771354E-03
   149  1.193213299E-04
   150  5.306929645E-04
   151 -1.147608981E-01
   152 -4.445409345E-02
   153 -4.279548137E-03
   154  8.090160274E-03
   155 -1.717220495E-05
   156 -2.883531686E-05
   157 -3.232484674E-03
   158  4.210089870E-03
   159 -1.966879786E-03
   160  1.365936813E-04
   161 -4.223333893E-04
   162  5.783601194E-04
   163 -4.420918255E-04
   164 -9.214477385E-04
   165 -8.341371919E-02
   166  1.069123985E-01
   167 -4.695660557E-02
   168  1.717395901E-03
   169  1.955663174E-03
   170 -1.454761910E-03
   171  2.160287585E-03
   172  4.100919154E-04
   173  4.649283407E-02
   174 -8.389123892E-01
   175  1.075170366E+00
   176 -4.619951964E-01
   177 -7.347822830E-03
   178 -1.175427761E-02
   179 -5.356718108E-03
   180 -1.233641909E-02
   181  1.702027235E-02
   182  3.058894451E-02
   183 -6.703732993E-03
   184 -1.718446291E-02
   185  1.659110974E-02
   186  1.738710719E-01
   187 -8.395604291E-02
   188 -4.207878658E-02
   189  1.146493723E-01
   190  6.189447160E-04
   191 -2.427076019E-03
   192 -2.091481328E-03
   193  1.763395426E-03
   194 -1.760888960E-03
   195  4.858409365E+00
   196 -6.725512511E-01
   197 -1.439821491E+00
   198  2.009312037E+00
   199 -3.793822603E-05
   200 -7.136412396E-05
   201 -8.821748662E-03
   202  1.103518749E-02
   203  3.886468504E-02
   204  4.576106153E-04
   205 -1.371694507E-02
   206  1.687761272E-02
   207  5.980131086E-02
   208 -2.669309476E-03
   209 -2.627985835E-02
   210  3.727001359E-02
   211  1.263913871E-01
   212 -1.625112961E-03
   213 -6.059853566E-03
   214 -1.972352673E-03
   215  1.882507262E-03
   216 -1.394181428E-03
   217 -1.209245346E-01
   218 -2.957339590E-01
   219  3.875259138E-01
   220  1.413113539E+00
   221  7.388346895E-03
   222  1.182089790E-02
   223  1.907396247E-02
   224 -5.750589018E-03
   225 -8.826614705E-03
   226 -3.077101355E-02
   227  2.339901607E-02
   228 -4.919923784E-03
   229 -6.485934991E-03
   230 -1.747930172E-01
   231  1.143904438E-01
   232  3.494564384E-03
   233 -1.003708911E-01
   234 -4.847995010E-04
   235  3.061439747E-03
   236  2.327492264E-03
   237 -6.012891240E-05
   238  1.343061882E-03
   239 -4.713843744E+00
   240  2.281426559E+00
   241 -6.624058533E-01
   242 -1.026064142E+00
   243 -4.494592343E-05
   244 -8.099456165E-05
   245  8.768502567E-03
   246 -1.098100127E-02
   247 -3.886994731E-02
   248  4.921593798E-04
   249  1.340350370E-02
   250 -1.699005373E-02
   251 -5.976846650E-02
   252 -2.517381703E-03
   253  3.048233517E-02
   254 -3.431839855E-02
   255 -1.276762679E-01
   256 -1.377859651E-03
   257  3.512519988E-03
   258  5.398031986E-03
   259 -2.319913687E-03
   260 -3.165895148E-04
   261 -1.254902557E-01
   262  3.115162407E-01
   263 -3.735911096E-01
   264 -1.415460602E+00
   265  2.682467698E-03
   266  2.358392442E-02
   267 -4.892670275E-01
   268  5.875093016E-03
   269 -9.051563204E-05
   270 -1.176497177E-03
   271 -3.323507181E+00
   272  1.972027238E-03
   273  1.093645004E-02
   274  1.613446213E-01
   275  1.205537879E-03
   276  2.296268157E-03
   277 -1.799514843E-04
   278  1.571839900E+00
   279  2.837634868E-05
   280 -2.233892391E-04
   281  1.318669999E-02
   282 -1.264744138E-03
   283  1.684916269E-03
   284 -7.446886080E-04
   285  2.308780864E-02
   286  2.624914975E-05
   287 -5.169909534E-04
   288  9.173019673E-03
   289  1.256606376E-03
   290 -1.658153001E-03
   291  7.493847286E-04
   292 -1.570435255E-02
   293 -7.420410940E-06
   294  8.726677861E-05
   295  7.229893689E-03
   296  2.734211745E-03
   297 -3.586485327E-03
   298  1.653214037E-03
   299  1.980264720E-02
   300 -1.979313050E-03
   301 -1.055669754E-02
   302 -1.751709629E-01
   303 -2.423943169E-03
   304 -6.650390631E-04
   305 -5.687908977E-04
   306 -1.584677674E+00
   307 -2.700098331E-03
   308 -2.249963462E-02
   309  4.827689792E-01
   310 -2.515675964E-03
   311 -4.316989844E-03
   312  3.194931773E-03
   313  3.339973377E+00
   314 -5.291133169E-06
   315 -1.126140660E-04
   316  1.278246107E-03
   317  8.736482971E-04
   318 -1.066608300E-03
   319 -3.742945647E-03
   320 -3.734944660E-02
   321  4.129324892E-05
   322 -1.936828601E-05
   323  5.021074822E-03
   324 -8.578206181E-04
   325  1.083113873E-03
   326  3.741915381E-03
   327 -2.076815244E-03
   328 -6.548710156E-06
   329  2.994828148E-04
   330 -9.117743577E-04
   331 -2.685269441E-03
   332  3.666911248E-03
   333 -1.657137251E-03
   334  2.055111517E-03
   335  1.946959654E-03
   336  1.054217767E-02
   337  1.607779879E-01
   338  2.515671524E-03
   339  5.422407914E-04
   340  2.405711023E-04
   341  1.567014991E+00
   342  2.688308427E-03
   343  2.382662860E-02
   344 -4.903156893E-01
   345  1.489998001E-03
   346  5.655216365E-03
   347  1.260337155E-03
   348 -3.320124850E+00
   349 -2.021961533E-03
   350 -8.437183418E-03
   351 -2.537626958E-01
   352 -4.500004325E-03
   353 -4.454194406E-03
   354 -5.446955632E-03
   355 -2.717748515E+00
   356  1.998526972E-03
   357  7.987360121E-03
   358  2.488147214E-01
   359  6.767369449E-03
   360  1.604099819E-03
   361 -4.564851834E-03
   362  2.710807175E+00
   363  5.321306863E-05
   364  7.537902991E-05
   365  2.802577265E-03
   366 -7.977306574E-04
   367  1.036408730E-03
   368  3.541895444E-03
   369  1.050714764E-02
   370 -2.695413495E-03
   371 -2.307921496E-02
   372  4.896314626E-01
   373 -4.831900208E-03
   374 -1.203535115E-03
   375 -3.316071133E-03
   376  3.376635474E+00
   377 -1.987936886E-03
   378 -1.077798341E-02
   379 -1.698224893E-01
   380 -1.269589589E-03
   381 -2.139090443E-03
   382  4.879932085E-04
   383 -1.573674214E+00
   384 -2.067344434E-03
   385 -8.805071859E-03
   386 -2.544590692E-01
   387 -5.583605787E-03
   388 -3.224971539E-03
   389  5.280152413E-03
   390 -2.713300541E+00
   391  2.079794271E-03
   392  8.657318074E-03
   393  2.469573900E-01
   394  3.291622775E-03
   395  6.023252698E-03
   396  4.702812511E-03
   397  2.712415275E+00
   398  2.751487571E-05
   399  5.371850113E-04
   400 -3.482899629E-03
   401  8.816600209E-04
   402 -1.043618009E-03
   403 -3.561094302E-03
   404 -8.626173516E-03
Ene=    5.6289005620E-02
Spin= Alpha
Occup=   0.0000000
     1 -3.356230601E-03
     2 -5.843539659E-03
     3 -4.022981586E-04
     4  1.651774777E-02
     5 -4.881420148E-03
     6  2.896398250E-02
     7  4.587954584E-03
     8  1.695850226E-02
     9 -4.104543644E-03
    10 -1.708621076E-02
    11 -6.689855262E-02
    12  2.204449206E-01
    13 -7.361896853E-02
    14  2.423678040E-03
    15 -1.273910301E-04
    16 -5.968173831E-05
    17 -1.063814700E-03
    18 -4.098014418E-03
    19 -9.421672362E+00
    20 -2.236010490E+00
    21  3.993418208E+00
    22 -1.450365731E+00
    23 -8.221392832E-03
    24 -1.325611911E-02
    25  1.693097494E-03
    26  8.792760829E-03
    27  1.847729455E-02
    28  3.862365062E-02
    29  8.136189883E-04
    30  1.133163494E-02
    31  2.793880342E-02
    32  1.199608709E-01
    33  1.047383420E-01
    34  3.138689125E-02
    35  5.520915851E-02
    36 -2.571254477E-04
    37 -2.849105351E-03
    38 -4.604451300E-03
    39  2.910073407E-03
    40  3.159198625E-04
    41  6.968986782E+00
    42  1.603155249E+00
    43  2.935659549E-01
    44 -6.725863200E-02
    45  8.637588313E-05
    46  1.622128511E-04
    47  2.342814082E-03
    48 -3.192007205E-03
    49  9.641463844E-04
    50 -9.389841557E-04
    51  2.228185861E-03
    52 -3.156171214E-03
    53  9.252339895E-04
    54  1.600962406E-03
    55 -6.143319735E-02
    56  7.989424383E-02
    57 -4.252469764E-02
    58 -2.348290753E-05
    59  7.496586101E-04
    60  4.997354463E-04
    61  2.311254936E-03
    62 -6.062700166E-04
    63  1.407916743E+00
    64 -2.789888243E+00
    65  3.217057110E+00
    66 -1.643052017E+00
    67  1.988083466E-04
    68  3.088810405E-04
    69  3.888191746E-03
    70 -4.728826943E-03
    71  2.090336823E-03
    72 -4.579215871E-04
    73  7.675519266E-03
    74 -1.031840667E-02
    75  4.463360792E-03
    76 -1.166253893E-02
    77 -6.258538908E-03
    78  1.807094059E-02
    79 -3.862651232E-03
    80 -5.072326953E-03
    81 -4.925136658E-03
    82  4.896615948E-03
    83 -3.230050861E-03
    84 -2.039753425E-03
    85 -4.545423171E-01
    86 -3.472841008E-01
    87  5.523204707E-01
    88 -2.413410253E-01
    89  8.084501869E-03
    90  1.304664595E-02
    91 -9.147229566E-04
    92 -9.623428070E-03
    93 -1.792990257E-02
    94 -3.833434280E-02
    95  1.094539232E-03
    96 -1.345998897E-02
    97 -2.671127914E-02
    98 -1.153440086E-01
    99 -4.825996876E-02
   100 -1.130457899E-01
   101 -1.726642687E-02
   102  2.168737555E-03
   103  4.941355792E-03
   104  2.837398705E-03
   105 -1.225777050E-03
   106  3.313072737E-04
   107 -7.503124639E+00
   108 -1.034780346E+00
   109 -1.244778758E+00
   110  7.374805301E-01
   111  3.343642306E-03
   112  5.843050521E-03
   113 -1.589527754E-02
   114  4.899790800E-03
   115 -5.119408358E-03
   116 -2.945851042E-02
   117 -1.777641372E-02
   118  2.805189684E-04
   119 -4.299752582E-03
   120  2.484782812E-02
   121 -1.959483862E-01
   122  1.186260412E-01
   123 -7.883724978E-02
   124 -2.396403484E-03
   125  1.753696870E-04
   126  7.666414375E-05
   127  1.312142413E-03
   128  4.050408375E-03
   129  9.078277592E+00
   130 -3.239552206E+00
   131  2.520874388E+00
   132 -1.456715191E+00
   133 -1.733760561E-04
   134 -2.750469242E-04
   135  2.209665205E-02
   136 -2.947626397E-02
   137  1.342321757E-02
   138  6.097559657E-04
   139  3.104220792E-02
   140 -4.161480585E-02
   141  1.876373809E-02
   142  5.561775221E-03
   143  1.300111739E-01
   144 -1.667009464E-01
   145  8.003012264E-02
   146  1.853447575E-04
   147  3.215380363E-03
   148  2.365101211E-03
   149  1.055030760E-02
   150 -2.967351579E-03
   151  5.163037401E-01
   152  1.584732331E+00
   153 -1.856172113E+00
   154  9.510888001E-01
   155 -5.301936412E-05
   156 -7.945486906E-05
   157  3.807148890E-03
   158 -4.882473252E-03
   159  2.058699966E-03
   160  7.336719547E-05
   161  7.279245091E-03
   162 -1.015493759E-02
   163  4.471829875E-03
   164  3.232940950E-03
   165 -1.660572659E-03
   166  1.352249543E-02
   167 -7.133101595E-03
   168  4.959352643E-03
   169  3.404205140E-03
   170 -6.076838019E-03
   171 -1.758969723E-03
   172  3.606217011E-03
   173  2.414374175E-01
   174 -2.869481616E-01
   175  4.727004276E-01
   176 -1.595522942E-01
   177  8.278102512E-03
   178  1.335497635E-02
   179 -9.126199816E-03
   180  7.913034956E-04
   181  1.823628139E-02
   182 -3.909197044E-02
   183 -1.118751382E-02
   184  2.334726866E-03
   185  2.785185936E-02
   186 -1.181106088E-01
   187 -5.870080251E-02
   188 -9.425447576E-02
   189  5.032361021E-02
   190  4.079084307E-05
   191 -5.334091791E-03
   192 -1.660864780E-03
   193  2.292398154E-03
   194 -1.724808702E-03
   195 -8.317128078E+00
   196 -6.115628466E-01
   197 -1.700295517E+00
   198 -3.748908863E-01
   199 -2.115710568E-03
   200 -3.300032596E-03
   201  2.803608654E-03
   202  9.631182909E-03
   203 -1.975495570E-03
   204  8.832340875E-03
   205  1.027312047E-02
   206  1.717770375E-02
   207 -2.123707875E-03
   208  8.362558602E-02
   209 -1.191221171E-01
   210 -1.636927920E-02
   211 -2.552241178E-02
   212  2.989098363E-03
   213 -2.399839965E-03
   214  6.800180594E-04
   215 -3.990720588E-03
   216  4.367493835E-04
   217  9.439394077E+00
   218 -2.078140417E+00
   219  9.624499337E-01
   220 -7.442861278E-01
   221 -8.018972115E-03
   222 -1.292699048E-02
   223  1.032608588E-02
   224 -1.504832057E-03
   225 -1.793177811E-02
   226  3.761648513E-02
   227  1.367212252E-02
   228 -4.484084073E-03
   229 -2.663015142E-02
   230  1.188467191E-01
   231  1.243137172E-01
   232  1.646355745E-02
   233 -1.608821341E-02
   234 -1.991268829E-03
   235  4.197240641E-03
   236  4.062978594E-03
   237 -1.164830568E-03
   238  2.279854371E-04
   239  7.487804748E+00
   240  1.581687364E+00
   241  4.993950573E-01
   242  6.805096761E-01
   243  2.076084910E-03
   244  3.239088352E-03
   245 -9.904498867E-03
   246 -1.820958008E-04
   247 -2.279541034E-03
   248 -8.627911262E-03
   249 -1.856727623E-02
   250 -5.472773771E-03
   251 -2.768810410E-03
   252 -8.260599889E-02
   253  4.452870081E-02
   254  1.115214864E-01
   255 -2.333619307E-02
   256 -3.089372140E-03
   257  1.312191235E-04
   258 -2.288891927E-03
   259 -3.591396606E-03
   260  1.746893080E-03
   261 -9.450799059E+00
   262 -3.196686368E-01
   263  2.243868900E+00
   264 -7.307637562E-01
   265  1.981021006E-03
   266  3.592319849E-02
   267 -1.683394377E-01
   268  1.178601598E-03
   269 -3.357553950E-03
   270  1.967515827E-03
   271 -8.539371238E-02
   272 -3.593254595E-03
   273 -3.345313639E-03
   274 -4.408274425E-01
   275 -1.074143255E-03
   276 -6.127296537E-03
   277 -3.957140501E-03
   278 -3.126344446E+00
   279 -9.718290560E-05
   280  1.352926531E-03
   281 -1.496321599E-02
   282  8.215483768E-04
   283 -9.183402086E-04
   284  5.134304744E-04
   285  1.040528829E-01
   286 -9.992777414E-05
   287  3.021436466E-04
   288 -2.711443985E-02
   289  8.191026465E-04
   290 -9.864615372E-04
   291  4.697061015E-04
   292 -3.475419853E-02
   293  2.516139247E-05
   294 -2.309167670E-04
   295  1.675093669E-02
   296  8.025172659E-04
   297 -1.165423009E-03
   298  5.566401553E-04
   299  7.648507044E-02
   300  3.689497887E-03
   301  3.404822110E-03
   302  4.481943654E-01
   303  3.960406278E-03
   304  2.213367989E-03
   305  5.671874184E-03
   306  2.999540475E+00
   307 -1.860191447E-03
   308 -3.598092533E-02
   309  1.773648719E-01
   310  3.202679928E-03
   311 -2.461693663E-03
   312  6.008957588E-04
   313  4.276098361E-02
   314  7.781238196E-03
   315  2.062931910E-02
   316  3.965746712E-01
   317 -7.671519261E-03
   318 -2.929512947E-04
   319 -1.636180965E-03
   320  3.559253533E+00
   321 -7.826086716E-03
   322 -1.893240229E-02
   323 -4.359238120E-01
   324  2.320581417E-03
   325  7.471756553E-03
   326 -1.576260656E-03
   327 -3.542920748E+00
   328  4.152557069E-05
   329  3.953248717E-04
   330 -2.516260761E-03
   331  9.133730621E-04
   332 -1.076667497E-03
   333  5.150197526E-04
   334  1.045781674E-02
   335  3.684523822E-03
   336  1.501276641E-03
   337  4.746424529E-01
   338  6.241444738E-03
   339 -4.657258266E-04
   340 -3.874501688E-03
   341  3.026581043E+00
   342 -1.830830643E-03
   343 -3.653907791E-02
   344  1.979348971E-01
   345  2.906824907E-03
   346 -2.114316402E-03
   347  2.121474028E-03
   348  2.302559766E-02
   349  4.633885246E-03
   350  4.300092119E-02
   351 -3.094528308E-01
   352 -4.442102266E-03
   353 -9.340041590E-04
   354 -3.446219706E-04
   355 -1.116852407E+00
   356  4.401927637E-03
   357  4.136789412E-02
   358 -3.107596065E-01
   359 -4.220844659E-03
   360 -1.185589863E-03
   361 -1.125364339E-03
   362 -1.106774701E+00
   363 -3.059852274E-03
   364  2.878667584E-03
   365 -3.086345456E-01
   366 -4.908649826E-04
   367 -1.992676670E-03
   368  4.086405629E-04
   369  4.278673768E-01
   370  1.918549734E-03
   371  3.600165873E-02
   372 -1.729939815E-01
   373  1.371133030E-03
   374 -3.661958187E-03
   375  5.294686029E-04
   376  5.030542945E-02
   377 -3.756626803E-03
   378 -3.330321620E-03
   379 -4.553429699E-01
   380 -3.295931119E-03
   381 -3.412990379E-03
   382  5.630160040E-03
   383 -3.119141609E+00
   384 -4.699643481E-03
   385 -4.275173122E-02
   386  3.095048148E-01
   387  2.121029792E-03
   388  4.033640819E-03
   389 -1.246944615E-04
   390  1.132509877E+00
   391 -4.436672396E-03
   392 -4.166036031E-02
   393  3.114356122E-01
   394  2.429809029E-03
   395  3.755142439E-03
   396 -1.049263814E-03
   397  1.138499482E+00
   398  3.129435423E-03
   399 -1.857192928E-03
   400  2.918516285E-01
   401  1.992125431E-03
   402 -1.566869474E-04
   403  4.116644202E-04
   404 -4.480029454E-01
Ene=    5.7709914787E-02
Spin= Alpha
Occup=   0.0000000
     1  6.118759598E-05
     2  7.476953886E-05
     3 -2.130572902E-03
     4  2.733269792E-03
     5  7.764441919E-03
     6  2.486736671E-04
     7 -5.752338350E-03
     8  6.810819136E-03
     9  2.196465196E-02
    10 -1.195037771E-02
    11  3.819272001E-02
    12 -3.287919518E-02
    13 -1.541109523E-01
    14  1.794934633E-03
    15  4.470557496E-03
    16  3.432983691E-04
    17 -7.633584038E-04
    18  1.345827795E-03
    19 -6.904490988E-02
    20  3.415640288E-02
    21 -4.708163779E-02
    22 -7.133549201E-01
    23  8.965470694E-03
    24  1.460807951E-02
    25  7.513221875E-03
    26 -8.635871019E-04
    27  1.522312821E-03
    28 -4.918341630E-02
    29  1.549986947E-02
    30 -8.063250417E-04
    31 -1.657041023E-03
    32  3.527805208E-02
    33  8.942902826E-02
    34  7.686466884E-02
    35 -1.472341060E-02
    36 -1.862446300E-03
    37 -4.500434051E-04
    38 -5.679496534E-04
    39  3.509551747E-04
    40 -1.170477184E-03
    41 -1.219738954E+01
    42 -3.171296071E-01
    43  2.373594650E+00
    44 -2.667200236E-01
    45 -5.025127497E-04
    46 -8.567359553E-04
    47 -7.882321442E-03
    48  1.028971146E-02
    49  3.545111169E-02
    50  4.072219930E-03
    51 -9.312412644E-03
    52  1.263026368E-02
    53  4.294221768E-02
    54 -1.782874000E-02
    55 -9.113607109E-02
    56  1.132175514E-01
    57  3.899258945E-01
    58  6.853222399E-05
    59 -2.600603269E-03
    60 -2.020791798E-03
    61  1.155204846E-03
    62 -4.915348202E-04
    63  1.035594817E+00
    64 -1.062948901E+00
    65  1.019213122E+00
    66  4.017793177E+00
    67 -1.084122273E-02
    68 -1.715079662E-02
    69 -7.807515459E-03
    70 -7.096417069E-04
    71  1.155455278E-02
    72  3.748564816E-02
    73 -8.540090147E-03
    74 -3.692841505E-03
    75  6.765421019E-03
    76  4.798720344E-01
    77 -3.353728653E-02
    78  6.241596251E-03
    79  6.333747866E-02
    80  1.172781801E-03
    81 -1.178972018E-03
    82  1.359566650E-03
    83  5.275723853E-04
    84  1.879476753E-03
    85  1.987149308E+01
    86  7.848822406E-01
    87  1.030915082E+00
    88  9.018268101E-01
    89  9.161724140E-03
    90  1.492664550E-02
    91  1.429268239E-03
    92  7.275441797E-03
    93 -2.450958830E-03
    94 -5.021195302E-02
    95  5.629930211E-03
    96  1.240848905E-02
    97 -8.154612387E-03
    98  3.371133980E-02
    99  1.015285409E-01
   100  5.628271172E-02
   101 -6.566096963E-03
   102 -4.945637443E-04
   103  5.632607986E-04
   104 -2.230158771E-03
   105 -1.529662326E-04
   106 -2.059221070E-04
   107 -1.220219709E+01
   108  1.988824980E+00
   109 -6.543495363E-01
   110  1.114787604E+00
   111  1.374371803E-04
   112  2.148215254E-04
   113 -1.801926126E-03
   114  2.039602216E-03
   115  8.136417988E-03
   116 -6.788120661E-04
   117 -5.189843447E-03
   118  5.692277710E-03
   119  2.272873385E-02
   120 -6.649893551E-03
   121  4.181467938E-02
   122 -3.943895446E-02
   123 -1.548302429E-01
   124 -1.785496446E-03
   125  1.480527732E-03
   126  4.228783891E-03
   127 -1.745226832E-03
   128 -3.778273955E-04
   129  4.921165668E-01
   130  1.714453912E-01
   131 -3.979317496E-01
   132 -7.236420748E-01
   133  7.595443645E-04
   134  1.200323901E-03
   135  7.198687588E-04
   136 -3.256331884E-04
   137  4.009608411E-05
   138 -3.069360871E-03
   139 -1.292585776E-03
   140  2.122123737E-03
   141  9.372621606E-03
   142 -1.416814464E-02
   143  3.180845919E-02
   144 -3.668329297E-02
   145 -1.194431341E-01
   146  1.090797397E-04
   147  2.262161352E-03
   148  1.695844188E-03
   149 -8.992946222E-04
   150  1.188690862E-04
   151 -1.323773410E+00
   152  2.283920362E-01
   153 -4.949471910E-01
   154 -1.290658973E+00
   155  9.774158081E-03
   156  1.543162043E-02
   157  1.437590052E-03
   158  5.707256398E-03
   159  1.034679227E-02
   160 -3.276790460E-02
   161  3.982525798E-03
   162  5.771874623E-03
   163  6.031969144E-03
   164 -4.525477645E-01
   165  1.257657982E-03
   166  2.364053507E-02
   167  5.152844018E-02
   168 -1.487526913E-03
   169  1.147603172E-03
   170 -1.986581766E-03
   171 -5.459425209E-04
   172 -2.314619682E-03
   173 -1.670717707E+01
   174 -1.143611861E+00
   175 -4.934632328E-01
   176  1.033901255E+00
   177 -8.905570678E-03
   178 -1.457107992E-02
   179 -2.375954971E-03
   180 -8.520693355E-03
   181  3.050970987E-03
   182  5.053673338E-02
   183 -4.413965480E-03
   184 -1.680386037E-02
   185  8.883323694E-05
   186 -4.924344385E-02
   187 -1.064988878E-01
   188 -7.360514283E-02
   189  1.403860633E-03
   190  2.018111448E-03
   191 -8.151384070E-04
   192 -5.197627297E-04
   193  1.332388369E-03
   194  9.921417453E-04
   195  1.028568152E+01
   196 -1.960147457E+00
   197  6.211760466E-01
   198 -2.238568946E-01
   199  1.833776050E-05
   200  4.276989654E-06
   201 -2.630504354E-04
   202  9.097500578E-04
   203  2.635510556E-03
   204  7.163874119E-04
   205  1.623275690E-03
   206 -3.168072423E-04
   207 -4.726319335E-03
   208 -1.014107655E-02
   209 -4.137799578E-02
   210  4.235819272E-02
   211  1.896130622E-01
   212  3.740152341E-04
   213 -3.636842086E-03
   214 -3.083246825E-03
   215  1.799379680E-03
   216 -2.746993321E-04
   217 -2.833229629E-01
   218  2.953792730E-02
   219  3.164035622E-02
   220  2.516543809E-01
   221 -9.018280765E-03
   222 -1.474827559E-02
   223 -8.958432559E-03
   224  5.097514548E-04
   225 -1.565353255E-03
   226  5.101513074E-02
   227 -1.562286220E-02
   228 -2.123593265E-03
   229 -7.476175515E-03
   230 -4.813835187E-02
   231 -9.582975018E-02
   232 -7.812550848E-02
   233  5.138543990E-03
   234  3.333507462E-04
   235 -2.392669193E-03
   236  1.236485014E-03
   237 -1.365939763E-04
   238  4.718558033E-04
   239  1.125844822E+01
   240  9.898489150E-04
   241 -1.945284469E+00
   242  1.091330835E+00
   243  1.208810918E-04
   244  1.775818329E-04
   245 -9.775369466E-04
   246  8.588574000E-04
   247  2.152007305E-03
   248  7.246809881E-05
   249  9.672260312E-04
   250 -1.501387670E-03
   251 -5.220886360E-03
   252 -1.015207675E-02
   253 -5.162549349E-02
   254  5.880953945E-02
   255  1.827569254E-01
   256 -2.838123069E-04
   257 -4.069254755E-03
   258 -2.529438373E-03
   259  1.452819664E-03
   260 -5.070446387E-04
   261 -2.749297650E-01
   262 -5.885378190E-02
   263  1.307530053E-01
   264  1.727492535E-01
   265  4.181715847E-04
   266 -1.878317738E-02
   267  4.185995877E-01
   268 -4.397342446E-03
   269  4.444451706E-03
   270 -6.236436374E-04
   271  2.129503126E+00
   272 -3.064043600E-03
   273 -4.626172687E-02
   274  3.854154655E-01
   275  5.399690010E-05
   276  2.755046865E-03
   277  2.218769480E-03
   278  1.219629688E+00
   279 -9.266282400E-04
   280 -4.104875801E-02
   281 -5.091433531E-01
   282 -1.658000599E-03
   283 -2.480890804E-03
   284 -2.725749181E-03
   285 -5.058890051E+00
   286  1.090398939E-03
   287  4.781339619E-02
   288  4.352114143E-01
   289  2.255313683E-03
   290  5.449047474E-04
   291 -2.464885187E-03
   292  4.926090695E+00
   293  1.160634896E-03
   294  1.266765531E-02
   295 -5.677443268E-01
   296  5.562849610E-03
   297  3.284955289E-03
   298 -1.867524207E-03
   299 -3.787585385E+00
   300 -3.028721285E-03
   301 -4.579597985E-02
   302  3.843114177E-01
   303  1.537535194E-03
   304  8.630579424E-04
   305  3.170468674E-03
   306  1.261436893E+00
   307  3.849625909E-04
   308 -2.014883793E-02
   309  4.208479808E-01
   310  2.539053513E-03
   311 -4.749547855E-03
   312  3.585974841E-03
   313  2.215061600E+00
   314  1.242052642E-04
   315 -2.477823592E-03
   316  4.683003069E-02
   317 -4.830556270E-05
   318 -4.506940134E-04
   319 -1.842888385E-03
   320  2.658675137E-01
   321 -3.399872957E-06
   322 -3.079644173E-03
   323  3.120572432E-02
   324  3.797698896E-04
   325 -7.285714734E-04
   326 -1.664822048E-03
   327  1.151430711E-01
   328 -1.618445880E-03
   329 -9.969620225E-03
   330  4.763839665E-01
   331 -4.779884506E-03
   332 -4.073324334E-03
   333 -9.829900823E-04
   334  3.279100000E+00
   335  3.472868412E-03
   336  4.701991215E-02
   337 -3.159496776E-01
   338 -2.353472784E-03
   339  7.395521039E-04
   340  2.051795692E-03
   341 -8.992220040E-01
   342 -5.447612787E-04
   343  1.578662452E-02
   344 -4.006995128E-01
   345 -3.183547141E-03
   346  5.805380459E-03
   347 -4.504482351E-04
   348 -2.308280325E+00
   349 -1.035903032E-02
   350 -4.517709581E-02
   351 -2.058783667E-01
   352  2.822170974E-05
   353 -2.600268652E-03
   354  1.900161218E-03
   355  5.403222310E-02
   356  1.115583733E-02
   357  4.750931067E-02
   358  2.275162308E-01
   359 -7.816116688E-04
   360  2.839211741E-03
   361  9.812014974E-05
   362 -7.971347918E-02
   363 -5.210988210E-04
   364 -1.929553837E-03
   365 -1.449223672E-02
   366 -9.326951997E-04
   367  1.262847336E-03
   368  4.542218704E-03
   369 -2.249919278E-02
   370 -6.172872652E-04
   371  1.741637882E-02
   372 -4.177150457E-01
   373  3.979051321E-03
   374 -3.815654292E-03
   375  3.828470474E-03
   376 -2.257131750E+00
   377  3.301977097E-03
   378  4.769183254E-02
   379 -3.452427017E-01
   380 -1.127171541E-03
   381 -1.165573966E-03
   382  2.932442571E-03
   383 -9.508359687E-01
   384  1.093306254E-02
   385  4.759180590E-02
   386  2.240191279E-01
   387  2.096796120E-03
   388 -8.979330213E-04
   389  1.818773231E-03
   390 -7.359752204E-02
   391 -1.052762486E-02
   392 -4.536815079E-02
   393 -2.063114585E-01
   394 -2.848816533E-03
   395  1.492358027E-03
   396  1.909578036E-04
   397  1.071598901E-01
   398 -4.108220046E-04
   399 -1.674051603E-03
   400 -1.194426233E-02
   401 -9.100075633E-04
   402  1.326196636E-03
   403  4.474636186E-03
   404 -3.508284819E-02
Ene=    5.8184326023E-02
Spin= Alpha
Occup=   0.0000000
     1 -2.136255375E-03
     2 -3.305559153E-03
     3  3.618387514E-03
     4 -7.593561518E-03
     5  3.431743425E-03
     6  4.662728595E-03
     7  1.046228404E-02
     8 -8.101911936E-03
     9  6.092745363E-03
    10  1.893534296E-01
    11 -1.120030315E-01
    12 -1.455029218E-01
    13  3.997922536E-03
    14  1.779145298E-03
    15 -8.572573740E-04
    16 -7.279520428E-04
    17 -4.295001442E-03
    18 -1.615041608E-03
    19  7.824463733E+00
    20 -8.775174167E-01
    21 -1.777353068E+00
    22  2.190847899E-01
    23 -1.086918488E-03
    24 -1.787698724E-03
    25  1.151853347E-02
    26  8.578124984E-03
    27  1.534665958E-02
    28  5.780023204E-03
    29  1.685715883E-02
    30  1.024028658E-02
    31  1.756686645E-02
    32 -7.399180955E-03
    33  6.521571135E-02
    34  3.037140752E-02
    35  2.084950609E-01
    36 -2.070575882E-03
    37 -1.701669781E-03
    38 -6.018903031E-04
    39  1.518517180E-03
    40 -3.627955369E-03
    41  1.203941339E+00
    42  5.107732224E-01
    43 -9.443997370E-01
    44  2.457653340E+00
    45  8.198465073E-03
    46  1.356143691E-02
    47 -4.030891307E-03
    48 -2.192677955E-03
    49  1.856207273E-03
    50 -5.259073172E-02
    51 -8.494827495E-03
    52 -5.173973980E-03
    53  2.416090299E-03
    54  1.285710598E-01
    55  2.072907472E-02
    56  2.295224244E-02
    57  2.057702315E-02
    58 -3.164152004E-03
    59  3.489714177E-04
    60 -6.379266680E-04
    61  1.048024663E-03
    62  3.583686962E-03
    63 -1.189071678E+01
    64  1.655055170E+00
    65  1.218750642E+00
    66  2.108886770E-01
    67  8.221803679E-03
    68  1.291450561E-02
    69  1.375907131E-02
    70  6.679500368E-03
    71 -8.193976573E-03
    72 -2.637698700E-02
    73  1.635236787E-02
    74  9.321138158E-03
    75 -7.333858096E-03
    76 -3.081918327E-01
    77  5.961445892E-02
    78  2.455957709E-02
    79 -4.030435520E-02
    80  1.328612130E-03
    81 -1.761180536E-03
    82  2.060530910E-03
    83  1.317071591E-03
    84  4.151827532E-03
    85 -1.676233836E+01
    86  1.501185812E-01
    87  1.116297232E-01
    88 -6.035724315E-02
    89 -1.202296215E-03
    90 -1.970290426E-03
    91  5.424754735E-03
    92  1.670793543E-02
    93  1.184716928E-02
    94  6.221017752E-03
    95  7.900526548E-03
    96  2.227538043E-02
    97  1.238140273E-02
    98 -2.919929507E-03
    99 -3.134520803E-02
   100  1.595144442E-01
   101  1.490966828E-01
   102  7.775539676E-04
   103 -3.266696639E-04
   104 -4.467654965E-03
   105 -1.201229442E-03
   106 -1.180895747E-03
   107  9.736170219E-01
   108 -1.647170945E+00
   109  1.800287345E+00
   110  1.270121740E+00
   111 -2.180373750E-03
   112 -3.372823637E-03
   113 -6.245755215E-03
   114  5.633910288E-03
   115 -2.638846575E-03
   116  4.840834249E-03
   117 -5.485726391E-03
   118  1.292239261E-02
   119 -3.644118066E-03
   120  1.915454611E-01
   121 -1.600947557E-01
   122 -7.623867348E-02
   123 -2.365158814E-02
   124  1.582474984E-03
   125  1.052363673E-03
   126  9.991246735E-04
   127  2.625742765E-03
   128 -3.828717013E-03
   129  7.399204004E+00
   130 -1.817094082E+00
   131 -5.605087165E-01
   132 -1.339371811E-01
   133 -1.611350205E-02
   134 -2.596053022E-02
   135 -8.233519835E-03
   136 -5.726047190E-03
   137 -1.894443423E-04
   138  7.510786877E-02
   139 -1.466453433E-02
   140 -1.002239325E-02
   141  1.212847388E-05
   142  2.194887904E-01
   143  2.983764684E-02
   144  2.127501563E-02
   145 -5.297308741E-03
   146  7.730504949E-04
   147 -8.914226149E-04
   148  1.313494750E-03
   149  5.392024775E-04
   150  2.294240862E-03
   151  1.819488357E+01
   152  1.808703294E+00
   153  1.334509577E+00
   154 -7.032378941E-03
   155  9.268090856E-03
   156  1.457073498E-02
   157  1.003498256E-02
   158  1.208590007E-02
   159  9.797071046E-03
   160 -3.016025497E-02
   161  1.326543364E-02
   162  1.398528980E-02
   163  8.732017218E-03
   164 -3.524269263E-01
   165  4.128205871E-02
   166  5.443838258E-02
   167  4.710676870E-02
   168  1.094630521E-03
   169 -1.395171568E-03
   170  2.201710204E-03
   171  9.952866654E-04
   172  3.803104891E-03
   173 -1.844875129E+01
   174 -2.471499913E-02
   175  1.284423988E-01
   176  1.790013914E-01
   177 -2.127439505E-03
   178 -3.481712454E-03
   179  1.129736722E-02
   180  7.942925318E-03
   181 -1.473922037E-02
   182  1.156848976E-02
   183  1.381031943E-02
   184  1.159816789E-02
   185 -1.716921600E-02
   186 -1.161752376E-02
   187  4.104254678E-02
   188  5.105721457E-02
   189 -2.051877129E-01
   190 -1.735765724E-03
   191  9.730762348E-04
   192  1.567679009E-03
   193 -3.078627072E-03
   194 -2.195793711E-03
   195  2.683176122E+00
   196 -9.867709075E-01
   197  9.279513790E-01
   198 -2.503514516E+00
   199 -2.476364975E-03
   200 -3.867097740E-03
   201 -1.063328534E-03
   202  1.342457723E-03
   203 -7.797833978E-04
   204  7.581635754E-03
   205 -1.700918292E-03
   206 -5.933850066E-03
   207  3.938490535E-04
   208  9.758219273E-02
   209  1.058705034E-03
   210  1.548444816E-01
   211 -3.233147154E-02
   212 -2.271625997E-03
   213  6.482630022E-05
   214 -1.778367323E-03
   215 -2.031878847E-03
   216  1.114270649E-03
   217  2.819149083E+00
   218 -6.753415265E-01
   219  4.699686638E-01
   220 -2.998344518E-01
   221 -2.061568355E-03
   222 -3.390854942E-03
   223  1.612628272E-02
   224  1.137192147E-03
   225 -1.130593077E-02
   226  1.164244091E-02
   227  2.125528345E-02
   228  1.871925165E-03
   229 -1.214829458E-02
   230 -1.698852874E-02
   231  1.328743764E-01
   232 -7.751077534E-02
   233 -1.488466695E-01
   234  9.914569924E-04
   235  3.959032105E-03
   236 -8.413140453E-04
   237  3.304176364E-04
   238 -1.544405699E-03
   239  1.971459257E+00
   240  1.219008359E+00
   241 -2.162892174E+00
   242 -1.167344596E+00
   243 -2.559013180E-03
   244 -4.008650332E-03
   245  1.417083494E-03
   246 -1.324858241E-03
   247  7.603254014E-04
   248  8.020433236E-03
   249 -5.300751335E-03
   250 -1.352539790E-04
   251 -1.525830331E-03
   252  9.995903365E-02
   253  1.442677036E-01
   254 -3.767804405E-02
   255  5.453740903E-02
   256 -2.270625107E-03
   257  1.427404577E-03
   258 -7.556481956E-04
   259  2.510554914E-03
   260 -2.732515842E-04
   261  2.978836419E+00
   262  2.996959387E-01
   263 -8.126645689E-01
   264  2.954837094E-01
   265  2.336126934E-03
   266  1.718906889E-02
   267  1.590391940E-01
   268 -1.458752072E-03
   269  2.093229025E-03
   270  1.576565667E-03
   271  1.864741767E+00
   272 -2.549356869E-03
   273 -2.662053430E-02
   274 -2.602397427E-01
   275 -2.347594594E-03
   276 -2.713308355E-03
   277 -2.498365322E-03
   278 -2.664767987E+00
   279 -2.319936123E-03
   280 -5.176226650E-02
   281  4.947279171E-01
   282  5.320095495E-03
   283  3.931694325E-03
   284 -1.020497843E-04
   285  1.497351940E+00
   286 -2.214518360E-03
   287 -4.637426678E-02
   288  5.366391585E-01
   289  5.499487722E-03
   290  4.127187021E-03
   291 -3.853285650E-05
   292  1.973500891E+00
   293  2.645473197E-03
   294 -1.236163808E-02
   295  5.838771302E-01
   296 -1.278297222E-03
   297  2.361020180E-03
   298  7.265501730E-03
   299  3.472276739E+00
   300 -2.540873307E-03
   301 -2.706250388E-02
   302 -2.513635915E-01
   303 -2.202484010E-03
   304 -2.922251967E-03
   305 -2.496665861E-03
   306 -2.695472485E+00
   307  2.410187964E-03
   308  1.721403024E-02
   309  1.666975486E-01
   310  5.779951147E-04
   311 -6.903354316E-04
   312  2.790013017E-03
   313  1.832194667E+00
   314 -6.318583050E-05
   315  3.544255755E-02
   316 -5.633437177E-01
   317  7.367145424E-03
   318 -2.543213460E-03
   319  2.340662561E-03
   320 -2.747944337E+00
   321 -1.303792162E-05
   322  3.605747423E-02
   323 -5.637894269E-01
   324 -4.664901526E-04
   325  7.626011531E-03
   326 -2.333090102E-03
   327 -2.746081634E+00
   328  2.476947525E-03
   329 -1.351326967E-02
   330  6.322342255E-01
   331  1.568623385E-03
   332 -2.243727984E-03
   333 -7.467942245E-03
   334  3.864957075E+00
   335 -2.271830659E-03
   336 -2.117323317E-02
   337 -2.991323233E-01
   338 -3.658807643E-03
   339 -1.447338353E-03
   340  2.607943060E-03
   341 -2.799750378E+00
   342  2.278757961E-03
   343  1.929401850E-02
   344  1.141412883E-01
   345  1.200848120E-03
   346 -1.245272257E-03
   347 -1.646154271E-03
   348  1.622233102E+00
   349 -5.779291023E-03
   350 -2.156050670E-02
   351 -2.077158045E-01
   352  2.209275294E-03
   353  1.860046451E-03
   354 -2.334699828E-03
   355 -2.708725801E-02
   356 -4.598199926E-03
   357 -1.681683657E-02
   358 -1.817703493E-01
   359  1.068991702E-03
   360  3.307626880E-03
   361  1.813740701E-03
   362 -8.738742550E-02
   363  8.006786692E-03
   364  4.209686666E-02
   365  6.426534278E-02
   366 -1.741758586E-03
   367  6.922283539E-04
   368 -3.500838055E-04
   369 -7.223634626E-02
   370  2.298469564E-03
   371  1.906735813E-02
   372  1.164774975E-01
   373  7.865931961E-05
   374  4.011390899E-04
   375 -2.326330034E-03
   376  1.497135191E+00
   377 -2.111321468E-03
   378 -2.238988010E-02
   379 -2.717128312E-01
   380 -3.490691025E-03
   381 -1.509304651E-03
   382  2.604035352E-03
   383 -2.680952093E+00
   384 -4.503906774E-03
   385 -1.620746899E-02
   386 -1.869706129E-01
   387  2.459359106E-03
   388  1.385198402E-03
   389  2.683664666E-03
   390 -1.285755422E-01
   391 -5.674010757E-03
   392 -2.156146794E-02
   393 -2.072966718E-01
   394  3.189467987E-03
   395  3.617260282E-04
   396 -1.753189405E-03
   397 -5.776521173E-02
   398  8.005593194E-03
   399  4.060057540E-02
   400  7.226096516E-02
   401  5.725258060E-06
   402 -1.648458023E-03
   403  7.639759804E-04
   404 -1.555534936E-02
Ene=    6.0652156468E-02
Spin= Alpha
Occup=   0.0000000
     1  4.909818575E-06
     2  7.502431507E-06
     3 -1.769971755E-03
     4  2.223477228E-03
     5  8.168509635E-03
     6  6.776390517E-05
     7 -2.409588363E-03
     8  3.032086063E-03
     9  1.101644825E-02
    10 -1.266718873E-03
    11 -1.698477216E-02
    12  1.880352680E-02
    13  7.281156703E-02
    14 -2.991554554E-03
    15 -1.293564400E-03
    16  4.285430893E-03
    17 -1.029928305E-03
    18 -1.567571576E-03
    19 -1.662008202E-01
    20 -1.688780729E-01
    21  1.324452923E-01
    22  6.517850468E-01
    23  1.915238097E-03
    24  3.001515896E-03
    25 -1.937635592E-02
    26 -6.391917797E-03
    27 -1.836870932E-02
    28 -4.179540221E-03
    29 -2.596340023E-02
    30 -6.343657462E-03
    31 -2.426832285E-02
    32 -1.351540514E-01
    33 -1.218584708E-01
    34 -2.944942557E-02
    35 -1.024145391E-01
    36  2.263577465E-03
    37 -1.985301626E-03
    38  1.831147510E-03
    39 -2.455095006E-03
    40  3.368605871E-03
    41 -2.442606220E+00
    42 -2.533810873E+00
    43 -9.275283911E-01
    44 -1.623038266E+00
    45  1.301608852E-04
    46  2.276925414E-04
    47 -2.292890085E-03
    48  2.646736583E-03
    49  9.615191018E-03
    50 -1.199808040E-03
    51 -6.718082636E-04
    52  4.882083599E-04
    53  2.085613839E-03
    54  5.658991084E-03
    55 -1.995842327E-02
    56  2.241995858E-02
    57  8.360813476E-02
    58 -2.192235728E-05
    59  4.188725420E-04
    60  3.251382859E-04
    61 -1.883120516E-04
    62  9.701935777E-05
    63  4.039528421E-02
    64 -7.161932547E-01
    65  8.745828556E-01
    66  2.997335802E+00
    67 -3.132990256E-03
    68 -5.153326719E-03
    69 -2.467727708E-03
    70 -6.183898928E-03
    71 -9.521376503E-03
    72  1.542280922E-02
    73 -1.048656555E-02
    74 -1.658374570E-02
    75 -1.891748445E-02
    76  6.200690716E-02
    77  6.342203253E-02
    78  6.180528594E-02
    79  2.610539654E-02
    80  2.326598220E-03
    81 -2.944845995E-04
    82 -1.217588818E-03
    83 -1.285794605E-03
    84 -5.709542761E-03
    85 -1.083677971E+00
    86  1.617884498E+00
    87  1.550873979E+00
    88  7.375068376E-01
    89  1.884937551E-03
    90  2.966375761E-03
    91 -5.275072336E-03
    92 -2.502879412E-02
    93 -9.823689141E-03
    94 -4.445949936E-03
    95 -5.430999509E-03
    96 -3.375281387E-02
    97 -1.167619498E-02
    98 -1.294465193E-01
    99 -2.886201125E-02
   100 -1.513022775E-01
   101 -4.931161512E-02
   102  2.203345366E-03
   103 -2.880506736E-04
   104  3.188880684E-03
   105  3.437471028E-03
   106  1.652266577E-03
   107 -1.963702027E+00
   108 -1.031928907E+00
   109 -2.793966246E+00
   110 -8.351620228E-01
   111  5.130117963E-06
   112  1.106512526E-05
   113 -1.855376366E-03
   114  2.365624256E-03
   115  8.049024368E-03
   116  3.976263766E-05
   117 -2.625900059E-03
   118  3.247441337E-03
   119  1.080452674E-02
   120  1.186729641E-04
   121 -1.505451037E-02
   122  1.976819865E-02
   123  7.042723307E-02
   124  3.090390551E-03
   125  3.780913017E-03
   126 -2.401676244E-03
   127 -6.941368700E-05
   128  1.781757744E-03
   129 -3.152085496E-01
   130  2.072006021E-02
   131  1.502361251E-01
   132  5.259826067E-01
   133 -1.301034581E-04
   134 -2.126941230E-04
   135  5.451935705E-04
   136 -8.220833734E-04
   137 -2.985122351E-03
   138  7.335406891E-04
   139 -8.741429741E-04
   140  8.206106510E-04
   141  3.129157192E-03
   142 -1.986441975E-04
   143 -3.351764403E-03
   144  1.935626474E-03
   145  9.057717241E-03
   146  1.330486314E-04
   147  6.354678967E-03
   148  4.847580757E-03
   149 -2.863594624E-03
   150  6.988187712E-04
   151 -5.732088766E-02
   152 -2.840759226E-01
   153  2.825829314E-01
   154  1.006733075E+00
   155  3.264605804E-03
   156  5.369579662E-03
   157  6.972310154E-03
   158  1.000384401E-03
   159 -9.235668148E-03
   160 -1.616216178E-02
   161  1.927523824E-02
   162  6.084479817E-03
   163 -1.870770126E-02
   164 -6.371545103E-02
   165 -7.591158466E-02
   166 -4.478205783E-02
   167  2.937913151E-02
   168 -2.279352149E-03
   169 -1.132224885E-03
   170  2.218690966E-04
   171  1.918024649E-03
   172  5.677018014E-03
   173  8.152867797E-01
   174 -1.970525046E+00
   175 -1.135539643E+00
   176  7.710067950E-01
   177 -1.882662824E-03
   178 -2.939530868E-03
   179  1.183475035E-02
   180  1.743222445E-02
   181 -1.816542398E-02
   182  3.712864326E-03
   183  1.371721730E-02
   184  2.429251931E-02
   185 -2.420249167E-02
   186  1.382488996E-01
   187  6.512515077E-02
   188  1.110921599E-01
   189 -1.005246094E-01
   190 -2.285560483E-03
   191  1.196930806E-03
   192 -2.323699492E-03
   193 -3.987861636E-03
   194 -1.616353485E-03
   195  2.463400753E+00
   196  1.513841851E+00
   197  2.149695012E+00
   198 -1.581117047E+00
   199  2.334903610E-05
   200  4.607864971E-05
   201 -6.117161190E-03
   202  7.571571515E-03
   203  2.642465555E-02
   204 -3.055479811E-04
   205 -1.025316696E-02
   206  1.260383717E-02
   207  4.443700383E-02
   208  1.496278690E-03
   209 -7.778399193E-03
   210  1.056258681E-02
   211  3.123139259E-02
   212 -1.457582393E-03
   213 -3.867046834E-03
   214 -6.070474117E-04
   215  9.986048703E-04
   216 -1.057292201E-03
   217 -2.281322029E-02
   218 -2.464193475E-01
   219  3.065470718E-01
   220  1.058358389E+00
   221 -1.910387191E-03
   222 -2.988862509E-03
   223  2.612905229E-02
   224 -1.434172883E-03
   225 -9.590797302E-03
   226  4.040641196E-03
   227  3.467622809E-02
   228 -3.815955099E-03
   229 -1.139456043E-02
   230  1.348389455E-01
   231  1.589654936E-01
   232 -9.967817618E-03
   233 -4.663227260E-02
   234 -2.145747995E-03
   235  3.181891047E-03
   236 -1.115407877E-03
   237  2.043773514E-03
   238 -3.242273910E-03
   239  2.625964447E+00
   240  3.092489165E+00
   241  2.243094369E-01
   242 -6.866807861E-01
   243 -1.088508234E-05
   244 -1.216287372E-05
   245 -5.985134569E-03
   246  7.476012821E-03
   247  2.654088562E-02
   248 -1.368437462E-04
   249 -1.009009276E-02
   250  1.256158980E-02
   251  4.445834226E-02
   252  2.970336773E-03
   253 -5.948845632E-03
   254  7.700981470E-03
   255  3.317696087E-02
   256  1.291644878E-03
   257 -1.611087120E-03
   258 -3.637474037E-03
   259  1.452779407E-03
   260  4.544443521E-04
   261  1.146823496E-01
   262 -2.446302773E-01
   263  2.745204556E-01
   264  1.073859291E+00
   265 -1.770154046E-03
   266  3.728954673E-03
   267 -2.971352873E-01
   268  4.372175344E-03
   269 -1.812622146E-03
   270  9.140937247E-05
   271 -3.268302977E+00
   272 -5.127247866E-05
   273 -3.024099423E-03
   274  4.541997482E-01
   275 -2.709906332E-05
   276 -2.624154950E-04
   277  6.100859600E-03
   278  3.505996597E+00
   279  4.162028189E-05
   280  2.227566998E-02
   281 -3.705392732E-01
   282 -1.239169729E-03
   283 -1.207262865E-03
   284 -5.877406883E-04
   285 -2.660184161E+00
   286 -9.367221382E-05
   287 -2.298050698E-02
   288  3.791285015E-01
   289  1.662246732E-03
   290  9.476696454E-04
   291 -6.476695332E-04
   292  2.672990684E+00
   293 -7.597078145E-04
   294 -1.271214801E-02
   295  8.801120403E-02
   296  1.576634238E-03
   297  2.067903716E-03
   298  1.945974013E-03
   299  3.965017480E-01
   300 -1.096810006E-04
   301 -2.224032667E-03
   302  4.427264556E-01
   303 -2.604988486E-03
   304  3.124856857E-03
   305  4.544897339E-03
   306  3.469490324E+00
   307 -1.775326856E-03
   308  3.706617388E-03
   309 -2.997655735E-01
   310 -1.985731201E-06
   311  3.963047670E-03
   312 -2.540607769E-03
   313 -3.228755314E+00
   314 -4.845307327E-06
   315  4.554441355E-04
   316 -5.177140584E-03
   317  1.140741378E-03
   318 -1.300478097E-03
   319 -4.550751671E-03
   320 -6.307171381E-02
   321  3.603556185E-05
   322 -1.782218074E-04
   323  1.986361210E-03
   324  1.078467787E-03
   325 -1.257514940E-03
   326 -4.593653368E-03
   327 -1.958636567E-02
   328  8.788461689E-04
   329  1.218946905E-02
   330 -7.273569821E-02
   331 -2.419680050E-03
   332 -1.051963936E-03
   333  1.762624242E-03
   334 -2.816419815E-01
   335  2.835084004E-05
   336  1.833855297E-03
   337 -4.485464057E-01
   338  1.424614556E-04
   339 -7.192932860E-05
   340  6.119764263E-03
   341 -3.488890510E+00
   342  1.805816454E-03
   343 -2.756047059E-03
   344  2.918754614E-01
   345  5.823744491E-04
   346 -4.783658817E-03
   347  4.504139991E-05
   348  3.219419540E+00
   349  1.335217543E-03
   350  8.393049247E-03
   351 -1.184888153E-01
   352 -4.312266042E-03
   353 -2.671260526E-03
   354 -3.826409482E-03
   355 -2.420133044E+00
   356 -1.454296384E-03
   357 -8.176033453E-03
   358  1.115463653E-01
   359  5.772379385E-03
   360  9.406717863E-04
   361 -2.555894694E-03
   362  2.417601214E+00
   363  7.488116565E-05
   364  4.983579559E-04
   365  6.426324062E-04
   366 -1.176058793E-05
   367 -5.465239357E-05
   368 -1.174290865E-04
   369  7.767305454E-03
   370  1.828719999E-03
   371 -2.704095115E-03
   372  2.919519772E-01
   373 -3.837554216E-03
   374  1.110395189E-03
   375 -2.660507466E-03
   376  3.300146336E+00
   377 -2.976189632E-05
   378  2.608898932E-03
   379 -4.656838866E-01
   380 -2.430345986E-03
   381  3.257064834E-03
   382  4.596746366E-03
   383 -3.566021618E+00
   384 -1.396631165E-03
   385 -8.665187176E-03
   386  1.173557082E-01
   387  3.860655047E-03
   388  3.498791064E-03
   389 -3.708396702E-03
   390  2.445342310E+00
   391  1.331438720E-03
   392  8.316600686E-03
   393 -1.194689235E-01
   394 -2.342062199E-03
   395 -5.308323779E-03
   396 -2.647620539E-03
   397 -2.441981418E+00
   398  7.738668936E-05
   399  4.427132424E-04
   400  1.070282898E-03
   401 -8.067168010E-07
   402 -5.239049915E-05
   403 -1.215225334E-04
   404 -2.784520982E-03
Ene=    8.1481799917E-02
Spin= Alpha
Occup=   0.0000000
     1 -1.838697638E-02
     2 -2.980943184E-02
     3  4.836074832E-03
     4  8.752120619E-04
     5  7.421548889E-04
     6  7.898174407E-02
     7  1.467386506E-03
     8  6.909796992E-03
     9 -2.067329944E-03
    10  6.810390043E-01
    11  1.266083171E-01
    12 -8.593285825E-02
    13  5.108636475E-02
    14  5.897791397E-04
    15 -3.956831671E-04
    16 -9.579482517E-04
    17 -2.908339680E-03
    18 -1.337730137E-03
    19  3.414997920E+01
    20  5.379680866E+00
    21  1.183052704E+00
    22  1.017535335E-01
    23 -1.724579786E-03
    24 -2.943321432E-03
    25 -2.068860028E-02
    26  1.059194329E-02
    27  5.036970857E-03
    28  1.315492966E-02
    29 -1.760525523E-02
    30  2.004448578E-02
    31  6.708826875E-03
    32  3.534334894E-03
    33 -2.513262790E-01
    34  1.406010701E-02
    35  4.103107243E-02
    36  4.238358328E-04
    37 -6.330979050E-03
    38 -3.024621587E-03
    39  5.358571754E-03
    40 -2.496197221E-03
    41 -7.819067362E+00
    42 -4.346812529E+00
    43  3.744378233E-01
    44 -7.460102716E-01
    45  3.420279052E-05
    46 -1.161601749E-05
    47  8.452707904E-03
    48 -1.064036601E-02
    49  5.595482601E-03
    50  2.076178182E-03
    51  1.086275554E-02
    52 -1.362798712E-02
    53  7.005612877E-03
    54 -3.787602679E-02
    55  2.093286363E-01
    56 -2.509420356E-01
    57  1.225491560E-01
    58  1.930668968E-04
    59  2.998033449E-03
    60  2.162862497E-03
    61  9.905711009E-03
    62 -2.991431915E-03
    63  2.718816313E-01
    64  5.282923313E+00
    65 -6.939285084E+00
    66  3.511401685E+00
    67  2.272706957E-04
    68  3.898844855E-04
    69  7.764658801E-03
    70 -9.601841082E-03
    71  3.674786935E-03
    72 -1.741904551E-03
    73  1.555338553E-02
    74 -1.872033529E-02
    75  7.482826393E-03
    76  8.187640873E-03
    77 -9.664669588E-03
    78  1.482882052E-02
    79  2.836021505E-03
    80 -3.893551182E-03
    81 -3.599972485E-03
    82  4.514756714E-03
    83  5.285867978E-04
    84 -2.449661672E-03
    85 -2.915164594E+00
    86 -1.144760117E+00
    87  6.600009851E-01
    88  6.630075390E-02
    89  1.847299632E-03
    90  3.187909832E-03
    91  2.659772211E-04
    92  1.630376459E-02
    93 -1.751646760E-02
    94 -1.478164900E-02
    95 -8.071974251E-03
    96  1.529581901E-02
    97 -2.317345467E-02
    98  4.311780591E-03
    99  9.305009385E-02
   100  1.708666660E-01
   101 -1.355014667E-01
   102 -1.695536702E-03
   103  7.270802197E-03
   104  5.608549658E-03
   105 -4.173484867E-05
   106  1.079703038E-04
   107  1.157422547E+01
   108  8.995813843E-01
   109  4.212421388E+00
   110 -1.804481036E+00
   111  1.842725518E-02
   112  2.986834214E-02
   113 -1.627981261E-03
   114 -4.170702264E-03
   115  8.616336656E-04
   116 -7.883854521E-02
   117 -5.877727045E-03
   118  1.013512477E-03
   119 -1.983156818E-03
   120 -6.970334727E-01
   121  3.697527667E-02
   122 -1.252499166E-01
   123  4.769546035E-02
   124 -5.509529397E-04
   125 -1.218719501E-03
   126 -8.276628490E-05
   127 -2.057802537E-03
   128  2.790826711E-03
   129 -3.655528193E+01
   130 -4.461781959E+00
   131 -4.513693080E+00
   132 -2.742105760E-01
   133  3.447740581E-04
   134  6.404755694E-04
   135  6.692051079E-03
   136 -7.927431562E-03
   137  3.884397150E-03
   138 -4.222167059E-03
   139  1.076549606E-02
   140 -1.165266755E-02
   141  5.431523234E-03
   142  3.333148830E-02
   143  3.835408466E-02
   144 -3.981187821E-02
   145  2.545104954E-02
   146 -2.523431012E-04
   147  3.066114988E-03
   148  2.097264822E-03
   149  9.699681576E-03
   150 -2.506904696E-03
   151  1.362867974E+00
   152  1.257078234E+00
   153 -1.227628364E+00
   154  5.690440128E-01
   155  8.802388960E-05
   156  1.622281759E-04
   157  7.334656613E-03
   158 -9.297861477E-03
   159  4.804029167E-03
   160 -1.236919235E-03
   161  1.495344573E-02
   162 -1.875896923E-02
   163  9.648175289E-03
   164  1.542270039E-02
   165 -1.234419644E-02
   166  1.469675559E-02
   167 -1.410255653E-02
   168  4.227881398E-03
   169  3.866074350E-03
   170 -3.858286182E-03
   171  1.239320390E-03
   172  2.175177487E-03
   173 -1.605635307E+00
   174 -7.756130604E-01
   175  7.683286988E-01
   176 -6.723381520E-01
   177  1.805529522E-03
   178  3.103896420E-03
   179 -4.861036147E-03
   180  2.288748977E-02
   181  5.301123194E-03
   182 -1.438040176E-02
   183 -1.476377200E-02
   184  2.328592903E-02
   185  7.012194694E-03
   186  4.371454371E-03
   187  4.892269994E-02
   188  2.311698615E-01
   189  5.368052175E-02
   190 -8.823679492E-04
   191 -4.600421757E-03
   192 -5.561571501E-03
   193  5.857157257E-03
   194 -6.014627282E-04
   195  9.962819524E+00
   196  4.854381006E-01
   197  4.542849151E+00
   198 -7.025131284E-01
   199  1.276401825E-02
   200  2.107794069E-02
   201 -2.332369280E-02
   202 -9.009786169E-04
   203 -5.211033908E-03
   204 -6.940738384E-02
   205 -2.866301513E-02
   206 -9.491205291E-03
   207 -4.013948941E-03
   208 -1.201385046E-01
   209 -1.878246564E-01
   210  1.498266004E-01
   211 -8.534789191E-02
   212  2.269861194E-03
   213 -4.457656151E-03
   214  5.599717252E-04
   215 -8.019133976E-03
   216  5.963851433E-03
   217  1.176474230E+01
   218 -2.900911870E+00
   219  1.826249580E-01
   220 -7.044780139E-01
   221 -1.672964747E-03
   222 -2.891243063E-03
   223 -1.552387527E-02
   224  4.229518232E-03
   225 -1.745034862E-02
   226  1.360098595E-02
   227 -1.143277056E-02
   228  1.264308365E-02
   229 -2.231615324E-02
   230 -2.463602373E-03
   231 -2.051976479E-01
   232 -3.980811522E-02
   233 -1.412567610E-01
   234  1.962658701E-03
   235  7.234988192E-03
   236  5.145594876E-03
   237  3.963461068E-05
   238 -3.910239564E-04
   239 -1.101042335E+01
   240 -4.378402896E+00
   241  6.684648423E-02
   242 -1.982888310E+00
   243 -1.239137175E-02
   244 -2.039330334E-02
   245  7.832275119E-03
   246  2.143854829E-02
   247 -4.506149434E-03
   248  6.498480172E-02
   249  1.816537680E-02
   250  2.470018247E-02
   251 -2.883803714E-03
   252  1.464585627E-01
   253 -9.679111879E-02
   254  2.033089721E-01
   255 -8.206539474E-02
   256 -2.538754947E-03
   257 -8.454474989E-04
   258 -4.468393924E-03
   259 -1.025952530E-02
   260 -8.182157025E-04
   261 -8.587350729E+00
   262  6.135345372E-01
   263  2.093564160E+00
   264 -4.200358812E-01
   265  4.577632685E-03
   266 -1.954235532E-02
   267 -1.237054728E-01
   268  1.031147231E-03
   269 -1.427393664E-03
   270  7.169057474E-03
   271 -3.540689479E+00
   272 -9.161830539E-03
   273 -3.330888533E-02
   274  3.278911464E-01
   275 -3.869624120E-03
   276 -3.974150896E-03
   277  7.219395590E-05
   278  3.277851110E+00
   279  2.080514013E-05
   280 -5.339567768E-04
   281 -1.676111661E-02
   282  5.490185447E-03
   283 -7.469759636E-03
   284  3.161681358E-03
   285 -2.367492586E-01
   286  5.543682233E-05
   287 -8.341636638E-04
   288  6.891507587E-04
   289  5.519682067E-03
   290 -7.300916163E-03
   291  3.385143505E-03
   292  1.381367410E-01
   293  4.334797678E-04
   294 -3.244492915E-03
   295  3.676397385E-02
   296 -3.864464873E-03
   297  4.234504438E-03
   298 -1.724812037E-03
   299 -8.720168333E-02
   300  9.104033802E-03
   301  3.786299940E-02
   302 -3.417977249E-01
   303  4.679668854E-03
   304  2.755523170E-03
   305  4.644396884E-04
   306 -3.207687147E+00
   307 -4.751451602E-03
   308  2.006772755E-02
   309  5.422638955E-02
   310  3.484222161E-03
   311 -4.940687902E-03
   312 -4.254574629E-03
   313  3.166129773E+00
   314  1.189576399E-02
   315  2.544375659E-02
   316  2.897811131E-01
   317 -2.791179234E-03
   318 -8.483348190E-04
   319 -4.763636959E-04
   320  2.156047091E+00
   321 -1.203229684E-02
   322 -2.405296478E-02
   323 -2.936681459E-01
   324  1.693780172E-03
   325  1.872109261E-03
   326 -1.773304819E-04
   327 -2.167726054E+00
   328  4.472396190E-04
   329 -3.674814727E-03
   330  3.231152097E-02
   331 -3.584969122E-03
   332  4.172350405E-03
   333 -2.327164812E-03
   334 -1.088991883E-01
   335  9.158038126E-03
   336  3.745710928E-02
   337 -3.489455255E-01
   338  4.702522099E-03
   339  2.667109853E-03
   340  1.208016578E-04
   341 -3.309587272E+00
   342 -4.537376645E-03
   343  1.696153819E-02
   344  9.301054138E-02
   345  9.160915566E-04
   346 -1.745227295E-03
   347  7.142919253E-03
   348  3.431243280E+00
   349  2.602552403E-03
   350  2.691273559E-02
   351  1.071980858E-01
   352 -2.381216743E-03
   353  8.208198614E-03
   354  3.369725335E-03
   355  6.483687147E-01
   356  2.435304838E-03
   357  2.969655859E-02
   358  8.149258817E-02
   359 -1.626033183E-05
   360  5.123946677E-03
   361 -7.538965113E-03
   362  5.548944064E-01
   363  1.445232204E-02
   364  9.480543854E-02
   365  8.669070525E-02
   366 -8.849847506E-03
   367 -3.650491241E-03
   368 -9.800809359E-04
   369 -2.372925790E+00
   370  4.843660394E-03
   371 -2.302670565E-02
   372 -5.317208947E-02
   373  3.677593928E-03
   374 -4.712619096E-03
   375 -4.271422437E-03
   376 -3.446151252E+00
   377 -8.974192412E-03
   378 -3.574027918E-02
   379  3.659043154E-01
   380 -3.880970075E-03
   381 -3.876595625E-03
   382  3.780095873E-04
   383  3.192855991E+00
   384 -2.721702818E-03
   385 -2.720189566E-02
   386 -1.042619681E-01
   387 -7.064912962E-03
   388  4.561137668E-03
   389  3.146161625E-03
   390 -6.116556343E-01
   391 -2.621490744E-03
   392 -2.914320548E-02
   393 -7.685551751E-02
   394 -4.694287217E-03
   395  1.686233699E-03
   396 -7.489558714E-03
   397 -5.143059139E-01
   398 -1.466408799E-02
   399 -9.300586611E-02
   400 -1.082841824E-01
   401  5.519289555E-03
   402  7.865398941E-03
   403 -9.027764488E-04
   404  2.493916071E+00
Ene=    8.3256184478E-02
Spin= Alpha
Occup=   0.0000000
     1 -2.711832113E-03
     2 -4.380573065E-03
     3 -1.871157619E-02
     4  6.212967108E-03
     5 -6.098011839E-03
     6  1.043804876E-02
     7 -2.711463544E-02
     8  1.399229168E-02
     9 -9.939605533E-03
    10  9.034858464E-02
    11 -1.358397660E-01
    12 -2.826455672E-03
    13 -3.241721091E-02
    14  1.060407536E-03
    15  1.149209550E-03
    16  4.394272097E-04
    17  2.604066855E-03
    18 -3.725410777E-03
    19  1.135012005E+01
    20 -4.640323912E+00
    21  1.654799268E-01
    22 -8.174098440E-01
    23  4.387483797E-03
    24  7.049005026E-03
    25  1.512807177E-02
    26 -8.849956691E-05
    27  6.807753164E-03
    28 -2.041590929E-02
    29  2.429164573E-02
    30  9.254230854E-04
    31  7.878819189E-03
    32 -5.662722220E-02
    33  1.519161867E-02
    34 -4.624477184E-02
    35  5.564082175E-02
    36  2.192888862E-03
    37  1.572675104E-03
    38 -1.322041009E-03
    39  5.734864580E-04
    40  6.833872041E-04
    41 -8.607378196E+00
    42  1.525928277E-03
    43 -6.104226923E-01
    44  2.700602049E+00
    45 -1.532514862E-02
    46 -2.487230549E-02
    47  2.140828033E-02
    48  1.599827599E-02
    49 -3.308285227E-04
    50  7.535424138E-02
    51  3.835517456E-02
    52  2.857281815E-02
    53 -3.234981092E-04
    54  2.106834088E-01
    55  2.025517421E-02
    56  1.328720065E-02
    57 -2.582601832E-03
    58  1.664180355E-03
    59 -3.530642816E-04
    60  6.420451100E-04
    61 -2.427959823E-04
    62 -1.100105944E-03
    63  1.456091958E+01
    64 -2.787900975E-01
    65 -4.063801311E-01
    66 -1.436974318E-01
    67  2.814979712E-04
    68  4.397690649E-04
    69 -1.349038058E-03
    70  3.508695137E-03
    71  9.984035306E-03
    72  1.542523237E-03
    73  8.686343549E-04
    74  6.035793553E-03
    75  1.173709514E-02
    76 -7.513485525E-02
    77 -4.796417264E-03
    78  6.343471822E-02
    79  1.572394601E-01
    80 -6.450078518E-04
    81  1.696400010E-03
    82  1.823170731E-03
    83 -2.300644735E-04
    84  2.167832059E-03
    85 -4.514729200E+00
    86 -8.208207380E-01
    87 -5.960357547E-02
    88  1.365481870E+00
    89  4.366431691E-03
    90  6.974413948E-03
    91  2.753210521E-03
    92  1.667781918E-02
    93 -6.564648962E-04
    94 -1.905491613E-02
    95  6.760589933E-03
    96  2.486141317E-02
    97 -2.802518968E-03
    98 -7.490977953E-02
    99 -5.522164896E-02
   100  5.183783783E-02
   101  2.040934328E-02
   102 -1.230420850E-03
   103 -1.388115043E-03
   104  2.298380697E-03
   105 -9.038068286E-04
   106 -8.915941424E-04
   107 -9.780057143E+00
   108 -1.515096655E+00
   109  1.431283249E+00
   110  2.045561830E+00
   111 -2.579625978E-03
   112 -4.172764932E-03
   113  8.902048451E-04
   114 -1.985242562E-02
   115  5.855255950E-03
   116  9.873610735E-03
   117  6.375936130E-03
   118 -3.000386679E-02
   119  1.025583010E-02
   120  8.073866913E-02
   121 -4.737278494E-02
   122 -1.347083835E-01
   123  2.911958187E-02
   124  1.213902782E-03
   125 -9.177222237E-04
   126 -1.126519673E-03
   127 -4.158221696E-03
   128 -1.698042254E-03
   129  1.160296906E+01
   130 -2.089610529E+00
   131 -4.316109906E+00
   132  1.249967629E+00
   133 -9.303001472E-04
   134 -1.065039305E-03
   135  1.556539160E-02
   136  1.168434997E-02
   137  4.648637857E-05
   138 -1.051329142E-02
   139  1.042357547E-02
   140  8.331620389E-03
   141  5.296554728E-04
   142  1.876043871E-01
   143  2.730724594E-01
   144  2.037212632E-01
   145 -6.750038311E-03
   146  4.694770581E-04
   147  7.803899451E-04
   148 -1.252863493E-03
   149 -1.060526289E-03
   150 -4.249434273E-03
   151  1.110280712E+01
   152  2.941727701E+00
   153  2.093692326E+00
   154  4.137531158E-03
   155  4.590295730E-04
   156  7.227082312E-04
   157  3.353912064E-03
   158 -1.944754124E-03
   159 -9.791074652E-03
   160  1.225591585E-03
   161  6.811095470E-03
   162 -4.417526344E-04
   163 -1.115166291E-02
   164 -8.686686246E-02
   165  6.390764829E-02
   166 -2.467531208E-02
   167 -1.629119760E-01
   168 -5.849642539E-04
   169 -2.017202121E-03
   170 -9.051039395E-04
   171  1.404067429E-03
   172  1.919178687E-03
   173 -7.147948116E+00
   174 -4.788208181E-01
   175 -1.107015970E+00
   176 -1.807747697E+00
   177  4.438524687E-03
   178  7.144736028E-03
   179  3.966405320E-03
   180  1.517746287E-02
   181 -6.899843447E-03
   182 -2.088921268E-02
   183  7.644693665E-03
   184  2.439175778E-02
   185 -8.098252068E-03
   186 -5.880906419E-02
   187 -4.433487597E-02
   188  2.937085609E-02
   189 -6.246683948E-02
   190  2.087222075E-03
   191  7.557457874E-04
   192 -1.973398246E-03
   193 -8.176684982E-05
   194  7.946910214E-04
   195 -6.965546741E+00
   196 -6.577809227E-01
   197  3.848913432E-01
   198 -2.558187750E+00
   199 -3.511640191E-03
   200 -5.872642676E-03
   201  1.545239547E-03
   202 -2.882680463E-02
   203  8.667332802E-03
   204  1.993014101E-02
   205 -3.116849765E-03
   206 -4.471416007E-02
   207  1.211938332E-02
   208  3.116866379E-02
   209  6.107559085E-02
   210 -1.012250883E-01
   211  4.386055548E-02
   212  1.727428130E-03
   213  5.014137164E-04
   214  4.334186482E-03
   215  9.104065506E-03
   216  2.075515792E-03
   217 -2.520958195E+00
   218  1.922229555E-02
   219 -1.883851443E+00
   220  4.949123289E-01
   221  4.503682200E-03
   222  7.282633058E-03
   223  1.649127374E-02
   224 -1.969578262E-03
   225  9.553553657E-04
   226 -2.226779258E-02
   227  2.626289945E-02
   228 -4.450840189E-04
   229  3.365051462E-03
   230 -4.296193796E-02
   231  2.655988689E-02
   232 -7.300100498E-02
   233 -1.054310833E-02
   234 -1.105567383E-03
   235 -1.626350753E-03
   236  1.863126016E-03
   237  3.067722363E-04
   238 -1.317481806E-03
   239 -7.051527663E+00
   240  9.304228029E-01
   241 -1.889827963E+00
   242 -1.471488134E+00
   243 -3.636595833E-03
   244 -6.075148025E-03
   245 -2.705155962E-02
   246  9.568780230E-03
   247 -8.783821772E-03
   248  2.061365865E-02
   249 -4.332343039E-02
   250  9.495373229E-03
   251 -1.234223469E-02
   252  3.013033855E-02
   253 -8.359056118E-02
   254  8.970851230E-02
   255 -4.502286369E-02
   256  1.737502504E-03
   257 -4.362092769E-03
   258  6.829497171E-04
   259 -6.685701455E-03
   260  6.550776214E-03
   261 -3.423900407E+00
   262 -1.781029443E+00
   263  7.080865978E-01
   264 -6.230639410E-01
   265 -3.914362201E-03
   266 -2.238802300E-02
   267  3.356026132E-01
   268 -5.489784382E-03
   269 -1.850961212E-03
   270 -2.259947992E-03
   271  2.886429383E+00
   272  3.288117500E-03
   273 -3.335387886E-03
   274  1.795824161E-01
   275 -1.269535899E-04
   276 -1.439841000E-03
   277  8.349819387E-04
   278 -6.196852123E-01
   279  2.386901600E-03
   280  1.959277030E-02
   281 -4.603390067E-01
   282 -2.030839754E-03
   283 -4.631579748E-03
   284 -6.612491351E-03
   285 -2.366930630E+00
   286  2.245214474E-03
   287  1.878143494E-02
   288 -4.725677712E-01
   289 -5.228380800E-03
   290 -9.270419087E-04
   291  6.674406521E-03
   292 -2.650588186E+00
   293 -2.572179185E-03
   294 -6.331351005E-03
   295 -1.346132504E-01
   296  2.777758050E-03
   297  1.929752195E-03
   298 -5.460714221E-04
   299 -2.319538534E+00
   300  3.500207840E-03
   301 -5.143084441E-03
   302  1.920361772E-01
   303 -1.552483337E-03
   304  4.951941528E-04
   305 -1.151325035E-04
   306 -7.417558806E-01
   307 -3.870060123E-03
   308 -2.195694750E-02
   309  3.550971498E-01
   310 -2.671313456E-03
   311 -5.522472021E-03
   312 -6.406191949E-04
   313  2.928479967E+00
   314  4.987391570E-03
   315  3.554799280E-02
   316  1.973722055E-02
   317 -6.130634206E-04
   318  5.578965402E-03
   319 -1.725908711E-03
   320  3.105601339E-01
   321  4.813423430E-03
   322  3.771636744E-02
   323 -2.396199430E-03
   324  5.153043885E-03
   325 -2.019079196E-03
   326  1.791557237E-03
   327  1.532003555E-01
   328 -2.463940238E-03
   329 -7.956242413E-03
   330 -1.035906682E-01
   331  2.373601174E-03
   332  2.105732940E-03
   333  4.796980407E-04
   334 -2.430617540E+00
   335  3.301888405E-03
   336 -4.002417997E-03
   337  1.699328261E-01
   338 -1.382794740E-03
   339  2.662500377E-04
   340 -8.703460621E-04
   341 -6.400341166E-01
   342 -4.045379397E-03
   343 -1.855422627E-02
   344  3.026561166E-01
   345 -3.268263700E-03
   346 -4.891158984E-03
   347  2.133332736E-03
   348  2.845499772E+00
   349  2.786921517E-03
   350 -1.401030966E-02
   351  1.574339044E-01
   352  3.884175579E-03
   353 -3.476709191E-03
   354  3.565330900E-03
   355  2.839806883E+00
   356  2.685447888E-03
   357 -1.434259908E-02
   358  1.645835896E-01
   359  4.661013026E-03
   360 -4.466143715E-03
   361  6.188997295E-04
   362  2.898360333E+00
   363 -1.100184061E-02
   364 -3.120743360E-02
   365 -3.539699021E-01
   366 -2.402996378E-03
   367  8.569223520E-03
   368 -3.059881396E-03
   369 -5.059738111E+00
   370 -3.984708029E-03
   371 -1.952660046E-02
   372  3.055300106E-01
   373 -6.195754412E-03
   374 -1.090629298E-03
   375  3.813069835E-04
   376  2.678810563E+00
   377  3.270370125E-03
   378 -3.981343446E-03
   379  1.944998454E-01
   380  1.319925503E-04
   381 -1.636329712E-03
   382 -3.206777702E-05
   383 -4.940443981E-01
   384  2.782589624E-03
   385 -1.437449740E-02
   386  1.650794753E-01
   387 -2.394502335E-03
   388  4.777285192E-03
   389 -3.584102394E-03
   390  2.866435901E+00
   391  2.752440772E-03
   392 -1.352886921E-02
   393  1.579728252E-01
   394 -3.057825341E-03
   395  5.472998580E-03
   396 -6.509413181E-04
   397  2.795317856E+00
   398 -1.122663339E-02
   399 -3.233283898E-02
   400 -3.563684035E-01
   401  7.610471500E-03
   402 -4.581056527E-03
   403  3.047984422E-03
   404 -4.999003532E+00
Ene=    8.9237158604E-02
Spin= Alpha
Occup=   0.0000000
     1 -1.784394061E-03
     2 -3.489310525E-03
     3 -1.473193260E-03
     4 -1.136488668E-02
     5  3.197192728E-03
     6  2.231409628E-02
     7 -4.817826538E-03
     8 -2.186051993E-02
     9  5.494054169E-03
    10 -1.611293650E-03
    11 -2.858111544E-02
    12 -1.126777992E-02
    13  4.199572585E-03
    14  2.473280289E-03
    15 -1.110260026E-03
    16  2.211638640E-03
    17  1.999624183E-03
    18 -2.106378332E-03
    19  1.668570078E+01
    20 -1.462259566E+00
    21 -5.973923874E-01
    22  1.814426259E+00
    23 -8.584782890E-03
    24 -1.497247744E-02
    25 -6.261476103E-03
    26  1.720211856E-02
    27  6.536961976E-03
    28  6.769084339E-02
    29 -1.247775587E-02
    30  2.145518139E-02
    31  8.927897098E-03
    32 -1.328919454E-01
    33  2.853423263E-03
    34  1.623030714E-01
    35  5.662970418E-02
    36 -3.318062915E-03
    37 -6.547716134E-03
    38 -5.170255133E-03
    39 -3.881817168E-03
    40 -2.401160164E-03
    41 -2.408524823E+01
    42 -1.632881834E+00
    43  1.862422131E+00
    44  3.013832964E+00
    45 -8.355940267E-03
    46 -1.396800187E-02
    47  1.046048902E-02
    48  4.019788191E-03
    49 -8.441292631E-03
    50  4.732437916E-02
    51  1.779221147E-02
    52  7.991943181E-03
    53 -1.145611291E-02
    54  9.878088781E-02
    55 -4.590973790E-03
    56 -2.751385328E-02
    57 -4.433384555E-02
    58 -6.657256829E-03
    59  2.999820077E-03
    60 -2.418174442E-03
    61  5.855235638E-04
    62  2.796955271E-03
    63 -8.556453925E+00
    64  1.367797124E+00
    65 -1.784021538E-01
    66 -1.635283799E+00
    67 -1.557877684E-02
    68 -2.599840677E-02
    69 -9.325185671E-03
    70 -1.380541799E-03
    71  1.318708510E-02
    72  8.725424902E-02
    73 -1.653840404E-02
    74 -2.144755404E-03
    75  2.152744964E-02
    76  3.055728391E-01
    77  7.873076974E-03
    78 -2.888255987E-02
    79 -5.448342680E-02
    80 -4.578692512E-03
    81  5.416006037E-03
    82  7.816594573E-04
    83 -1.299845912E-03
    84  1.566314858E-03
    85  3.859926973E+01
    86  4.356250521E+00
    87 -4.793794865E-01
    88 -7.637144840E+00
    89 -8.252378013E-03
    90 -1.443923361E-02
    91  9.785459958E-03
    92 -3.671532571E-03
    93  1.553933417E-02
    94  6.610370416E-02
    95  1.125227355E-02
    96 -7.767569130E-03
    97  2.172399067E-02
    98 -1.395581117E-01
    99  1.122684537E-01
   100  1.086757394E-02
   101  1.287946405E-01
   102 -2.093212269E-04
   103 -5.399199651E-04
   104 -6.013539056E-03
   105  6.782937704E-03
   106 -3.569885853E-03
   107 -2.723785908E+01
   108 -1.064522802E-01
   109 -3.708933525E-01
   110  4.556799236E+00
   111 -1.391910411E-03
   112 -2.853366219E-03
   113 -1.186259448E-02
   114  1.915378153E-03
   115 -2.356943293E-03
   116  2.045872573E-02
   117 -2.278743298E-02
   118  1.688463443E-03
   119 -4.654352726E-03
   120 -1.118659583E-02
   121 -2.950842919E-02
   122 -2.091556138E-02
   123  2.363297993E-02
   124  3.551210654E-03
   125 -1.686784086E-03
   126  3.972659345E-05
   127 -2.339423541E-03
   128 -2.541504157E-04
   129  1.675567693E+01
   130 -2.117458676E+00
   131 -5.334787394E-01
   132  2.659850372E+00
   133 -1.115852365E-02
   134 -1.960690719E-02
   135 -2.978663916E-02
   136 -2.386361447E-02
   137 -1.607547924E-03
   138  9.654814826E-02
   139 -4.483388070E-02
   140 -3.454502074E-02
   141 -6.986640614E-04
   142 -3.405200482E-01
   143 -2.169063750E-01
   144 -1.880512845E-01
   145 -3.592862797E-02
   146  8.496524396E-03
   147 -5.287832781E-03
   148  6.139051265E-03
   149  1.536977536E-03
   150  4.163336377E-03
   151 -3.235751885E+01
   152 -4.644744304E+00
   153 -3.955363091E+00
   154 -5.577015475E-01
   155 -1.432443515E-02
   156 -2.404124871E-02
   157 -4.006115066E-03
   158 -8.053365986E-03
   159 -1.101654256E-02
   160  8.477358130E-02
   161 -6.920646548E-03
   162 -1.495151953E-02
   163 -1.936563418E-02
   164  2.236575311E-01
   165 -1.667652764E-02
   166  1.785254941E-02
   167  4.174270193E-02
   168 -4.375029203E-03
   169 -1.928625393E-03
   170 -4.740012322E-03
   171  1.923958271E-03
   172  9.387185543E-04
   173  2.996948504E+01
   174  9.216942180E-01
   175  3.536915564E+00
   176  6.110817711E+00
   177 -9.887359168E-03
   178 -1.694626485E-02
   179  1.572384748E-02
   180 -1.304382558E-02
   181 -9.434896760E-03
   182  6.998732246E-02
   183  2.050162803E-02
   184 -1.696762734E-02
   185 -1.564209929E-02
   186 -6.000711768E-02
   187  1.385807640E-01
   188 -6.794560777E-02
   189 -4.160369289E-02
   190 -3.089596142E-03
   191  6.659013491E-03
   192  5.466179714E-03
   193  2.458234645E-03
   194 -4.535606647E-03
   195 -1.492864678E+01
   196  1.255191844E+00
   197 -1.602256952E+00
   198 -9.364016981E-01
   199 -6.332994881E-04
   200 -1.053309060E-03
   201  9.110162496E-03
   202 -7.232969853E-03
   203  6.238176760E-03
   204  4.709911103E-03
   205  1.515500027E-02
   206 -8.978356009E-03
   207  9.760182435E-03
   208 -1.662221088E-02
   209 -1.641501851E-02
   210 -3.039676548E-02
   211  3.052067710E-03
   212  2.322604148E-03
   213 -2.516549642E-03
   214  1.980395691E-03
   215  5.384467776E-04
   216  1.003584471E-03
   217  1.684582577E+00
   218 -8.745741874E-01
   219 -2.165347483E-01
   220 -5.252655954E-02
   221 -9.783750025E-03
   222 -1.678777801E-02
   223 -3.281785877E-03
   224  1.043630418E-02
   225 -2.013464370E-02
   226  6.985781772E-02
   227 -2.259753531E-03
   228  1.236024578E-02
   229 -2.888204004E-02
   230 -6.375307705E-02
   231 -4.675931656E-03
   232  1.060462718E-01
   233 -1.240259218E-01
   234  6.094463844E-04
   235  6.145685755E-03
   236 -9.363864827E-04
   237 -8.329423254E-03
   238  7.210931484E-04
   239 -1.670319911E+01
   240 -1.213349483E+00
   241  7.476463919E-01
   242 -2.359420234E+00
   243 -7.795042403E-04
   244 -1.274783752E-03
   245 -5.178944569E-03
   246  1.226827492E-02
   247 -2.614746537E-03
   248  5.291040482E-03
   249 -5.712537747E-03
   250  1.924939378E-02
   251 -2.595214400E-03
   252 -1.263457633E-02
   253 -3.583593748E-02
   254 -2.793080992E-03
   255 -1.353536720E-02
   256  2.950316078E-03
   257 -2.014738440E-03
   258  9.627375820E-04
   259  4.424144269E-04
   260  1.241572257E-03
   261  2.181214368E+00
   262 -4.660444000E-01
   263 -8.835105578E-01
   264  3.017683940E-01
   265 -4.102390943E-04
   266 -5.308697688E-02
   267  6.300829417E-01
   268  5.828727413E-03
   269  4.949988074E-03
   270  5.946252561E-03
   271  2.955213068E+00
   272 -7.550712562E-03
   273 -7.100946494E-02
   274  3.527691416E-01
   275 -6.254497255E-03
   276  1.165612236E-03
   277 -7.493482411E-03
   278  7.085478016E-01
   279 -1.842282539E-03
   280 -3.579720917E-02
   281  5.219273252E-01
   282  3.680161460E-03
   283 -1.883426700E-04
   284 -5.932736942E-03
   285  2.734489507E+00
   286 -1.296316741E-03
   287 -3.595547191E-02
   288  3.214138185E-01
   289 -9.828135843E-04
   290  2.955514784E-03
   291  8.239755930E-03
   292 -8.131197780E-01
   293 -6.207331050E-03
   294 -3.282319336E-02
   295 -1.518033037E-01
   296  6.306811305E-03
   297  9.556751153E-04
   298 -8.198250382E-03
   299  3.019942966E-01
   300 -7.048134921E-03
   301 -7.403802575E-02
   302  4.238156284E-01
   303  1.939473585E-03
   304 -9.059460104E-03
   305 -2.652268699E-03
   306  6.810935580E-01
   307 -3.683789833E-04
   308 -5.420530981E-02
   309  6.794093070E-01
   310  4.052554518E-03
   311  7.106749390E-03
   312  4.642618796E-03
   313  2.820562447E+00
   314 -4.808726020E-03
   315 -6.935075739E-02
   316  4.098025991E-01
   317  7.059525510E-03
   318 -9.677338863E-03
   319  4.570706223E-03
   320  9.260318235E-01
   321 -5.137947771E-03
   322 -6.948069974E-02
   323  3.765697031E-01
   324 -7.400477010E-03
   325  9.726876765E-03
   326 -4.089529727E-03
   327  5.746989891E-01
   328 -6.336276812E-03
   329 -3.981980199E-02
   330  2.315996310E-03
   331  1.721828984E-03
   332  5.002194495E-03
   333  7.857160334E-03
   334  8.496844105E-01
   335 -7.147652826E-03
   336 -7.065855173E-02
   337  3.511043928E-01
   338 -1.078105905E-03
   339 -7.371702587E-03
   340  8.102386087E-03
   341  1.446222746E+00
   342 -2.346720644E-03
   343 -4.054869424E-02
   344  3.221611219E-01
   345  6.754662953E-03
   346  4.961281559E-03
   347 -6.127233873E-03
   348  1.342620828E+00
   349  3.260098641E-03
   350  2.406250352E-02
   351 -1.470627822E-01
   352 -1.756203421E-03
   353 -9.136441001E-04
   354 -1.481205434E-04
   355 -6.165747638E-01
   356  3.905139821E-03
   357  1.681826717E-02
   358 -5.710562912E-02
   359  2.415419190E-04
   360 -1.866766962E-03
   361 -1.726645155E-04
   362  8.034935784E-01
   363 -3.865718973E-03
   364  5.373483952E-03
   365 -2.677338756E-01
   366 -1.184759927E-03
   367  2.585825476E-03
   368 -9.970371126E-04
   369 -1.560231183E+00
   370 -2.178383723E-03
   371 -4.134891027E-02
   372  3.347601397E-01
   373  9.242117010E-03
   374  1.713508759E-03
   375 -4.723185642E-03
   376  7.685121582E-01
   377 -7.165205361E-03
   378 -7.463060879E-02
   379  4.347237206E-01
   380 -9.704088534E-03
   381  4.196674408E-03
   382  2.698717120E-03
   383  1.829054161E+00
   384  3.768477938E-03
   385  1.858529297E-02
   386 -9.324612693E-02
   387 -1.483083866E-03
   388  2.663988896E-04
   389 -1.170948662E-03
   390  7.108899616E-01
   391  2.955490756E-03
   392  2.618348237E-02
   393 -1.697648891E-01
   394 -1.653715266E-03
   395 -1.374698444E-03
   396 -1.254989553E-04
   397 -6.103520519E-01
   398 -4.444776675E-03
   399  4.205958882E-03
   400 -2.890928768E-01
   401  2.240730052E-03
   402 -1.494799600E-03
   403  1.217186221E-03
   404 -1.393411636E+00
Ene=    9.0268502696E-02
Spin= Alpha
Occup=   0.0000000
     1  1.537764369E-04
     2  1.753916039E-04
     3  9.215654279E-04
     4 -3.185543226E-03
     5 -4.272297486E-03
     6  1.149323215E-03
     7 -6.050958873E-04
     8 -3.668439850E-03
     9  1.167809983E-03
    10 -5.768685305E-03
    11  1.807342791E-02
    12 -2.582298949E-02
    13 -9.406943507E-02
    14  2.955820151E-03
    15  2.327859503E-03
    16 -1.924599496E-03
    17  2.467523694E-04
    18  9.436855396E-04
    19  1.838679503E+00
    20  1.792589527E+00
    21 -1.948529588E+00
    22 -7.735854072E+00
    23 -8.100247286E-03
    24 -1.347692775E-02
    25 -1.403455453E-02
    26  1.340431238E-02
    27  9.889575828E-03
    28  4.935774906E-02
    29 -1.100388776E-02
    30  1.884670652E-02
    31  2.141499022E-02
    32  3.891132804E-02
    33 -1.234166062E-01
    34  1.343061033E-01
    35 -4.724951848E-02
    36  5.560290622E-04
    37 -3.270548094E-03
    38 -1.124929445E-04
    39 -1.644610920E-03
    40  1.409747026E-03
    41  5.183417608E+00
    42 -1.252376438E+00
    43  2.172186606E+00
    44 -4.151920971E+00
    45 -1.301444922E-03
    46 -2.148048922E-03
    47 -9.384323660E-03
    48  1.441525814E-02
    49  4.701289014E-02
    50  6.534126843E-03
    51 -1.194014361E-02
    52  1.982037967E-02
    53  6.291349369E-02
    54  2.498589992E-02
    55 -6.104009787E-02
    56  6.789473334E-02
    57  2.517654529E-01
    58 -9.930752613E-04
    59 -8.388384819E-04
    60 -1.254779244E-03
    61  5.292131823E-04
    62  3.321865303E-04
    63 -1.731141467E+00
    64 -1.800390033E+00
    65  2.679825398E+00
    66  8.962594895E+00
    67 -1.602990730E-03
    68 -2.854370254E-03
    69 -3.669853959E-03
    70 -4.174128330E-03
    71 -4.018244713E-03
    72  1.248288143E-02
    73 -1.170616915E-02
    74 -7.650503347E-03
    75  2.580924410E-03
    76 -4.335410526E-02
    77  8.823344289E-02
    78  3.262429097E-02
    79 -8.077781892E-02
    80 -1.125275984E-03
    81  2.733646488E-03
    82  1.680026637E-04
    83 -1.170795583E-03
    84 -1.068031028E-03
    85  9.440703648E+00
    86  4.188216160E+00
    87  2.506025540E+00
    88 -1.297258613E+00
    89 -8.425407953E-03
    90 -1.401973935E-02
    91  2.682868287E-03
    92 -8.352291976E-03
    93  2.073751777E-02
    94  5.147648586E-02
    95  3.464776741E-03
    96 -1.258720204E-03
    97  3.163846245E-02
    98  3.202896135E-02
    99  9.655744246E-02
   100 -1.382007926E-01
   101  8.488136960E-02
   102  1.446683187E-03
   103 -1.264035350E-03
   104 -9.683580491E-05
   105  3.632047277E-03
   106  4.630352501E-04
   107  6.479763277E+00
   108  3.272342074E+00
   109 -3.111773624E+00
   110 -1.792866227E+00
   111 -1.496798750E-04
   112 -3.434671081E-04
   113 -4.391103518E-04
   114 -1.096429777E-03
   115 -5.722946201E-03
   116  3.380583999E-03
   117 -3.008832176E-03
   118  9.267280106E-05
   119 -1.006470887E-03
   120 -1.339164221E-02
   121  1.650654003E-02
   122 -3.111187842E-02
   123 -1.076442534E-01
   124 -1.726072015E-03
   125 -1.706655582E-03
   126  3.203089365E-03
   127 -9.891963030E-04
   128 -1.433542699E-03
   129  1.736507289E+00
   130  1.388928452E+00
   131 -2.096324792E+00
   132 -8.542086137E+00
   133 -1.595403787E-03
   134 -2.814299138E-03
   135 -6.168879232E-03
   136 -2.356977642E-03
   137  4.993181816E-03
   138  1.438674914E-02
   139 -9.567330487E-03
   140 -2.652128068E-03
   141  1.127613280E-02
   142 -5.806403983E-02
   143 -4.205147719E-02
   144 -2.857069779E-02
   145 -1.258450731E-02
   146  1.344212986E-03
   147 -6.533286915E-05
   148  1.624529146E-03
   149 -1.255780110E-04
   150  8.321480209E-04
   151 -5.090153691E+00
   152 -1.255600866E+00
   153 -1.261362790E-01
   154  1.494775345E+00
   155 -3.520489104E-03
   156 -5.682073192E-03
   157  4.700251307E-03
   158  4.645576899E-05
   159 -7.211328015E-03
   160  1.582973564E-02
   161  9.647208567E-03
   162  5.462720775E-03
   163 -3.689045880E-03
   164  1.480145132E-01
   165 -5.639541923E-02
   166 -7.712696551E-02
   167 -5.379663557E-02
   168 -1.192807935E-04
   169  5.182437511E-04
   170  1.318794946E-03
   171  1.360063098E-04
   172  2.243718397E-03
   173  8.542822309E-01
   174 -3.243895954E+00
   175 -2.224264455E+00
   176  7.712595293E-01
   177  5.672434572E-03
   178  9.259026509E-03
   179 -4.411555931E-03
   180  1.372484782E-02
   181  8.286117134E-03
   182 -3.079409266E-02
   183 -9.359073062E-03
   184  1.189469081E-02
   185  1.836974729E-02
   186 -6.738271512E-02
   187 -4.228556524E-02
   188  1.293213639E-01
   189 -5.683103295E-02
   190 -2.024652037E-03
   191  1.080813166E-03
   192 -1.648914510E-03
   193 -1.436105547E-03
   194 -1.926824334E-03
   195 -1.204004762E+01
   196 -1.348958127E+00
   197  7.694744928E-01
   198 -4.563101658E+00
   199  7.862149173E-05
   200  1.489684794E-04
   201  4.042013185E-03
   202 -5.126208913E-03
   203 -1.229494887E-02
   204 -1.008680344E-03
   205  7.816717071E-03
   206 -9.196628883E-03
   207 -2.449710085E-02
   208  7.534589672E-03
   209 -1.713334616E-02
   210  3.634980129E-03
   211  2.981379420E-02
   212  2.377636062E-03
   213  5.320369794E-03
   214  1.808094092E-03
   215 -1.413356756E-03
   216  1.503722363E-03
   217  9.019224274E-01
   218  9.789550144E-04
   219 -4.158074529E-01
   220 -1.275822131E+00
   221  5.456521438E-03
   222  8.944556421E-03
   223  8.260371500E-03
   224 -1.534688775E-03
   225  1.490198246E-02
   226 -3.090822318E-02
   227  1.087464579E-03
   228 -6.242798969E-04
   229  2.331000401E-02
   230 -4.725311598E-02
   231  1.255995604E-01
   232 -8.586669141E-02
   233  4.867928114E-02
   234 -1.755325674E-03
   235  1.976324442E-03
   236 -1.791773234E-03
   237  2.027485409E-04
   238 -2.261236999E-03
   239 -1.016481492E+01
   240  2.444039075E+00
   241 -3.688451922E+00
   242 -2.263062552E+00
   243  1.637960088E-04
   244  2.709367696E-04
   245  1.528365270E-03
   246 -2.399105272E-03
   247 -1.318615804E-02
   248 -6.433772756E-04
   249  3.745965529E-03
   250 -4.974752820E-03
   251 -2.621023617E-02
   252 -7.830264625E-03
   253 -1.382092392E-02
   254  4.275477194E-03
   255  3.266797700E-02
   256 -8.561133479E-04
   257  2.407299291E-03
   258  5.423513957E-03
   259 -1.847908639E-03
   260 -1.818782973E-04
   261  2.373174308E-02
   262  1.501860158E-01
   263 -4.474743909E-01
   264 -1.224493362E+00
   265 -6.576421464E-03
   266 -2.210685962E-03
   267 -6.120556897E-01
   268  6.193199726E-03
   269  3.239151936E-04
   270  2.495131761E-03
   271 -4.662381252E+00
   272  1.077565813E-03
   273 -1.656520306E-02
   274  1.422339556E-01
   275 -5.252468010E-03
   276 -8.632823306E-04
   277 -5.305982548E-03
   278  2.249423422E+00
   279  5.070014846E-03
   280  7.371650365E-03
   281 -5.068976384E-01
   282 -9.006016492E-04
   283 -3.895872610E-03
   284 -7.460621364E-03
   285 -9.461706564E+00
   286 -5.339054786E-03
   287 -1.733920696E-02
   288  6.339766364E-01
   289  4.105125907E-03
   290  8.088969562E-04
   291 -5.243027066E-03
   292  9.568116569E+00
   293 -1.876276237E-03
   294 -1.164971114E-02
   295  1.963106799E-01
   296 -5.529708710E-05
   297 -4.349649324E-04
   298 -1.185449279E-03
   299  4.195006454E+00
   300  7.807471153E-04
   301 -1.515016182E-02
   302  7.324859933E-02
   303 -8.187153257E-04
   304 -7.328192576E-03
   305 -2.588532594E-03
   306  1.946109718E+00
   307 -6.498278358E-03
   308 -1.348720488E-03
   309 -6.283262210E-01
   310  1.464722425E-03
   311  6.745126256E-03
   312 -1.270243511E-04
   313 -4.370895413E+00
   314 -9.215638952E-04
   315 -1.083608569E-02
   316  4.795373601E-02
   317  1.629818424E-03
   318 -2.137314959E-03
   319 -1.569563274E-03
   320 -6.930797399E-02
   321 -7.575705258E-04
   322 -9.507801599E-03
   323  6.669370809E-02
   324 -6.358543482E-04
   325  8.957408576E-04
   326 -3.016066164E-03
   327  1.218563280E-01
   328  3.203066299E-04
   329 -5.637094247E-04
   330 -2.036967434E-01
   331  1.013622672E-03
   332  1.336387056E-03
   333  1.328185981E-03
   334 -3.866138461E+00
   335 -3.754554559E-03
   336 -9.276985719E-03
   337  1.201585264E-02
   338  2.613560381E-03
   339  2.819145342E-03
   340 -2.708580843E-03
   341 -1.550346278E+00
   342  6.209810553E-03
   343 -1.140172816E-02
   344  7.480917095E-01
   345  1.411753419E-04
   346 -4.716268753E-03
   347  6.424453097E-04
   348  4.919778273E+00
   349  3.116529455E-03
   350 -1.575139242E-02
   351  2.027768709E-01
   352  4.710784613E-03
   353 -7.548807278E-04
   354  4.285264889E-03
   355  4.223237736E+00
   356 -1.594388311E-03
   357  2.343575897E-02
   358 -2.208177417E-01
   359 -6.008354855E-03
   360  1.439941476E-03
   361  5.556827300E-04
   362 -4.122647710E+00
   363 -1.075089154E-03
   364 -9.361008872E-04
   365 -3.842784597E-02
   366  1.460856435E-04
   367  6.300517251E-06
   368 -1.516190341E-03
   369 -3.073234089E-01
   370  6.275291551E-03
   371 -1.137161847E-02
   372  7.548482906E-01
   373 -4.479516387E-03
   374  1.210286022E-03
   375 -1.992310352E-03
   376  5.373925358E+00
   377 -3.736141829E-03
   378 -5.499682881E-03
   379 -4.504229835E-02
   380  4.318003015E-03
   381  4.247790738E-04
   382 -1.360296314E-03
   383 -1.930405573E+00
   384 -1.398993144E-03
   385  2.402930669E-02
   386 -2.169935061E-01
   387 -1.019777316E-03
   388 -4.897775925E-03
   389  3.479652006E-03
   390 -3.957387747E+00
   391  3.003349882E-03
   392 -1.482931961E-02
   393  1.866342001E-01
   394 -5.451857133E-04
   395  6.014586396E-03
   396  1.161984306E-03
   397  4.108472492E+00
   398 -7.119292144E-04
   399  5.924459552E-04
   400 -4.012746058E-02
   401  6.290896277E-04
   402 -9.567016287E-04
   403 -1.226779886E-03
   404 -3.462936467E-01
Ene=    9.4157371850E-02
Spin= Alpha
Occup=   0.0000000
     1 -1.934119285E-03
     2 -3.147346581E-03
     3  7.048386590E-04
     4 -2.769535730E-03
     5 -7.440053466E-03
     6  8.208161063E-03
     7  1.417724717E-03
     8 -2.810378070E-03
     9 -8.429850975E-03
    10  7.150528810E-02
    11  1.584524023E-02
    12 -6.295500748E-02
    13 -1.679467006E-01
    14  1.183621910E-03
    15  1.451717224E-03
    16 -1.167197923E-03
    17 -1.596609284E-04
    18  5.115986608E-04
    19  5.190074321E+00
    20  6.172198913E-01
    21 -3.599124196E+00
    22 -9.187615700E+00
    23 -5.443216104E-03
    24 -8.760909272E-03
    25  1.367045439E-02
    26  8.449773024E-03
    27  2.286732723E-02
    28  2.468524400E-02
    29  5.244618116E-03
    30  1.611508062E-02
    31  2.690196009E-02
    32  7.905253559E-02
    33  1.977367165E-01
    34  3.584018022E-03
    35  1.158877938E-01
    36  7.760905290E-05
    37 -8.798655120E-04
    38 -2.478624279E-03
    39  3.260560791E-03
    40 -9.185801855E-04
    41  1.013824274E+01
    42  8.611848006E+00
    43  3.235116836E+00
    44  2.156053462E+00
    45 -3.727275330E-04
    46 -6.889866080E-04
    47  1.275849734E-03
    48 -8.377011782E-04
    49  1.833690164E-03
    50  4.013470150E-03
    51  1.128741900E-03
    52 -8.843293719E-04
    53  2.765769586E-03
    54 -1.160958845E-02
    55  1.366967892E-02
    56  3.017734136E-03
    57  4.544798607E-03
    58 -1.462993118E-04
    59  3.144628798E-04
    60  3.705526444E-05
    61  5.022274716E-04
    62 -2.425107883E-04
    63 -3.233430125E+00
    64 -2.406775855E-01
    65  1.347392546E+00
    66 -3.452290368E-01
    67  5.705684058E-04
    68  9.231456012E-04
    69  6.041372393E-03
    70 -1.017687465E-02
    71  4.441924771E-03
    72 -2.293661177E-03
    73  9.828663636E-03
    74 -1.598527833E-02
    75  6.727161033E-03
    76 -2.292779399E-02
    77  3.515857645E-02
    78 -5.632721158E-02
    79  3.214680085E-02
    80 -2.070452774E-03
    81 -1.792548487E-03
    82  2.342284671E-03
    83 -2.059176494E-03
    84 -1.553198438E-03
    85 -3.844047019E-01
    86 -2.279597153E+00
    87  2.979426016E+00
    88 -1.065950182E+00
    89  4.832401974E-03
    90  7.689259700E-03
    91 -4.850844072E-03
    92 -2.484951476E-02
    93 -1.478440476E-02
    94 -1.929183771E-02
    95 -6.813834279E-03
    96 -2.144839574E-02
    97 -2.426977204E-02
    98 -1.029496527E-01
    99 -5.248598927E-02
   100 -2.321250996E-01
   101 -8.189721175E-04
   102  2.032344831E-03
   103  2.331805277E-03
   104  3.219514165E-03
   105  1.665639728E-03
   106  9.197815956E-04
   107 -1.083823407E+01
   108 -4.903701889E+00
   109 -7.987129358E+00
   110  1.495995365E-01
   111  2.966033082E-04
   112  4.505455566E-04
   113 -1.136576081E-03
   114  1.543683576E-03
   115  7.544840373E-03
   116 -4.326005263E-04
   117 -1.254521346E-03
   118  1.514654999E-03
   119  9.022618119E-03
   120 -2.235575753E-02
   121 -2.598068085E-02
   122  5.853505615E-02
   123  1.658931374E-01
   124  4.800814559E-04
   125  4.774821318E-04
   126 -1.803828645E-03
   127 -1.019443837E-04
   128  1.474378134E-03
   129 -7.725117680E-02
   130 -1.440922909E+00
   131  4.338008545E+00
   132  8.537035593E+00
   133 -8.910649645E-05
   134 -1.145528428E-04
   135 -7.431219542E-05
   136  2.822701211E-03
   137 -7.454175768E-04
   138 -8.303737569E-04
   139  1.957995624E-03
   140  1.312304603E-03
   141  4.437795858E-04
   142  2.029111102E-02
   143 -6.074776901E-03
   144  3.633284805E-02
   145 -1.564890779E-02
   146  1.051363368E-03
   147  1.351743467E-03
   148 -1.557266749E-03
   149  3.103028689E-04
   150  4.332788314E-04
   151  1.403075045E+00
   152 -4.255336152E-01
   153  1.255399057E+00
   154 -5.668866037E-01
   155  7.233099730E-04
   156  1.169418935E-03
   157 -6.789018036E-03
   158  7.527952024E-03
   159 -4.234142034E-03
   160 -2.873049462E-03
   161 -1.010449089E-02
   162  1.204751027E-02
   163 -5.739983982E-03
   164 -2.397109716E-02
   165 -4.754954091E-02
   166  4.132142606E-02
   167 -3.893962706E-02
   168 -1.482029305E-03
   169 -1.230731166E-03
   170  1.983234526E-03
   171  1.013355012E-03
   172 -1.835064946E-03
   173 -1.589196828E+00
   174  2.175057093E+00
   175 -3.162323625E+00
   176  7.956807567E-01
   177 -5.526245624E-03
   178 -8.812238398E-03
   179  9.683038360E-03
   180  8.589795258E-03
   181 -1.786877608E-02
   182  2.241083448E-02
   183  1.389590609E-02
   184 -2.195682283E-03
   185 -2.111868342E-02
   186  1.221952686E-01
   187  4.288117809E-02
   188  1.923829829E-01
   189 -6.131452246E-02
   190  1.190441898E-04
   191  2.110157489E-03
   192 -4.382944974E-04
   193 -2.230908561E-03
   194  5.572105281E-04
   195  1.533162181E+01
   196  4.750328029E+00
   197  7.382332477E+00
   198 -2.871044629E-01
   199  2.331907772E-05
   200  3.110015808E-05
   201 -2.450871983E-03
   202  4.627132465E-03
   203  1.411687837E-02
   204 -1.170616830E-05
   205 -4.029736606E-03
   206  6.941467227E-03
   207  2.184762845E-02
   208 -3.128489951E-03
   209 -9.340129941E-04
   210  4.350419092E-03
   211  1.682082813E-02
   212 -1.302119340E-03
   213 -5.476478515E-03
   214 -3.296543145E-03
   215  1.628839988E-03
   216 -1.459830893E-03
   217  3.278104852E-01
   218 -3.384033200E-01
   219  5.394955708E-01
   220  1.178171713E+00
   221  5.548131795E-03
   222  8.828572551E-03
   223 -1.960433852E-02
   224  5.883634416E-04
   225  1.312906695E-02
   226 -2.235655733E-02
   227 -1.533085794E-02
   228 -1.673969059E-03
   229  2.274616361E-02
   230 -1.258574670E-01
   231 -2.031665787E-01
   232 -2.054314750E-02
   233 -3.380021658E-02
   234  1.973218270E-03
   235 -2.638077065E-03
   236 -9.184222811E-04
   237 -3.007213793E-04
   238  1.394769981E-03
   239 -1.602779191E+01
   240 -8.002233190E+00
   241 -3.241487378E+00
   242 -1.828761057E+00
   243 -1.428469332E-03
   244 -2.363162912E-03
   245  3.227956626E-03
   246 -1.811798736E-03
   247 -1.509846091E-02
   248  7.655612887E-03
   249  4.020039836E-03
   250 -3.510775894E-03
   251 -2.345958647E-02
   252  1.643006735E-02
   253  2.223992280E-02
   254  1.421781101E-02
   255 -1.747274845E-02
   256 -1.570610948E-03
   257  4.400585356E-03
   258  4.453369771E-03
   259 -2.993566990E-03
   260  4.600682705E-04
   261 -5.661859547E-01
   262  3.038198723E-01
   263 -1.258654537E-01
   264 -1.386288067E+00
   265  3.554686610E-03
   266 -1.708546241E-03
   267  4.606772769E-01
   268 -1.575663766E-03
   269 -1.096222590E-04
   270  1.136045220E-03
   271  7.701403786E+00
   272 -5.125125013E-04
   273  3.336497179E-02
   274 -9.262224755E-01
   275 -1.586179146E-03
   276 -5.523366318E-03
   277 -4.994507813E-03
   278 -9.619152071E+00
   279  1.228613943E-04
   280 -5.084553824E-03
   281  5.544601213E-02
   282  4.405065596E-05
   283 -3.143179330E-04
   284 -3.833129368E-04
   285 -1.342611403E-02
   286 -3.677234474E-04
   287 -4.675224056E-03
   288  5.325540082E-02
   289  3.544770967E-04
   290 -4.130447607E-04
   291  3.628443622E-04
   292  2.271859476E-01
   293 -6.379902240E-04
   294  1.332068557E-04
   295 -1.953416010E-02
   296  1.164406630E-03
   297 -9.274698902E-04
   298  6.180969914E-04
   299 -1.502721170E-01
   300  2.021218463E-03
   301 -2.806058241E-02
   302  9.263040128E-01
   303  2.319024946E-03
   304  3.031414908E-03
   305  6.397513147E-03
   306  9.692059668E+00
   307 -4.794728035E-03
   308 -5.094806782E-03
   309 -4.551220992E-01
   310  5.392600499E-04
   311  1.622356141E-03
   312 -1.964457147E-03
   313 -7.765539347E+00
   314  4.154239434E-04
   315  6.852804041E-03
   316 -1.210524338E-01
   317 -1.074031302E-04
   318  4.053764996E-04
   319  7.180758043E-04
   320 -1.296208080E+00
   321 -1.234264446E-04
   322 -5.104830873E-03
   323  1.319725177E-01
   324  3.859462448E-04
   325 -8.854241638E-04
   326 -8.094105240E-04
   327  1.602861831E+00
   328 -4.633847098E-04
   329 -1.238628024E-03
   330 -9.518732722E-03
   331 -1.222736534E-03
   332  2.110758101E-03
   333 -1.044599634E-03
   334 -4.081103381E-01
   335 -1.121266903E-05
   336  3.956888734E-02
   337 -8.851804588E-01
   338 -4.770780919E-03
   339  2.466921623E-04
   340  4.448083989E-03
   341 -8.370221656E+00
   342  3.215105871E-03
   343  3.035149727E-03
   344  3.246516458E-01
   345 -3.650855314E-04
   346 -6.806960700E-04
   347 -7.993062177E-04
   348  6.368781253E+00
   349 -5.838464867E-03
   350  8.745324374E-03
   351 -2.586764780E-01
   352 -5.677176987E-03
   353 -1.922388982E-03
   354 -2.144951273E-03
   355 -4.260484951E+00
   356  5.152472586E-03
   357 -5.219864852E-03
   358  1.967633839E-01
   359  5.522898123E-03
   360  1.235619807E-03
   361 -2.996174375E-04
   362  3.654208990E+00
   363  6.853782171E-04
   364 -2.636345275E-03
   365  3.618237850E-02
   366  5.845660898E-04
   367 -1.676042546E-04
   368  8.443445602E-04
   369  6.635770802E-01
   370 -3.701187716E-03
   371 -8.497255372E-03
   372 -2.682144253E-01
   373  4.059003165E-04
   374 -7.721885565E-05
   375  1.162801220E-03
   376 -6.132274203E+00
   377  1.448037476E-03
   378 -3.617199139E-02
   379  9.111655961E-01
   380  3.507439400E-03
   381  8.079905472E-04
   382 -5.921549690E-03
   383  8.400659810E+00
   384 -6.455808180E-03
   385 -8.473819960E-04
   386 -2.305970027E-01
   387 -3.321825019E-03
   388 -3.970620925E-03
   389  2.778508006E-03
   390 -4.015663140E+00
   391  4.624558866E-03
   392 -1.677642433E-02
   393  2.478701260E-01
   394  3.032996210E-03
   395  5.908758907E-03
   396 -6.046581702E-04
   397  4.228588365E+00
   398  4.546661630E-04
   399  1.404533832E-03
   400  1.329362652E-02
   401  8.213890647E-04
   402 -2.839101748E-04
   403 -3.976387741E-04
   404 -2.882466939E-01
Ene=    9.4786336736E-02
Spin= Alpha
Occup=   0.0000000
     1 -1.802424555E-03
     2 -3.218352233E-03
     3 -6.109357815E-03
     4  3.892428731E-03
     5 -3.213081658E-03
     6  1.612317507E-02
     7 -1.115833018E-02
     8  5.112236883E-03
     9 -3.512675597E-03
    10 -3.361327154E-02
    11  4.856984979E-02
    12  7.616738121E-02
    13 -2.265097108E-02
    14 -5.469613850E-03
    15  2.358426515E-03
    16  1.127044600E-04
    17  6.811081095E-03
    18  4.200852083E-03
    19  8.479724887E+00
    20  8.010693538E+00
    21  1.720238600E+00
    22  1.703827570E+00
    23 -4.513847758E-03
    24 -7.556907157E-03
    25 -2.638170037E-02
    26 -4.005676771E-03
    27 -9.991465907E-03
    28  2.669541225E-02
    29 -4.426903383E-02
    30 -1.058739125E-03
    31 -1.506272794E-02
    32  3.190730389E-02
    33 -5.415560373E-02
    34 -9.449115975E-02
    35 -8.225704634E-02
    36  7.939542602E-03
    37 -4.301532823E-04
    38  2.706994316E-03
    39 -2.033460920E-03
    40  6.159184332E-03
    41  2.403575704E+00
    42 -9.498123545E-01
    43 -9.461562535E-02
    44 -3.299599413E+00
    45 -4.068322277E-03
    46 -7.072556096E-03
    47 -4.281910720E-03
    48  1.178895797E-02
    49 -4.197179280E-03
    50  2.995047690E-02
    51 -6.381855149E-03
    52  1.208882163E-02
    53 -4.347223805E-03
    54  3.222620720E-02
    55  1.273184392E-02
    56  7.622653100E-02
    57 -2.322422059E-02
    58 -2.441366155E-03
    59  5.781407660E-04
    60 -1.979316613E-03
    61 -4.083530975E-03
    62  7.423694550E-04
    63 -1.531126552E+01
    64  5.697173637E+00
    65 -3.577239032E+00
    66  1.998267175E+00
    67  4.542348860E-03
    68  7.254957472E-03
    69 -1.684622449E-02
    70 -3.126491072E-03
    71  6.875277721E-03
    72 -1.549867324E-02
    73 -2.801000451E-02
    74 -5.128017831E-03
    75  6.890882757E-03
    76 -2.279181464E-01
    77 -6.062664815E-02
    78 -7.619375255E-03
    79  8.118225878E-02
    80  3.041962137E-03
    81  7.960124701E-03
    82  7.811609234E-04
    83 -3.945159551E-03
    84 -5.170648388E-03
    85  5.220610008E+00
    86  1.443382140E-01
    87  1.505757694E+00
    88 -2.558132266E-01
    89 -9.650487938E-04
    90 -2.070318423E-03
    91 -6.463967878E-03
    92  4.363756726E-03
    93  1.313591161E-02
    94  1.876580922E-02
    95 -4.553217110E-03
    96 -4.486668771E-03
    97  1.772326239E-02
    98 -1.816725515E-01
    99 -1.623533772E-01
   100  1.052843901E-01
   101  1.491002106E-01
   102  4.338911018E-03
   103 -8.735504145E-03
   104  3.446903371E-03
   105 -2.115672604E-04
   106  2.919412361E-03
   107 -2.637930004E+01
   108 -2.199299040E+00
   109  3.335985019E+00
   110  6.687962552E+00
   111 -1.631145807E-02
   112 -2.662016335E-02
   113 -7.856200601E-03
   114 -7.850260708E-03
   115  6.502880151E-04
   116  7.248894134E-02
   117 -7.070934855E-03
   118 -6.967757868E-03
   119  2.024399721E-03
   120  5.718283022E-01
   121 -1.162963764E-01
   122 -1.415490982E-01
   123  2.243175436E-02
   124 -1.689819148E-03
   125  8.910617926E-04
   126 -1.671451377E-03
   127 -4.305978811E-04
   128 -2.454182179E-04
   129  4.125010003E+01
   130 -5.622891705E+00
   131 -9.768796796E+00
   132  3.054549114E+00
   133 -4.463220305E-03
   134 -7.326836702E-03
   135  1.812984634E-02
   136 -4.079479784E-03
   137  4.814021113E-03
   138  1.846934154E-02
   139  9.591924493E-03
   140  1.000374240E-02
   141  1.353725988E-03
   142  1.418553844E-01
   143  2.515957132E-01
   144 -8.899697868E-02
   145  4.128683669E-02
   146 -9.132683560E-04
   147  1.071144047E-03
   148 -2.425267318E-03
   149 -2.636946902E-03
   150 -3.672874081E-03
   151  3.899091062E+00
   152  7.093628168E+00
   153 -4.969685239E+00
   154  2.727173658E+00
   155  6.113498401E-03
   156  9.807847796E-03
   157 -1.188955654E-02
   158 -5.633226892E-03
   159 -1.016688898E-02
   160 -2.128395474E-02
   161 -2.060906442E-02
   162 -5.518444411E-03
   163 -1.058309211E-02
   164 -2.756919420E-01
   165 -4.147738020E-02
   166 -7.679931788E-02
   167 -1.287887925E-01
   168 -3.451264955E-04
   169 -5.349316143E-03
   170 -2.664004168E-03
   171  4.676273272E-04
   172 -7.497411457E-03
   173 -5.115370453E+00
   174 -7.215954418E-01
   175 -4.993173943E-01
   176 -2.352224378E+00
   177 -5.238843338E-04
   178 -1.115070950E-03
   179 -1.281717335E-03
   180  8.031899221E-05
   181 -1.605747542E-02
   182  9.386751705E-03
   183  1.402652588E-03
   184 -8.179633379E-03
   185 -1.447090639E-02
   186 -1.021780114E-01
   187 -1.168032696E-01
   188  4.387203934E-02
   189 -2.401186529E-01
   190  7.060164069E-03
   191  5.415441463E-05
   192  4.577466104E-03
   193 -3.345540367E-03
   194  4.669289932E-03
   195 -1.755964100E+01
   196  6.308254203E-01
   197  9.681264486E-01
   198 -7.057017520E+00
   199 -1.291788505E-02
   200 -2.141992946E-02
   201  2.343722013E-02
   202 -4.542878346E-03
   203  7.253215869E-03
   204  7.208592760E-02
   205  2.616032347E-02
   206 -1.176036865E-02
   207  1.001337899E-02
   208  1.094284696E-01
   209  2.364264377E-01
   210  8.286572336E-02
   211  3.413929249E-02
   212 -7.626330506E-03
   213  4.187396476E-03
   214 -2.838342855E-03
   215  4.853891832E-03
   216 -1.134559603E-04
   217 -9.575068675E+00
   218  2.933416089E+00
   219 -1.108097552E-01
   220  6.053351294E-01
   221 -2.934021311E-03
   222 -4.780064207E-03
   223 -2.983775818E-02
   224 -3.109387772E-03
   225  3.298133542E-03
   226  1.240264439E-02
   227 -4.564737506E-02
   228 -4.168224446E-04
   229  1.073282335E-03
   230  8.992664106E-02
   231 -1.107938523E-01
   232 -9.054130871E-02
   233  1.188191583E-01
   234  3.297274512E-03
   235 -7.933880574E-03
   236  4.263216995E-03
   237 -7.335333964E-04
   238  2.605025208E-03
   239  7.660914808E+00
   240 -2.945016116E+00
   241  6.762389940E-01
   242  3.317525555E+00
   243 -2.817581487E-03
   244 -4.715765110E-03
   245  7.811755385E-03
   246  1.205811028E-02
   247 -2.539957830E-03
   248  1.691171707E-02
   249  1.116471966E-02
   250  1.517788858E-02
   251 -3.428459258E-03
   252 -8.128396938E-03
   253  2.433518227E-02
   254  7.978049384E-02
   255 -1.563815216E-02
   256 -5.070655154E-03
   257  3.849117208E-03
   258 -3.585879976E-03
   259  3.913874747E-04
   260 -3.768171656E-03
   261 -2.412880970E+00
   262  1.697710401E+00
   263  5.454493076E-01
   264  3.424917003E-02
   265 -6.786482260E-03
   266 -2.416808706E-02
   267 -2.168134194E-01
   268  6.877486772E-03
   269 -4.372608663E-03
   270 -1.115605136E-04
   271 -3.535117948E+00
   272  9.601277256E-03
   273  3.011054519E-02
   274  2.574507493E-01
   275 -9.265155239E-04
   276 -1.212426008E-03
   277  3.972832599E-03
   278  3.527496676E+00
   279 -1.471815496E-03
   280 -3.943729426E-02
   281  4.140600105E-01
   282 -7.647262885E-04
   283  1.373693522E-03
   284 -3.202461769E-03
   285  1.711259499E+00
   286 -3.215034494E-03
   287 -4.311009891E-02
   288  3.899573592E-01
   289 -2.196284333E-03
   290  2.406963601E-03
   291  1.337543573E-03
   292  1.390856998E+00
   293 -7.727069634E-03
   294 -6.840382381E-03
   295 -2.101206397E-01
   296  6.649171860E-03
   297  6.559855547E-04
   298  2.485474735E-04
   299 -1.464767636E+00
   300  5.584243437E-03
   301 -7.591673636E-03
   302  1.030037953E-01
   303 -7.855071595E-03
   304 -1.611805104E-04
   305  4.519023219E-04
   306 -3.250720589E+00
   307 -3.045523377E-03
   308 -4.313622062E-02
   309  6.718219516E-01
   310 -4.196144416E-03
   311  1.038479187E-03
   312 -4.313520104E-04
   313  4.797953307E+00
   314  6.331091370E-05
   315 -4.408464424E-02
   316  9.172884564E-01
   317 -2.446228149E-03
   318  2.344775124E-03
   319 -1.580271721E-03
   320  1.084501680E+01
   321  3.624700356E-03
   322  2.723881237E-02
   323 -6.328117785E-01
   324  2.067066967E-03
   325  5.441592760E-04
   326 -8.968386133E-05
   327 -7.089831689E+00
   328 -7.590413625E-03
   329 -1.011476453E-02
   330 -1.585778489E-01
   331  5.384929612E-03
   332  5.456509606E-04
   333  1.353445710E-03
   334 -2.554946616E+00
   335  4.815201468E-03
   336 -2.792215404E-03
   337 -6.248756441E-03
   338 -7.098351760E-03
   339 -7.705517325E-04
   340 -3.848116381E-03
   341 -3.879598943E+00
   342 -1.995396709E-03
   343 -3.068534239E-02
   344  6.372277075E-01
   345 -4.074690319E-03
   346 -6.635842704E-04
   347 -1.944395504E-03
   348  5.404566705E+00
   349 -8.736751954E-03
   350 -6.733632896E-02
   351 -6.465197656E-02
   352  5.993295959E-03
   353 -2.708767197E-03
   354 -7.674928892E-03
   355  1.024567874E-01
   356 -8.152619694E-03
   357 -6.723076830E-02
   358 -3.482520569E-02
   359  2.557014980E-03
   360  2.137983924E-03
   361  9.761356263E-03
   362  3.851047689E-01
   363  5.244348663E-03
   364  7.829792382E-03
   365  8.141525904E-02
   366  1.788344561E-03
   367  5.338844436E-03
   368 -1.223834938E-03
   369 -9.223832441E-01
   370 -6.342896086E-03
   371 -1.338437299E-02
   372 -3.093482943E-01
   373  4.691995549E-03
   374 -2.924910984E-03
   375  4.718201991E-03
   376 -4.394447283E+00
   377  9.088737974E-03
   378  2.780545155E-02
   379  3.478567350E-01
   380  1.923023454E-03
   381 -3.142085603E-03
   382 -3.993585121E-03
   383  4.685557892E+00
   384 -4.853407053E-03
   385 -4.167943175E-03
   386 -2.033058360E-01
   387 -1.098996732E-03
   388 -8.312356129E-04
   389  3.947843194E-03
   390 -2.612856137E+00
   391 -4.544643208E-03
   392 -5.336883260E-03
   393 -1.894763227E-01
   394  8.208632519E-04
   395 -2.273623114E-03
   396 -2.979288564E-03
   397 -2.125300634E+00
   398  7.188082447E-03
   399 -1.377487315E-02
   400  2.557569488E-01
   401  1.756175019E-04
   402  6.054425284E-03
   403 -1.729086772E-03
   404  4.753428938E+00
Ene=    9.4876025290E-02
Spin= Alpha
Occup=   0.0000000
     1  1.692069819E-02
     2  2.768971695E-02
     3  1.084461901E-02
     4  4.807540605E-03
     5  4.929751273E-04
     6 -7.768260794E-02
     7  1.096002118E-02
     8  3.276174516E-03
     9  3.081339670E-04
    10 -5.604159658E-01
    11  1.674222029E-01
    12  6.609754841E-02
    13  5.940482842E-03
    14  2.744868613E-03
    15 -1.158027907E-03
    16  8.601786383E-04
    17 -1.272242328E-03
    18  2.601061956E-04
    19 -4.285563037E+01
    20  9.997219523E+00
    21  2.683984304E+00
    22  5.676341666E-01
    23  1.026338017E-03
    24  2.145808359E-03
    25  7.885223439E-03
    26  9.814566156E-04
    27 -1.189412820E-02
    28 -1.796442319E-02
    29  1.774824102E-02
    30 -3.086435524E-03
    31 -9.311938102E-03
    32  1.664773735E-01
    33  4.294234459E-02
    34  9.854816255E-02
    35 -2.158610640E-01
    36 -8.439303164E-03
    37  5.063086588E-03
    38 -1.446352883E-03
    39 -4.410437727E-03
    40 -3.915153412E-03
    41  2.280603214E+01
    42  7.581727899E-01
    43 -3.623009536E-01
    44 -6.604656893E+00
    45  4.933437707E-03
    46  8.553066044E-03
    47 -1.008299496E-02
    48  5.429734456E-03
    49 -3.891855822E-03
    50 -3.558098394E-02
    51 -9.823948483E-03
    52  7.208053976E-03
    53 -4.230062149E-03
    54 -4.509429398E-02
    55 -7.911368972E-02
    56 -5.247862143E-03
    57 -1.633564021E-02
    58  2.847668950E-03
    59 -2.683635572E-03
    60  9.601084745E-04
    61 -3.199847722E-03
    62  1.295776189E-03
    63  1.941946710E+01
    64  8.253157437E-01
    65 -6.336531336E+00
    66  1.998813366E+00
    67 -5.523236957E-03
    68 -8.834477426E-03
    69  1.348055175E-02
    70  9.697438309E-03
    71 -1.060207041E-02
    72  1.894706497E-02
    73  2.006005445E-02
    74  1.700005950E-02
    75 -1.236210825E-02
    76  2.652687347E-01
    77  8.333107789E-02
    78  1.839876796E-02
    79 -1.058474704E-01
    80 -4.578533671E-04
    81 -6.028989603E-03
    82 -4.386781585E-03
    83  4.737197300E-03
    84  7.317969647E-03
    85 -2.376515027E+00
    86 -9.003693992E-01
    87  6.252578441E-01
    88 -1.320213491E+00
    89  4.781711456E-03
    90  7.960004226E-03
    91  9.961571556E-03
    92  2.410206621E-02
    93 -2.494142549E-03
    94 -2.684746236E-02
    95  1.082430660E-02
    96  4.267842887E-02
    97 -7.959180223E-03
    98 -4.893011945E-02
    99  1.024987838E-01
   100  4.110038717E-02
   101  8.419255747E-02
   102 -3.735185039E-03
   103  3.879277536E-03
   104 -9.148301641E-03
   105 -2.247593591E-03
   106 -2.087039179E-03
   107 -1.758633032E+00
   108 -8.101860639E-01
   109  1.536738170E+00
   110  1.735334807E+00
   111  3.849148259E-03
   112  6.557220281E-03
   113 -9.666703538E-04
   114  8.522831359E-03
   115 -1.704743228E-03
   116 -2.519523268E-02
   117 -3.034581765E-04
   118  1.332951644E-02
   119 -3.121207956E-03
   120 -4.402087934E-02
   121 -7.897680698E-02
   122 -4.019724655E-03
   123 -1.281542353E-03
   124  5.811483724E-03
   125  6.778745002E-04
   126  2.316682757E-03
   127  3.745842397E-03
   128 -6.939429802E-03
   129 -1.455082252E+01
   130 -3.708789311E+00
   131 -6.222196371E+00
   132  1.494994158E+00
   133  5.261433818E-03
   134  8.644892961E-03
   135 -2.986936865E-03
   136 -1.787518031E-02
   137  4.605651924E-03
   138 -2.233037837E-02
   139 -1.201383274E-02
   140 -8.803966351E-03
   141 -8.796521875E-04
   142 -1.583077249E-01
   143 -2.532131623E-02
   144 -2.341590725E-01
   145  7.696891782E-02
   146  1.312254630E-03
   147 -1.853675820E-03
   148  1.725493242E-03
   149 -5.315515719E-07
   150  5.071976333E-03
   151 -3.481905109E+00
   152  1.997501580E+00
   153 -7.229428533E+00
   154  2.641479986E+00
   155 -6.069682670E-03
   156 -9.707726891E-03
   157  6.785689690E-03
   158  1.701669189E-02
   159  7.515774640E-03
   160  2.048958397E-02
   161  1.030212049E-02
   162  2.669665879E-02
   163  5.487046103E-03
   164  2.865819577E-01
   165  4.224804887E-02
   166  8.790746999E-02
   167  1.235538458E-01
   168 -3.378031203E-03
   169  3.381953897E-03
   170  7.822989964E-03
   171 -4.666168991E-04
   172  6.460465473E-03
   173  1.521822433E+00
   174 -7.375377983E-02
   175  6.187878804E-01
   176  1.541261556E+00
   177  3.140790349E-03
   178  5.229632045E-03
   179  1.467020364E-02
   180  2.473351016E-02
   181 -1.129669271E-02
   182 -1.663399118E-02
   183  1.751646364E-02
   184  4.046384656E-02
   185 -1.696460835E-02
   186 -5.479665437E-02
   187  1.681712844E-01
   188  3.854623366E-02
   189 -6.598974163E-02
   190 -8.504432049E-03
   191  2.944368904E-03
   192 -1.683965917E-03
   193 -4.829731433E-03
   194 -4.194281370E-03
   195 -3.646159388E+00
   196  2.075621324E+00
   197  1.300974185E+00
   198 -3.151868392E+00
   199  4.563763394E-03
   200  7.614605629E-03
   201 -1.749712589E-02
   202 -2.374789528E-03
   203 -7.816628252E-04
   204 -2.678792232E-02
   205 -2.232093172E-02
   206 -2.303130908E-03
   207 -7.027318544E-05
   208 -2.186512322E-03
   209 -1.146900367E-01
   210 -1.561959333E-02
   211 -2.197554672E-02
   212  5.930925501E-03
   213 -4.066756746E-03
   214  4.157365154E-03
   215  2.270760860E-03
   216  2.680564281E-03
   217  4.164850838E+00
   218 -1.530873845E+00
   219 -1.308980208E+00
   220  3.125699727E-01
   221  1.870981821E-03
   222  3.415318200E-03
   223 -3.103132971E-03
   224  8.774118202E-03
   225  1.445117915E-02
   226 -1.892413701E-02
   227  6.728477234E-03
   228  3.292663324E-03
   229  2.067965483E-02
   230  1.198084182E-01
   231 -9.190455140E-02
   232  2.210746491E-01
   233  1.212903488E-01
   234 -4.839273429E-03
   235  1.134034469E-03
   236 -9.863105176E-03
   237 -1.889455197E-03
   238 -2.041682224E-03
   239  2.025943169E+01
   240 -3.866078454E+00
   241  2.502879523E+00
   242  5.511666965E+00
   243  1.343528246E-02
   244  2.226054836E-02
   245 -2.062466332E-03
   246 -2.678823657E-02
   247  4.907569737E-03
   248 -7.408296899E-02
   249  4.501658512E-03
   250 -3.245950086E-02
   251  6.509213842E-03
   252 -1.259161463E-01
   253 -1.485672552E-01
   254 -2.128855684E-01
   255  2.520849917E-02
   256  8.201092780E-03
   257 -1.405631537E-03
   258  6.096275512E-03
   259  4.146553349E-03
   260 -2.025988333E-03
   261  9.184300021E+00
   262 -8.348681006E-01
   263 -2.860014946E+00
   264  4.245233810E-01
   265  4.366480099E-03
   266  4.158127340E-02
   267 -5.467065868E-01
   268 -2.588989258E-04
   269  4.354614787E-03
   270 -2.097239471E-03
   271 -3.914812489E+00
   272 -6.285476665E-03
   273  6.307793583E-03
   274 -1.551538570E-01
   275  3.353781302E-03
   276  6.144746514E-03
   277 -4.501274000E-03
   278  1.875373357E+00
   279  2.305806912E-03
   280  4.806248293E-02
   281 -4.907405292E-01
   282 -2.138152833E-03
   283  2.677973513E-03
   284  1.999955188E-03
   285 -1.723641782E+00
   286  2.953379160E-03
   287  5.019903140E-02
   288 -4.917272469E-01
   289 -5.316898852E-04
   290  9.624565826E-04
   291 -3.565946552E-03
   292 -1.704650513E+00
   293  8.846210359E-03
   294  1.002963532E-02
   295  2.256685182E-01
   296 -3.326296425E-03
   297 -5.694062868E-03
   298  1.784657304E-03
   299  2.109943762E+00
   300 -1.011489630E-02
   301 -3.095013189E-02
   302 -2.322596328E-01
   303  3.964364075E-03
   304 -1.399558967E-03
   305 -2.494915560E-03
   306 -2.527399759E+00
   307  6.649843896E-03
   308  2.635068663E-02
   309  9.574428473E-02
   310  1.957329576E-03
   311 -6.038734293E-03
   312  4.785484315E-03
   313  2.483419200E+00
   314 -3.748366535E-03
   315 -2.059846130E-02
   316  4.775653762E-01
   317 -1.098337737E-03
   318 -1.860795188E-03
   319  6.593984912E-04
   320  5.673905139E+00
   321 -3.836286441E-04
   322  4.292935449E-02
   323 -8.550165713E-01
   324 -1.845776466E-03
   325  2.932574960E-03
   326 -1.365135941E-03
   327 -9.841418083E+00
   328  8.809847628E-03
   329  1.170450548E-02
   330  2.003302276E-01
   331 -2.990861924E-03
   332 -5.569629762E-03
   333  2.007526200E-04
   334  2.531349355E+00
   335 -9.820787976E-03
   336 -2.616897872E-02
   337 -3.855583004E-01
   338  1.172417604E-03
   339  5.127865576E-04
   340  5.856492694E-03
   341 -4.935228140E+00
   342  7.612945778E-03
   343  2.218363021E-02
   344  2.668199671E-01
   345  2.859090756E-03
   346 -7.115859068E-03
   347 -2.186632760E-05
   348  4.006518825E+00
   349  4.881248338E-03
   350  1.446838352E-02
   351  1.811059827E-01
   352 -7.727162240E-04
   353  6.147628318E-04
   354  4.505113521E-03
   355  1.773119757E+00
   356  6.543088930E-03
   357  1.203149274E-02
   358  2.404846436E-01
   359  2.868241890E-03
   360 -1.255006394E-03
   361 -4.395696695E-03
   362  2.885954989E+00
   363 -7.985333495E-03
   364  1.287811294E-02
   365 -2.715032411E-01
   366 -6.026273672E-03
   367  7.381790410E-04
   368 -1.271051125E-03
   369 -4.598857740E+00
   370  2.679355388E-03
   371  3.867277304E-02
   372 -6.911406915E-01
   373  7.748753764E-05
   374  4.997182646E-03
   375 -2.755709872E-04
   376 -5.425375770E+00
   377 -6.139399689E-03
   378  1.077554236E-03
   379 -2.565888050E-03
   380  2.374640690E-03
   381  8.304211335E-03
   382  3.860474655E-04
   383  4.104309053E+00
   384  8.219578216E-03
   385  6.939280184E-02
   386  4.398655235E-02
   387  7.642729859E-04
   388 -7.355182814E-03
   389 -7.814711201E-03
   390 -4.396287048E-01
   391  9.976446056E-03
   392  6.860566688E-02
   393  9.722402242E-02
   394 -2.380404639E-03
   395 -9.053838088E-04
   396  1.021259541E-02
   397  5.732405649E-01
   398 -5.882900825E-03
   399 -4.623839727E-03
   400 -1.254857269E-01
   401 -5.801264141E-03
   402 -1.211732373E-03
   403 -1.267784020E-03
   404  3.722137643E-01
Ene=    1.0579388614E-01
Spin= Alpha
Occup=   0.0000000
     1 -2.197164438E-03
     2 -3.514019514E-03
     3  1.274472791E-04
     4 -1.250518818E-02
     5  2.126561666E-03
     6  6.053404023E-03
     7  3.478299910E-03
     8 -3.323138604E-03
     9  7.370659909E-03
    10  6.992484299E-02
    11  5.632282261E-02
    12 -2.991643844E-01
    13  1.624194044E-01
    14 -6.562358630E-03
    15 -4.368209792E-03
    16  3.622355757E-04
    17 -2.702804287E-03
    18 -2.059800595E-03
    19  4.701457945E+00
    20 -1.950488459E-01
    21 -1.085741259E+01
    22  1.093005317E+01
    23 -3.397961339E-04
    24 -1.405917468E-03
    25 -5.456383421E-03
    26  2.221091575E-02
    27  7.345501195E-03
    28  3.371711091E-02
    29 -5.664676237E-03
    30  2.992117973E-02
    31  1.066083680E-02
    32 -4.734421503E-01
    33 -2.469149762E-01
    34  3.091963743E-01
    35  2.960148401E-02
    36  1.271981445E-03
    37 -6.007556249E-03
    38  1.344764660E-03
    39 -7.797475559E-03
    40  2.680029884E-04
    41 -2.679189512E+01
    42 -3.208090111E+00
    43  5.010920860E+00
    44  2.830809122E+00
    45 -8.287996269E-04
    46 -2.312974585E-03
    47  1.747617391E-02
    48  7.071486598E-03
    49 -1.227106225E-02
    50  4.037657224E-02
    51  2.147057280E-02
    52  1.004539247E-02
    53 -1.279438489E-02
    54 -5.833773802E-01
    55  3.497205010E-01
    56  1.879603643E-01
    57 -1.502396650E-01
    58 -5.471345912E-03
    59  1.041742743E-02
    60  3.060484481E-03
    61 -3.316317869E-03
    62  1.582944751E-03
    63 -1.390464048E+01
    64  4.955628448E+00
    65  1.305814961E+00
    66 -3.879682499E+00
    67 -1.042062137E-02
    68 -1.659602384E-02
    69  1.344842917E-03
    70 -4.570208604E-03
    71 -1.217282822E-02
    72  3.235328902E-02
    73  1.452931006E-03
    74 -3.247792315E-03
    75 -9.763954200E-03
    76  5.343086837E-01
    77  1.961594664E-01
    78  8.441000400E-02
    79 -1.350123179E-01
    80  6.218215557E-03
    81 -7.087301536E-03
    82 -1.065741946E-03
    83  1.398630023E-03
    84 -3.236379644E-03
    85  2.654236506E+01
    86  5.031370055E+00
    87  2.332093730E+00
    88 -2.362468326E+00
    89 -4.283956864E-04
    90 -1.535982340E-03
    91  1.428053518E-02
    92 -4.367479672E-03
    93  1.939441221E-02
    94  3.350511596E-02
    95  1.972503907E-02
    96 -4.458275655E-03
    97  2.602854288E-02
    98 -4.654314004E-01
    99  1.687196452E-01
   100 -2.360822802E-01
   101  2.732831160E-01
   102  5.120242915E-03
   103  1.814223207E-03
   104  6.266628414E-04
   105  8.110170137E-03
   106 -1.919543636E-03
   107 -2.753100207E+01
   108  2.362156449E+00
   109 -1.905541124E+00
   110  6.042050039E+00
   111 -1.926558896E-03
   112 -3.089138542E-03
   113 -1.102039684E-02
   114  2.755069964E-03
   115 -4.469336419E-03
   116  5.625575306E-03
   117 -4.346205588E-03
   118  6.741137488E-03
   119  3.270718068E-03
   120  5.301079350E-02
   121 -2.904172724E-01
   122  1.735842318E-01
   123 -5.066884585E-02
   124  7.404879122E-04
   125  3.535490455E-03
   126 -6.550547141E-03
   127  3.787108285E-03
   128  8.028189535E-04
   129  3.507358746E+00
   130 -1.397463377E+01
   131  6.579389961E+00
   132  2.967136552E+00
   133  7.820673735E-03
   134  1.384381292E-02
   135  1.535269578E-02
   136  8.667367372E-03
   137 -6.487335657E-03
   138 -7.145562726E-02
   139  2.367528720E-02
   140  1.905282639E-02
   141  4.007572486E-03
   142  3.220829803E-01
   143  1.795862814E-01
   144  1.822164918E-02
   145 -2.675596666E-01
   146 -6.784987655E-03
   147  6.564792731E-03
   148  4.129913955E-03
   149  1.491082187E-04
   150  1.047573940E-02
   151  1.862713215E+01
   152  3.051028433E+00
   153  1.301492439E+00
   154 -2.804733347E+00
   155  2.073197549E-02
   156  3.448211559E-02
   157  1.737571588E-02
   158  2.572117562E-02
   159  2.888642328E-02
   160 -1.114862947E-01
   161  3.877305309E-02
   162  6.086168092E-02
   163  7.136514395E-02
   164 -1.315361798E-01
   165 -2.551849107E-02
   166 -1.316769508E-01
   167 -2.447906559E-01
   168  3.974993740E-03
   169  6.193260025E-03
   170  1.079338686E-02
   171 -2.585766829E-03
   172  6.300447116E-03
   173 -5.216240520E+01
   174 -4.654061129E+00
   175 -1.150137068E+01
   176 -1.658127799E+01
   177  7.314782914E-03
   178  1.289511043E-02
   179 -1.659134965E-02
   180  1.278299952E-02
   181  2.248587793E-03
   182 -6.376640892E-02
   183 -1.667284779E-02
   184  2.698607386E-02
   185  4.486664508E-03
   186  1.904700560E-01
   187 -2.348635515E-01
   188  1.485252180E-02
   189  9.089918701E-03
   190 -2.442343562E-03
   191 -4.592232344E-03
   192  5.122835762E-03
   193 -5.636977412E-03
   194 -6.787332333E-03
   195  2.777606281E+01
   196 -1.931424189E+00
   197  1.995777387E+00
   198  4.008489761E+00
   199 -6.295151117E-04
   200 -8.495268716E-04
   201 -8.576114392E-03
   202  7.382323894E-03
   203 -1.809036759E-03
   204 -7.579783423E-03
   205 -9.771335728E-03
   206  8.651841306E-03
   207 -3.580865923E-03
   208  2.237170130E-01
   209 -1.427558864E-01
   210  4.932396016E-02
   211 -2.756926918E-02
   212 -4.407080809E-04
   213 -4.015764474E-03
   214 -1.300914079E-03
   215 -7.672265888E-04
   216  1.164911902E-03
   217  1.349339660E+01
   218 -2.335563834E+00
   219  6.385115899E-01
   220 -1.182831444E+00
   221  7.395965988E-03
   222  1.300633055E-02
   223  5.868019708E-03
   224 -1.494803283E-02
   225  1.406317833E-02
   226 -6.311157498E-02
   227  1.838623516E-02
   228 -1.593620118E-02
   229  2.264352155E-02
   230  1.769622576E-01
   231 -6.909536058E-02
   232 -2.035452493E-01
   233  1.006183288E-01
   234  7.828928412E-03
   235  6.097300003E-03
   236 -4.437312325E-03
   237  2.526392146E-03
   238 -2.860872767E-03
   239  2.838723215E+01
   240 -6.511693267E-01
   241 -2.887480366E-01
   242  4.822871748E+00
   243 -9.569155799E-04
   244 -1.397987221E-03
   245  3.251493286E-03
   246 -8.779465833E-03
   247  6.061038618E-03
   248 -5.126489175E-03
   249  3.247654819E-03
   250 -1.122234475E-02
   251  5.997650792E-03
   252  2.185143539E-01
   253  6.784997499E-03
   254 -1.311064207E-01
   255  6.012078631E-02
   256  4.505204115E-04
   257 -1.901026129E-03
   258 -1.704905532E-03
   259  3.810300280E-03
   260  5.673982250E-04
   261  1.364575413E+01
   262  2.290300732E-01
   263 -2.813370286E+00
   264  4.198444288E-01
   265 -1.155440531E-02
   266 -7.019474767E-02
   267 -9.707918624E-03
   268  4.455588505E-03
   269  3.517398312E-03
   270  3.317968092E-03
   271  2.258065644E-01
   272  5.129016523E-03
   273  1.829056930E-02
   274 -6.978514014E-03
   275 -8.408616023E-03
   276  5.436278527E-04
   277 -4.910911586E-03
   278 -1.224696083E+00
   279  9.325621159E-03
   280  1.669874066E-02
   281  1.225683583E-01
   282  6.795949372E-03
   283  2.127021728E-03
   284 -6.294914955E-03
   285  3.387757190E+00
   286 -1.610415311E-02
   287 -4.659983724E-02
   288 -5.896277747E-01
   289 -3.439063777E-03
   290  1.084757504E-03
   291  8.117588843E-03
   292 -4.777767385E+00
   293  9.717748922E-03
   294  2.716317213E-02
   295 -3.308402715E-02
   296  7.293763999E-04
   297  1.177248513E-03
   298  1.365896179E-03
   299  1.145845458E+00
   300  5.222345136E-03
   301  1.808209095E-02
   302 -5.596801400E-03
   303 -5.527988569E-04
   304 -9.731024503E-03
   305 -2.777841281E-04
   306 -1.282867682E+00
   307 -1.143020480E-02
   308 -7.196874587E-02
   309 -7.408115876E-03
   310  3.298390420E-03
   311  5.116228331E-03
   312  2.621954013E-03
   313  1.877258876E-01
   314  1.901381072E-04
   315  2.230391775E-02
   316 -3.687459634E-02
   317 -4.666784215E-03
   318 -3.791283961E-03
   319 -8.174474497E-03
   320  2.301263050E-01
   321  1.011583062E-04
   322  2.085487646E-02
   323 -7.827264721E-03
   324 -1.782513212E-03
   325 -7.657041057E-03
   326 -6.304714428E-03
   327  5.786354628E-01
   328  2.465421784E-03
   329  6.040951219E-02
   330 -3.834447696E-01
   331 -8.122675011E-03
   332 -1.144499871E-02
   333 -1.179115686E-02
   334 -1.134744844E+01
   335 -7.631315188E-04
   336  2.858345554E-02
   337 -4.512906472E-03
   338 -2.077262308E-05
   339 -3.194450839E-03
   340 -6.240798939E-03
   341  2.011590650E+00
   342  3.179580176E-03
   343  4.491356359E-02
   344 -4.085769325E-01
   345 -1.210250442E-03
   346 -6.907807865E-03
   347 -3.793657188E-03
   348 -2.672698280E+00
   349 -5.827633881E-03
   350 -2.818015119E-02
   351  6.207350671E-02
   352 -6.265569446E-04
   353  1.712058166E-03
   354 -3.607012147E-04
   355 -8.410942339E-01
   356  4.090399022E-03
   357 -1.091521017E-02
   358  2.427475287E-01
   359  2.593065215E-03
   360  1.554983938E-04
   361 -5.520560449E-04
   362  5.575825045E-01
   363  1.311585997E-03
   364 -6.664297918E-03
   365  1.246241019E-01
   366 -2.935917208E-04
   367 -2.133899108E-03
   368  1.577215109E-03
   369  2.828852471E-01
   370  3.283697663E-03
   371  4.893503967E-02
   372 -4.077646824E-01
   373 -5.036451120E-03
   374 -2.262970661E-03
   375 -6.126360755E-03
   376 -2.536164703E+00
   377 -7.981334637E-04
   378  2.857752848E-02
   379 -1.067738649E-02
   380 -4.778715835E-04
   381 -3.109315717E-03
   382 -6.053233717E-03
   383  1.851767030E+00
   384  3.903182576E-03
   385 -7.861578588E-03
   386  1.875349577E-01
   387  1.402061824E-03
   388  2.171545423E-03
   389 -1.242166817E-03
   390  6.939496109E-01
   391 -6.394459359E-03
   392 -2.700630307E-02
   393  4.530514223E-03
   394  1.254232861E-03
   395 -9.418998381E-04
   396  5.883334765E-04
   397 -8.588671279E-01
   398  1.476834295E-03
   399 -6.538875627E-03
   400  1.124631676E-01
   401 -2.423143600E-03
   402  6.029951321E-04
   403  4.681925436E-04
   404  3.257342184E-01
Ene=    1.0603427665E-01
Spin= Alpha
Occup=   0.0000000
     1 -3.195293051E-03
     2 -5.184497276E-03
     3 -1.724508756E-03
     4 -1.369401837E-02
     5  3.004518336E-03
     6  1.257634908E-02
     7  3.335561026E-03
     8 -7.679660695E-03
     9 -3.893469956E-03
    10  7.975598196E-02
    11  9.087588131E-02
    12 -3.766680455E-01
    13  4.767455063E-02
    14 -8.119625012E-05
    15  4.941056807E-03
    16 -5.004570299E-03
    17 -2.305931824E-03
    18  2.628073910E-03
    19  4.259784616E+00
    20  2.018582325E+00
    21 -1.768918302E+01
    22 -1.955574185E+00
    23  6.059225940E-03
    24  1.072073604E-02
    25  6.187672000E-03
    26 -1.684150480E-02
    27 -1.580327256E-04
    28 -5.354179617E-02
    29  1.946638175E-02
    30 -2.014401912E-02
    31 -1.021581982E-03
    32  1.524483750E-01
    33 -7.913774545E-02
    34 -1.814555651E-01
    35 -1.172368477E-02
    36 -1.267531164E-03
    37 -4.744105091E-03
    38  5.652894576E-03
    39  4.498616989E-04
    40 -8.489411386E-03
    41  2.350013587E+01
    42  1.005494718E+00
    43 -1.687873439E+00
    44 -3.571582259E+00
    45 -2.471490989E-03
    46 -5.024618119E-03
    47  1.454560921E-02
    48  1.725525806E-02
    49  1.183326716E-02
    50  4.926992069E-02
    51  1.870138053E-02
    52  2.166270848E-02
    53  1.293630967E-02
    54 -5.813002179E-01
    55  3.197711918E-01
    56  3.035616860E-01
    57  1.459456679E-01
    58 -7.052887304E-03
    59 -4.077592501E-03
    60 -9.870391220E-03
    61  2.784897278E-03
    62  4.519071152E-04
    63 -1.351373361E+01
    64  2.716186552E+00
    65  4.221221068E+00
    66  3.365697758E+00
    67  1.936597649E-02
    68  3.231081590E-02
    69  2.772453761E-02
    70  9.679503519E-03
    71 -2.734518730E-02
    72 -1.075451288E-01
    73  6.529217578E-02
    74  2.146512635E-02
    75 -6.805631303E-02
    76 -5.558935028E-02
    77 -1.106541900E-01
    78  1.905540137E-02
    79  2.406368836E-01
    80  4.751358572E-03
    81 -1.174402941E-02
    82 -2.989160412E-03
    83  4.441963372E-03
    84  3.811514058E-03
    85 -4.800087956E+01
    86 -1.154540038E+01
    87 -1.291632529E+00
    88  1.609373130E+01
    89  7.346262638E-03
    90  1.288749594E-02
    91 -1.113987127E-02
    92  7.292004038E-03
    93 -9.234896773E-03
    94 -6.146858064E-02
    95 -8.366023315E-03
    96  1.822663042E-02
    97 -1.564218656E-02
    98  1.460385066E-01
    99 -1.827690670E-01
   100 -4.681896651E-02
   101 -6.797657415E-02
   102  9.052913194E-03
   103  6.058877418E-04
   104 -7.133422627E-03
   105 -2.505939948E-03
   106 -8.919907338E-04
   107  2.245304629E+01
   108 -2.520308143E-01
   109 -7.944070686E-01
   110 -3.586934759E+00
   111 -4.648905080E-03
   112 -7.555516635E-03
   113 -1.440498996E-02
   114  2.779634035E-03
   115 -7.649912346E-04
   116  2.012596464E-02
   117 -5.866450923E-03
   118  4.108431074E-03
   119 -4.652558326E-03
   120  1.175872522E-01
   121 -3.015870424E-01
   122  1.507354762E-01
   123 -1.505174066E-01
   124 -6.864072621E-03
   125  1.691475501E-03
   126  3.781863468E-03
   127  1.038988047E-03
   128 -2.956676307E-03
   129  3.245013602E+00
   130 -1.201145749E+01
   131  3.107282431E+00
   132 -9.485594128E+00
   133  7.004935976E-03
   134  1.257576954E-02
   135  1.346727867E-02
   136  1.310384749E-02
   137  6.472608809E-03
   138 -6.964768875E-02
   139  2.735371743E-02
   140  2.039966422E-02
   141 -2.042362694E-03
   142  3.773643483E-01
   143  7.296400973E-02
   144  1.562035228E-01
   145  2.384752828E-01
   146 -7.383589796E-03
   147 -4.768664858E-03
   148 -4.989347744E-03
   149  5.134590690E-03
   150  9.939765216E-03
   151  2.077579962E+01
   152  2.570407820E+00
   153  2.776658637E+00
   154  2.610638694E+00
   155 -9.006944956E-03
   156 -1.422153386E-02
   157 -3.217465701E-03
   158  3.136539491E-03
   159  1.263180283E-02
   160  2.387813386E-02
   161 -7.882644916E-04
   162  4.375259945E-03
   163  1.340651961E-02
   164  5.485780371E-01
   165  1.358437101E-01
   166  1.596532878E-01
   167  9.752147433E-02
   168  7.258720764E-03
   169  2.613887085E-03
   170  7.225221838E-03
   171 -2.652324331E-03
   172 -2.231748533E-03
   173  2.085444024E+01
   174  2.830642795E+00
   175  3.596179868E+00
   176  5.579532876E-01
   177 -4.627816780E-04
   178 -1.423290798E-03
   179  1.867073538E-02
   180 -1.180012625E-02
   181 -7.800886305E-03
   182  2.857996847E-02
   183  2.453257139E-02
   184 -1.351639645E-02
   185 -1.126762262E-02
   186 -4.030120399E-01
   187  2.265991650E-01
   188 -3.233281224E-01
   189 -1.410871155E-02
   190  2.216595808E-03
   191  4.515885334E-04
   192  7.513061743E-03
   193  6.318369624E-03
   194 -4.689263922E-03
   195 -2.158689775E+01
   196  3.447494990E+00
   197 -3.681415192E+00
   198 -2.458541285E+00
   199 -1.672654215E-03
   200 -2.432947970E-03
   201 -5.355186278E-03
   202  5.485371039E-03
   203 -5.667780079E-03
   204 -6.112885052E-03
   205 -6.262037897E-03
   206  5.571993138E-03
   207 -4.720417372E-03
   208  2.936827601E-01
   209 -1.368847172E-01
   210  4.944788432E-02
   211 -7.207604370E-02
   212 -8.545898190E-04
   213  2.658674258E-03
   214  1.864392449E-03
   215 -2.337952642E-03
   216  2.041381516E-03
   217  1.577967900E+01
   218 -2.971912833E+00
   219  1.146288795E+00
   220 -9.658419032E-01
   221  1.555966884E-04
   222 -5.059565746E-04
   223 -8.746489519E-04
   224  1.451415008E-02
   225 -1.939624322E-02
   226  2.835961466E-02
   227  1.916851014E-03
   228  2.056163062E-02
   229 -2.596383905E-02
   230 -4.590720815E-01
   231 -2.012051315E-01
   232  2.175857208E-01
   233 -2.767628986E-01
   234  6.196091794E-03
   235 -9.790598443E-04
   236 -9.438720414E-04
   237 -8.011763008E-03
   238  2.570455586E-03
   239 -2.782584684E+01
   240 -1.475593113E+00
   241  3.127104359E+00
   242 -6.216962914E+00
   243 -9.925028862E-04
   244 -1.363859091E-03
   245  5.186714638E-03
   246 -8.602829656E-03
   247  2.888914868E-03
   248 -9.391219992E-03
   249  5.630970858E-03
   250 -8.290268489E-03
   251  4.237094291E-03
   252  2.813893328E-01
   253  1.339812555E-02
   254 -1.720363060E-01
   255  4.428267050E-02
   256 -1.476275966E-03
   257  2.023254798E-03
   258  2.871313225E-03
   259  1.740342244E-03
   260  5.216331334E-04
   261  1.661977214E+01
   262  1.606162905E-01
   263 -3.108036526E+00
   264  1.460052041E+00
   265  6.265589339E-04
   266  2.940655229E-02
   267 -3.972525665E-01
   268 -6.054198912E-03
   269  1.288756546E-03
   270  4.121466042E-03
   271 -2.477503297E+00
   272  2.801760835E-04
   273  2.646705864E-02
   274  3.368516893E-02
   275 -4.750807525E-03
   276  8.115422830E-05
   277  5.775394184E-03
   278  1.954708225E+00
   279 -1.609854138E-02
   280 -5.567522598E-02
   281 -5.448097838E-01
   282  1.361284807E-03
   283 -3.423716485E-03
   284 -9.663169165E-03
   285 -4.221753153E+00
   286  6.969430528E-03
   287  3.467524536E-03
   288  8.332656133E-02
   289  3.163393000E-03
   290  6.989501262E-03
   291  7.804048724E-03
   292  2.996833120E+00
   293  1.901386221E-03
   294  5.498197789E-02
   295 -3.947188940E-01
   296 -1.204740413E-02
   297 -4.764185237E-03
   298  1.162806084E-02
   299 -1.130731180E+01
   300 -3.698456548E-04
   301  2.810075797E-02
   302  3.970907092E-02
   303 -4.198092675E-03
   304 -1.031761054E-03
   305  6.405785641E-03
   306  1.706298644E+00
   307  1.543033154E-03
   308  3.141299154E-02
   309 -3.422315452E-01
   310 -3.956323917E-03
   311 -3.391971491E-03
   312  6.604990971E-03
   313 -2.562407218E+00
   314 -3.391061218E-04
   315  2.045916731E-02
   316 -1.858624492E-02
   317 -7.964798036E-03
   318 -2.267467936E-04
   319  5.139146679E-03
   320  9.606250241E-01
   321  1.487692987E-04
   322  2.175728583E-02
   323 -4.734070271E-02
   324 -5.281233724E-03
   325 -3.875395495E-03
   326  7.854428231E-03
   327  4.985577052E-01
   328  9.094156299E-03
   329  2.264484497E-02
   330 -3.715706561E-02
   331  1.013156457E-03
   332  5.881236840E-05
   333 -2.315032547E-03
   334 -3.083735491E-02
   335  4.756985849E-03
   336  2.082122678E-02
   337 -1.989892631E-02
   338 -2.593169218E-03
   339 -9.394720158E-03
   340  3.727745984E-03
   341 -9.920677803E-01
   342 -1.273955566E-02
   343 -7.477905496E-02
   344 -5.403276413E-02
   345  4.877120217E-03
   346  2.808119074E-03
   347 -4.002178667E-03
   348  2.175057202E-01
   349  3.354147954E-03
   350 -1.211580038E-02
   351  1.971436112E-01
   352  2.969289685E-03
   353  1.080135928E-03
   354  7.637695075E-04
   355  7.414425239E-01
   356 -7.664735123E-03
   357 -3.034003188E-02
   358 -1.557421796E-02
   359  2.858671249E-05
   360  1.001073141E-03
   361  3.385202836E-04
   362 -1.064170653E+00
   363  1.117694801E-03
   364 -8.352319434E-03
   365  1.159753557E-01
   366  4.587645133E-04
   367 -2.684145736E-03
   368 -1.081755011E-03
   369  4.379462264E-01
   370 -1.199319488E-02
   371 -7.412781648E-02
   372 -1.533877509E-02
   373  5.661315435E-03
   374  1.356140540E-03
   375 -3.103535760E-03
   376 -3.499636742E-01
   377  5.785389897E-03
   378  1.810319791E-02
   379  8.523304855E-02
   380 -9.837710744E-03
   381  1.312240255E-03
   382 -5.362425134E-04
   383 -1.047677090E+00
   384 -5.608905398E-03
   385 -3.139658614E-02
   386  9.783047036E-02
   387  2.213065757E-03
   388 -5.031597868E-04
   389  6.686273113E-04
   390 -7.566436830E-01
   391  2.532187665E-03
   392 -1.652319690E-02
   393  2.193124110E-01
   394  9.901702736E-04
   395  2.685100202E-03
   396 -1.632116335E-04
   397  3.389074642E-01
   398  2.388509218E-03
   399 -8.908914454E-03
   400  1.695934610E-01
   401 -2.649615539E-03
   402  6.356994897E-04
   403 -1.105027248E-03
   404  4.691395686E-01
Ene=    1.0777364655E-01
Spin= Alpha
Occup=   0.0000000
     1 -6.533309428E-04
     2 -1.075608869E-03
     3 -6.948556125E-03
     4  7.190344033E-03
     5  2.924581488E-02
     6  3.589841527E-03
     7 -8.741192485E-03
     8  9.995801514E-03
     9  3.774401322E-02
    10  9.518064128E-03
    11 -5.803543048E-02
    12  5.054319376E-02
    13  2.730221745E-01
    14  1.230411951E-03
    15  7.836068256E-03
    16  3.451198805E-03
    17 -2.867254484E-03
    18  1.531467667E-03
    19 -2.821848947E-01
    20 -2.570376999E+00
    21  2.106420725E+00
    22  1.070475710E+01
    23  8.745014333E-03
    24  1.421538096E-02
    25 -4.652488483E-03
    26  1.132114349E-02
    27  4.753291752E-04
    28 -3.874741492E-02
    29 -3.553483222E-03
    30  2.390524703E-02
    31  2.488698625E-03
    32 -2.767188787E-01
    33 -8.279608178E-02
    34 -1.479957278E-02
    35  3.322532636E-02
    36  4.971929377E-04
    37 -4.234271040E-03
    38 -1.034740607E-04
    39  7.732517185E-03
    40  3.737085211E-03
    41 -2.219279502E+01
    42 -4.610079421E+00
    43  2.209561027E+00
    44  2.039363921E+00
    45 -3.451443203E-04
    46 -5.933064226E-04
    47  1.577072428E-03
    48  8.219358422E-04
    49 -3.483193140E-04
    50  2.961537637E-03
    51  2.255120599E-03
    52  7.630660136E-04
    53 -1.671423518E-03
    54 -2.139351621E-02
    55  2.010814573E-02
    56  1.919017149E-02
    57  8.846517956E-03
    58 -7.093061172E-03
    59 -5.224698592E-03
    60  6.426162353E-03
    61 -6.548855518E-04
    62 -3.565243511E-03
    63  2.748663658E-01
    64 -4.252294637E-02
    65  1.859045734E-01
    66  3.798111246E-01
    67  9.532806451E-04
    68  1.611445073E-03
    69  7.098570018E-03
    70 -7.043882247E-03
    71  2.215704898E-03
    72 -6.237042502E-03
    73  1.731767213E-02
    74 -1.752401337E-02
    75  5.181457529E-03
    76  1.351959095E-02
    77 -5.078814803E-02
    78  6.859358710E-02
    79 -1.577687306E-02
    80 -2.328407968E-03
    81 -3.482549607E-05
    82  5.154390306E-03
    83  9.376160159E-03
    84 -4.092772057E-03
    85 -1.603561645E+00
    86 -2.983482832E+00
    87  3.211898648E+00
    88 -7.456307882E-01
    89 -8.053051392E-03
    90 -1.300098934E-02
    91 -8.496736574E-03
    92  5.488829028E-03
    93 -9.238385300E-03
    94  3.303526517E-02
    95 -1.883623965E-02
    96  6.468769483E-03
    97 -1.772551502E-02
    98  2.889372194E-01
    99  5.228118340E-02
   100  3.598684893E-02
   101 -5.694863868E-02
   102  1.076154210E-03
   103  6.825121687E-03
   104  1.271886732E-03
   105  9.220803166E-04
   106 -6.344973363E-03
   107  2.401224356E+01
   108  7.722428163E-01
   109  3.022003799E+00
   110 -4.693647838E+00
   111 -4.514040942E-04
   112 -7.378571775E-04
   113  5.737390140E-03
   114 -8.473422522E-03
   115 -2.952005766E-02
   116  2.309552309E-03
   117  8.070323521E-03
   118 -1.126591282E-02
   119 -3.897519424E-02
   120  1.017518106E-02
   121  4.377205798E-02
   122 -6.782041185E-02
   123 -2.804578335E-01
   124  6.554652917E-04
   125 -5.765749021E-03
   126 -6.506086334E-03
   127  3.222383087E-03
   128 -1.011574683E-04
   129 -7.585007384E-02
   130  1.732421093E+00
   131 -3.248974608E+00
   132 -1.182024919E+01
   133  7.320963131E-05
   134  1.778979822E-04
   135  9.018606762E-04
   136  8.373520526E-04
   137 -9.785739477E-05
   138 -2.224701956E-03
   139  1.814390828E-03
   140  1.428277009E-03
   141 -5.356662457E-04
   142  2.747685962E-02
   143  5.319082283E-03
   144  6.273064732E-03
   145  7.220334688E-03
   146 -3.214481889E-03
   147 -2.495740794E-03
   148  2.651390548E-03
   149 -1.119732792E-04
   150 -1.006687803E-03
   151  8.445598858E-01
   152  9.211672267E-02
   153  1.468721171E-01
   154  4.855833128E-02
   155 -4.275241789E-04
   156 -6.677666118E-04
   157 -5.860571993E-03
   158  7.440826765E-03
   159 -3.060944873E-03
   160  1.007619389E-03
   161 -1.422392209E-02
   162  1.843567077E-02
   163 -8.148654218E-03
   164  2.963597363E-02
   165  5.639428166E-02
   166 -5.473454495E-02
   167  3.009072820E-02
   168 -2.266919008E-03
   169 -5.331499289E-03
   170  1.290519835E-03
   171 -9.976038249E-03
   172  9.451689531E-04
   173  9.437029827E-01
   174  2.761294023E+00
   175 -3.220323666E+00
   176  1.506460769E+00
   177  8.269585112E-03
   178  1.337107298E-02
   179  1.150048310E-02
   180 -9.028496803E-03
   181 -1.696541408E-03
   182 -3.444316717E-02
   183  2.513900893E-02
   184 -1.225130822E-02
   185 -4.290475843E-03
   186 -2.949276925E-01
   187 -2.523371784E-02
   188 -9.060533570E-02
   189 -3.940569016E-02
   190  7.505054116E-04
   191  1.468502187E-03
   192  4.214985132E-03
   193 -4.003870765E-03
   194  7.190822878E-03
   195 -2.509653979E+01
   196  1.057737466E+00
   197 -5.377369218E+00
   198 -2.373754621E+00
   199 -3.747184760E-05
   200 -2.298426132E-05
   201 -3.662550003E-03
   202  5.128057661E-03
   203  1.586942560E-02
   204 -1.261668695E-03
   205 -3.123743122E-03
   206  5.023229342E-03
   207  1.519847348E-02
   208  2.258378237E-02
   209 -5.051534018E-02
   210  5.378431351E-02
   211  1.695494828E-01
   212  6.188220043E-03
   213 -2.364358253E-03
   214 -1.352040094E-02
   215  4.402981121E-03
   216  3.013338567E-03
   217  1.116226494E+00
   218 -9.704847567E-01
   219  1.096479207E+00
   220  3.307111127E+00
   221 -8.324032326E-03
   222 -1.350470913E-02
   223  3.044571702E-03
   224 -8.787864613E-03
   225  6.619949991E-03
   226  3.657723624E-02
   227  9.263505962E-04
   228 -1.896117231E-02
   229  1.378652936E-02
   230  2.597654018E-01
   231  4.530157300E-02
   232  5.405320176E-02
   233  3.567921244E-02
   234  7.840225297E-04
   235 -3.354113252E-03
   236 -6.019793316E-03
   237 -4.671732497E-03
   238 -4.483583400E-03
   239  2.187796513E+01
   240  2.976309014E+00
   241 -2.094141354E-01
   242  4.335355925E+00
   243 -2.112994672E-04
   244 -3.092069719E-04
   245  4.351470274E-03
   246 -4.794249031E-03
   247 -1.683434997E-02
   248 -5.981933798E-04
   249  4.337310153E-03
   250 -4.369424197E-03
   251 -1.661207129E-02
   252  3.049738856E-02
   253  4.239612666E-02
   254 -6.189174665E-02
   255 -1.706514497E-01
   256  6.485059259E-03
   257  1.372714417E-02
   258 -1.064529614E-03
   259 -2.728136926E-03
   260  4.689687065E-03
   261  1.019586826E+00
   262  7.829920652E-01
   263 -1.113245239E+00
   264 -3.207925787E+00
   265  6.565083840E-03
   266  1.982526164E-02
   267  1.702709745E-01
   268 -3.485655530E-03
   269 -5.998437328E-03
   270  3.262358293E-03
   271 -2.658631316E+00
   272  1.300537708E-03
   273  2.570085901E-03
   274  3.417245488E-01
   275  1.680446622E-03
   276 -4.715306017E-04
   277  7.341687677E-04
   278 -2.515693915E-01
   279 -1.168210739E-03
   280 -2.293108142E-03
   281 -5.666773138E-02
   282 -3.539868894E-03
   283  5.139382494E-03
   284 -2.981362392E-03
   285 -2.794197908E-01
   286  5.188582139E-05
   287 -2.743541282E-03
   288  8.993440704E-03
   289  4.073155380E-03
   290 -4.835119200E-03
   291  3.147477072E-03
   292  2.393581327E-01
   293  1.764421523E-04
   294  2.191778207E-03
   295 -3.030924126E-02
   296 -5.440238666E-03
   297  6.195464887E-03
   298 -2.227563033E-03
   299 -6.151994071E-01
   300 -1.064035684E-03
   301  6.703431033E-04
   302 -3.111250493E-01
   303 -6.630898465E-04
   304 -2.017912351E-03
   305  1.092093682E-03
   306  4.386609908E-01
   307 -6.886232876E-03
   308 -1.906020970E-02
   309 -2.041621693E-01
   310  7.286054450E-03
   311  2.714738843E-04
   312 -3.457218754E-05
   313  2.362416185E+00
   314 -1.742253042E-06
   315  4.335785223E-04
   316  3.312423494E-03
   317 -2.109012959E-03
   318  2.155547026E-03
   319  7.895387271E-03
   320  5.015246854E-02
   321  1.504595380E-05
   322 -4.632511430E-05
   323  8.248838934E-03
   324  1.454725225E-03
   325 -2.394979483E-03
   326 -7.180549290E-03
   327  1.302622544E-01
   328  1.539183522E-04
   329 -1.154320251E-04
   330 -2.149892348E-04
   331  5.025272490E-03
   332 -6.323942635E-03
   333  2.789759429E-03
   334 -9.083453717E-02
   335  1.634146111E-03
   336 -1.019138158E-04
   337  3.598398080E-01
   338 -8.919329622E-05
   339  1.402632661E-03
   340 -1.214944688E-04
   341 -2.769347017E-01
   342  5.860161914E-03
   343  1.379763855E-02
   344  1.865275809E-01
   345 -6.303712882E-03
   346 -1.217632235E-03
   347 -3.373283429E-03
   348 -2.607961050E+00
   349 -1.215965502E-02
   350 -2.794239103E-02
   351 -3.490077085E-01
   352  2.875846728E-04
   353 -9.151566258E-03
   354  4.212246294E-04
   355 -2.631348785E+00
   356  1.159879671E-02
   357  2.465225115E-02
   358  3.600871616E-01
   359  9.463112384E-04
   360  8.395133346E-03
   361 -4.119936081E-03
   362  2.553400031E+00
   363  2.897824030E-04
   364  1.951404383E-04
   365  8.494756753E-03
   366 -2.804470320E-03
   367  3.256199229E-03
   368  1.236890528E-02
   369  6.762565568E-02
   370 -7.669701147E-03
   371 -2.284463095E-02
   372 -2.054341502E-01
   373  2.673388930E-03
   374  7.057977443E-03
   375  1.362774503E-04
   376  2.530827117E+00
   377 -9.914838272E-04
   378 -5.159734882E-05
   379 -3.336494373E-01
   380 -2.756747543E-03
   381  2.089066044E-05
   382 -9.073728125E-04
   383  2.892931958E-01
   384 -1.256307155E-02
   385 -2.912725985E-02
   386 -3.541991687E-01
   387 -8.924033463E-03
   388  2.706229833E-03
   389 -4.053450524E-04
   390 -2.591496050E+00
   391  1.205911671E-02
   392  2.380048452E-02
   393  3.785717244E-01
   394  8.256884422E-03
   395 -1.169796040E-03
   396  4.333939402E-03
   397  2.565480775E+00
   398  1.548027321E-04
   399 -1.062134079E-03
   400  1.509968973E-02
   401  2.668577213E-03
   402 -3.441455842E-03
   403 -1.243585138E-02
   404  4.366887017E-03
Ene=    1.1664919643E-01
Spin= Alpha
Occup=   0.0000000
     1  8.212082291E-06
     2  2.640514566E-05
     3  4.050515198E-03
     4 -5.926608819E-03
     5 -1.966996415E-02
     6 -4.398189351E-04
     7  7.566940025E-03
     8 -1.089124011E-02
     9 -3.612543033E-02
    10  3.327980104E-03
    11  1.873562175E-02
    12 -3.036565278E-02
    13 -1.082242150E-01
    14 -3.102782800E-03
    15 -1.214126880E-02
    16 -5.026907008E-03
    17  4.113849122E-03
    18 -2.662449127E-03
    19 -3.726873736E-01
    20  1.461884160E+00
    21 -2.243725652E+00
    22 -9.135459102E+00
    23  5.235807616E-04
    24  9.957277013E-04
    25  1.055914737E-03
    26 -6.481760783E-03
    27 -4.482379789E-02
    28 -5.703512270E-03
    29 -5.965104451E-03
    30 -1.672762316E-02
    31 -7.692202583E-02
    32  1.022828022E-01
    33  4.689950755E-02
    34  4.474379065E-02
    35 -1.705197551E-01
    36 -1.939432245E-03
    37  2.040533332E-03
    38  3.792489874E-03
    39 -5.881121384E-03
    40 -3.190113034E-03
    41  1.492172407E+00
    42  1.481361742E+00
    43  3.475182515E+00
    44  2.955768396E+00
    45  8.318373244E-05
    46  1.827008829E-04
    47  1.141327558E-02
    48 -1.577016244E-02
    49 -5.423779228E-02
    50 -1.490194281E-03
    51  2.446034994E-02
    52 -3.338543433E-02
    53 -1.154389448E-01
    54  1.066588106E-02
    55 -3.692367171E-04
    56 -7.500416338E-03
    57 -5.845004636E-03
    58 -4.606369395E-05
    59  5.888934409E-03
    60  4.172433167E-03
    61 -2.644273993E-03
    62  9.140988979E-04
    63  3.528569544E+00
    64 -2.417047261E+00
    65  2.010549495E+00
    66  9.341471653E+00
    67 -5.432989741E-03
    68 -8.580072059E-03
    69  1.179038289E-02
    70 -2.467628360E-03
    71 -2.541647324E-02
    72  1.268651150E-02
    73  2.239314640E-02
    74 -6.029782625E-03
    75 -4.995358463E-02
    76  4.177279484E-01
    77  4.459243819E-02
    78  2.478407490E-02
    79 -2.914917748E-02
    80  5.013836616E-03
    81 -1.151677182E-02
    82 -5.360834301E-03
    83  3.573181488E-03
    84 -2.901646943E-03
    85  1.285227110E+01
    86 -1.329879233E+00
    87 -2.195050252E+00
    88 -2.922059791E+00
    89  9.401347360E-04
    90  1.702082922E-03
    91  1.241020043E-02
    92 -2.118057388E-02
    93 -3.784621295E-02
    94 -8.449395427E-03
    95  1.289768950E-02
    96 -4.207304234E-02
    97 -6.490388338E-02
    98  9.901598567E-02
    99  1.266796718E-01
   100 -5.331203901E-02
   101 -1.277370715E-01
   102  2.564574328E-03
   103  6.931869111E-03
   104  1.005950283E-04
   105  6.934867831E-04
   106 -2.134639458E-03
   107  2.747883867E+00
   108  2.257948670E+00
   109  2.462094205E+00
   110  3.191758311E+00
   111 -2.956949179E-04
   112 -4.731795298E-04
   113  3.870583468E-03
   114 -5.749297520E-03
   115 -1.887974841E-02
   116  1.491803885E-03
   117  6.964401298E-03
   118 -1.037058083E-02
   119 -3.493668506E-02
   120  3.635339108E-03
   121  2.451321031E-02
   122 -3.620455391E-02
   123 -1.061035976E-01
   124  2.121046832E-03
   125 -7.436592179E-03
   126 -1.057891713E-02
   127  4.794995574E-03
   128  2.460515906E-04
   129 -1.478425448E+00
   130  2.160733845E+00
   131 -3.409971167E+00
   132 -8.698214684E+00
   133 -6.607227810E-04
   134 -1.123505158E-03
   135  6.438651379E-03
   136 -8.551827963E-03
   137 -2.969951767E-02
   138  4.420618383E-03
   139  9.393166856E-03
   140 -1.256934729E-02
   141 -4.343541537E-02
   142 -4.615025681E-04
   143  2.748953746E-02
   144 -4.005863590E-02
   145 -1.389831317E-01
   146  5.669437849E-05
   147  8.592652345E-03
   148  6.264047771E-03
   149 -3.723598428E-03
   150  9.126718828E-04
   151 -2.959148493E-01
   152  9.398565509E-01
   153 -1.027288124E+00
   154 -3.803037739E+00
   155  5.469525292E-03
   156  8.650652660E-03
   157  1.316126058E-03
   158 -1.138159208E-02
   159 -2.633110684E-02
   160 -1.319092745E-02
   161  1.629183825E-03
   162 -2.203758064E-02
   163 -5.097717120E-02
   164 -4.164988313E-01
   165 -1.030319847E-02
   166 -2.999823886E-02
   167 -3.075189209E-02
   168 -4.759709406E-03
   169 -8.551118562E-03
   170 -9.723234944E-03
   171  5.198708389E-03
   172  8.385864467E-04
   173 -9.992115236E+00
   174  3.016700553E+00
   175  8.683460245E-01
   176 -2.550514154E+00
   177  2.378329796E-04
   178  2.594754138E-04
   179  5.674325740E-03
   180 -2.251671236E-03
   181 -4.411251519E-02
   182  2.041247356E-03
   183  1.736257432E-02
   184  1.867378491E-03
   185 -7.546154688E-02
   186 -1.158747270E-01
   187 -4.656342581E-02
   188 -3.517514671E-02
   189 -1.658873629E-01
   190  2.488679400E-03
   191  4.370390996E-03
   192  1.051653408E-03
   193 -3.583000837E-03
   194  5.078807153E-03
   195 -4.060327567E+00
   196 -3.090077691E+00
   197 -9.012822914E-01
   198  2.632309806E+00
   199  4.846326294E-04
   200  8.091878802E-04
   201  7.967337189E-03
   202 -1.057946452E-02
   203 -3.937326116E-02
   204 -2.691776008E-03
   205  1.488620827E-02
   206 -1.871115519E-02
   207 -6.996099907E-02
   208 -3.593182392E-03
   209  4.025723323E-04
   210 -9.290892346E-03
   211 -3.340455371E-02
   212  1.986441647E-03
   213  1.046390811E-03
   214 -2.813199896E-03
   215  7.050535173E-04
   216  1.291084576E-03
   217 -3.985044665E-01
   218 -4.985421513E-01
   219  8.771843571E-01
   220  3.103762385E+00
   221  2.431118176E-04
   222  2.434402265E-04
   223  1.685781660E-02
   224 -1.715598791E-02
   225 -3.760063896E-02
   226  2.719608733E-03
   227  3.685019483E-02
   228 -2.371454429E-02
   229 -6.450200417E-02
   230 -1.267125436E-01
   231  1.180413491E-02
   232 -1.252493974E-01
   233 -1.271454069E-01
   234 -2.126790539E-03
   235  2.401289716E-03
   236  7.369012934E-03
   237  1.514851702E-03
   238  1.122266617E-03
   239 -3.240923894E+00
   240 -2.975964060E+00
   241 -1.440947680E+00
   242  3.005128589E+00
   243  3.705857288E-04
   244  6.006845914E-04
   245  8.719597632E-03
   246 -1.180087930E-02
   247 -3.857966810E-02
   248 -1.382857229E-03
   249  1.560038574E-02
   250 -2.092894166E-02
   251 -6.961512830E-02
   252 -1.235532247E-02
   253  4.470575542E-03
   254 -7.609525824E-03
   255 -2.275896546E-02
   256 -2.492299539E-03
   257 -2.647134904E-03
   258  1.959808031E-03
   259  3.405048167E-04
   260 -1.224135817E-03
   261 -2.058085497E-01
   262 -5.507256563E-01
   263  9.472482344E-01
   264  3.121055984E+00
   265 -3.249721353E-03
   266 -4.855777226E-02
   267  4.515097703E-01
   268  3.165876697E-03
   269  1.214333447E-03
   270 -3.128237786E-03
   271 -6.858479584E-02
   272  2.910790758E-03
   273  6.730375112E-02
   274 -8.152971416E-02
   275  2.562343892E-03
   276  5.507228920E-03
   277  2.118406349E-03
   278 -3.315505946E+00
   279  7.647356596E-03
   280  1.132258189E-01
   281 -8.060063701E-01
   282  5.275238440E-03
   283  6.271527294E-03
   284  4.991100324E-03
   285 -4.699113925E+00
   286 -8.436051309E-03
   287 -1.072273231E-01
   288  6.903185793E-01
   289 -7.264766065E-03
   290 -3.134064067E-03
   291  4.722707792E-03
   292  4.672098867E+00
   293  1.816922589E-02
   294  3.796649874E-02
   295 -7.682354496E-03
   296 -4.282061158E-03
   297 -3.958905365E-04
   298  6.656253133E-03
   299  6.609191474E-01
   300  2.673643173E-03
   301  6.914437156E-02
   302 -1.231264582E-01
   303  4.642454342E-03
   304  2.618502147E-03
   305  3.592533796E-03
   306 -3.282831995E+00
   307 -3.292443627E-03
   308 -4.586969349E-02
   309  4.049413623E-01
   310  3.090456600E-03
   311  8.117239223E-04
   312 -2.768593180E-03
   313 -1.313573275E-02
   314  2.576060776E-04
   315 -1.776326462E-03
   316 -1.644345026E-03
   317  1.290453975E-03
   318 -1.482024801E-03
   319 -4.798115492E-03
   320  1.667999202E-01
   321  1.727449453E-04
   322 -8.939881270E-04
   323 -5.810546012E-03
   324  1.048477670E-03
   325 -1.121506031E-03
   326 -4.820042713E-03
   327  1.373757227E-01
   328 -1.832814272E-02
   329 -3.254322104E-02
   330 -4.524875266E-02
   331  1.772998795E-03
   332  4.394303026E-03
   333  6.481596878E-03
   334 -6.644711813E-01
   335 -3.224610517E-03
   336 -6.559946233E-02
   337  1.012024520E-01
   338 -6.027395906E-03
   339 -1.241255672E-03
   340  1.630623303E-03
   341  3.064335702E+00
   342  3.237121850E-03
   343  4.768390209E-02
   344 -4.175230346E-01
   345 -1.374880935E-03
   346 -2.770996293E-03
   347 -2.853552034E-03
   348 -6.615328994E-02
   349 -6.688447415E-03
   350  6.588010089E-03
   351 -1.787952203E-01
   352  1.641400377E-03
   353  3.000071397E-03
   354  4.603828553E-03
   355 -2.074425442E+00
   356  6.791500020E-03
   357 -5.316380565E-03
   358  2.134822413E-01
   359 -3.395801642E-03
   360 -2.314669179E-04
   361  4.305976315E-03
   362  1.983708010E+00
   363 -2.633494840E-04
   364  1.039005395E-03
   365 -2.402338852E-03
   366 -3.753831102E-04
   367  4.209666935E-05
   368  9.326558328E-04
   369 -7.978267399E-02
   370  3.480842475E-03
   371  4.877404225E-02
   372 -4.437835870E-01
   373 -1.717101917E-03
   374 -2.452060387E-03
   375 -3.035380459E-03
   376 -5.018251213E-02
   377 -3.124021082E-03
   378 -6.460026988E-02
   379  8.974684476E-02
   380 -3.833370562E-03
   381 -4.209316849E-03
   382  3.054173559E-03
   383  3.245044319E+00
   384  7.036345242E-03
   385 -2.604439872E-03
   386  1.999777014E-01
   387 -2.916594627E-03
   388 -7.823056674E-04
   389  4.642603977E-03
   390  2.024414150E+00
   391 -7.132618952E-03
   392  6.195012173E-03
   393 -2.179731616E-01
   394  1.208155920E-03
   395  3.436303442E-03
   396  4.347546390E-03
   397 -2.118942444E+00
   398  1.716169311E-04
   399  6.570996009E-04
   400  8.365081913E-04
   401 -5.009448789E-04
   402  1.328202296E-04
   403  1.206104849E-03
   404  5.610932834E-02
Ene=    1.1880397607E-01
Spin= Alpha
Occup=   0.0000000
     1 -3.446032698E-03
     2 -4.722048716E-03
     3  6.664085702E-03
     4 -1.272308666E-02
     5  5.116266012E-03
     6 -9.345846073E-03
     7  1.481415855E-02
     8 -4.236367966E-02
     9  1.527539147E-02
    10  5.450533550E-01
    11  9.083465176E-02
    12  2.369217731E-01
    13 -4.489327032E-02
    14 -2.319551856E-03
    15 -1.430955468E-03
    16 -5.625451468E-03
    17 -1.328050959E-02
    18 -1.415745180E-03
    19 -7.055708388E+00
    20  4.535808596E-01
    21  2.401865312E+01
    22 -6.871439771E+00
    23  8.924809593E-03
    24  1.548216139E-02
    25  3.064809097E-02
    26 -2.835002097E-02
    27  1.001572842E-02
    28 -6.987777921E-02
    29  5.909833123E-02
    30 -4.499959010E-02
    31  2.466323501E-02
    32  2.830483905E-01
    33  6.062453701E-02
    34 -1.880474071E-01
    35 -1.135948695E-01
    36  6.006163762E-04
    37 -7.141809855E-04
    38  1.264347544E-03
    39  3.024557440E-03
    40 -3.760366842E-03
    41  1.243318338E+01
    42 -3.227571462E+00
    43 -2.699710022E+00
    44 -9.344817096E-01
    45 -6.268509002E-04
    46 -7.580611058E-04
    47  1.192312636E-02
    48 -3.405900488E-02
    49  1.252899496E-02
    50 -3.476431949E-03
    51  1.878442032E-02
    52 -5.703789680E-02
    53  2.077472157E-02
    54  1.041865381E-01
    55  7.578043153E-02
    56 -1.874290733E-01
    57  7.038948372E-02
    58 -1.053860288E-03
    59  2.923416375E-03
    60  1.825052282E-03
    61  9.425753860E-03
    62 -1.028344128E-03
    63  2.171596740E+01
    64 -1.172908275E+00
    65 -4.135203858E+00
    66  9.538001996E-01
    67 -1.338400013E-03
    68 -2.213096581E-03
    69  4.630201375E-03
    70  5.522809369E-04
    71  9.092021983E-03
    72  7.353444242E-03
    73  8.546241051E-03
    74 -1.128096422E-02
    75  1.729484414E-02
    76 -6.136295267E-04
    77  1.086121514E-01
    78 -1.081147583E-02
    79  4.996967006E-02
    80 -1.373472993E-03
    81 -2.804307213E-03
    82  5.437225954E-03
    83 -6.046874490E-03
    84 -9.052949656E-04
    85  2.751953451E+00
    86  4.852298460E+00
    87 -4.583469694E+00
    88  1.852360566E+00
    89 -1.833574946E-03
    90 -3.752660459E-03
    91  1.000804521E-02
    92 -4.656255629E-02
    93  1.514273534E-02
    94  3.378358828E-02
    95  1.399566963E-02
    96 -9.050325151E-02
    97  1.916409729E-02
    98 -4.108974191E-01
    99  1.089969590E-01
   100 -8.189827109E-02
   101  2.229126113E-01
   102 -2.149116945E-03
   103 -2.270978642E-03
   104  2.140579409E-03
   105  4.546989054E-03
   106 -3.703464771E-03
   107 -1.849914251E+01
   108  4.317694399E+00
   109  3.908556729E+00
   110  3.544833596E+00
   111  5.998694584E-04
   112  2.939444019E-04
   113  3.968390020E-03
   114 -1.913458635E-02
   115  6.489795903E-03
   116  1.861878961E-02
   117  2.009686885E-02
   118 -3.753901241E-02
   119  1.553546207E-02
   120 -4.477539129E-01
   121 -2.449892565E-01
   122 -1.344075076E-01
   123 -1.807506278E-02
   124 -2.362428032E-03
   125 -3.654409815E-03
   126 -3.308877020E-03
   127 -1.285729162E-02
   128  6.351992677E-03
   129 -8.376304365E+00
   130 -2.448227922E+01
   131 -3.613875274E+00
   132 -4.782923604E+00
   133 -6.031608981E-03
   134 -1.008716373E-02
   135  3.000697916E-02
   136 -5.063710857E-02
   137  2.131649116E-02
   138  3.519461328E-02
   139  6.063494027E-02
   140 -9.481856699E-02
   141  4.085073474E-02
   142  5.956667156E-02
   143 -2.095234025E-02
   144 -5.157950271E-02
   145  1.037226099E-02
   146 -1.001115054E-03
   147  1.015137266E-03
   148 -7.732159049E-04
   149  9.609950394E-04
   150 -1.344940996E-03
   151  2.229389644E+00
   152 -1.943464395E+00
   153  5.646079704E+00
   154 -2.026960816E+00
   155 -1.335928755E-03
   156 -2.200742324E-03
   157  7.939006950E-03
   158 -3.394297421E-03
   159 -4.595303516E-03
   160  7.225889978E-03
   161  1.317307645E-02
   162 -1.666248486E-02
   163 -2.696335282E-03
   164  3.629735355E-03
   165  1.191351992E-01
   166 -2.668475376E-02
   167  1.326117085E-02
   168  5.519520756E-03
   169 -1.377226446E-03
   170 -5.322228323E-03
   171 -3.099171575E-03
   172  2.377202234E-03
   173  3.071735839E+00
   174  4.719280210E+00
   175 -4.403819861E+00
   176  2.925627528E+00
   177 -1.922188889E-03
   178 -3.885166488E-03
   179  9.795007940E-03
   180 -4.622790769E-02
   181  1.615758021E-02
   182  3.391475585E-02
   183  1.002745291E-02
   184 -8.582389784E-02
   185  3.737865711E-02
   186 -4.031896540E-01
   187  1.791320542E-01
   188 -1.653638727E-01
   189 -8.730201680E-02
   190  2.715839213E-03
   191  5.046093167E-03
   192 -5.187777006E-04
   193  3.756721690E-03
   194 -7.913169130E-04
   195 -1.972187299E+01
   196  5.930946937E+00
   197  1.889423957E+00
   198 -3.187642146E+00
   199  7.993319642E-03
   200  1.334858277E-02
   201 -1.410980836E-03
   202 -2.662413582E-02
   203  7.679898205E-03
   204 -5.485872831E-02
   205 -6.377643600E-03
   206 -4.772040751E-02
   207  1.318379180E-02
   208  1.577652661E-01
   209 -1.079493710E-01
   210  2.623191852E-02
   211 -3.313375885E-02
   212 -5.871891514E-03
   213  3.003565547E-03
   214 -2.205726073E-03
   215  2.597946887E-03
   216  8.546267352E-04
   217  2.797966891E+01
   218 -3.724879495E+00
   219  4.344212863E+00
   220 -2.099532952E+00
   221  8.917938064E-03
   222  1.547805169E-02
   223  2.833689383E-02
   224 -2.560904428E-02
   225  1.901843034E-02
   226 -7.013215634E-02
   227  5.786759202E-02
   228 -4.381583111E-02
   229  2.783234171E-02
   230  2.880328523E-01
   231 -1.205647684E-02
   232 -9.946457210E-02
   233  2.074524980E-01
   234  2.633089562E-03
   235  2.525338809E-03
   236  3.950416101E-04
   237  2.524430122E-03
   238 -2.414927205E-03
   239  1.232692458E+01
   240 -3.634262013E+00
   241 -2.378925969E+00
   242  7.496531480E-01
   243  3.860589523E-04
   244  5.515017483E-04
   245  2.062219114E-02
   246 -2.043595423E-02
   247  1.074652045E-02
   248  1.291269461E-02
   249  4.051507889E-02
   250 -2.349935978E-02
   251  1.634172211E-02
   252 -3.195241516E-01
   253 -2.676756784E-02
   254  4.871669544E-02
   255 -1.853903537E-02
   256  4.910324421E-03
   257 -2.251351343E-03
   258  4.063448892E-03
   259  2.508073660E-03
   260  1.675128821E-03
   261 -2.536669042E+01
   262 -1.610423024E+00
   263  4.735977049E+00
   264 -1.705812524E+00
   265  1.137359822E-03
   266  6.666822322E-02
   267 -3.197968687E-01
   268 -9.940662852E-03
   269  2.462058662E-03
   270 -6.538704500E-03
   271 -3.828601050E+00
   272 -1.558985065E-04
   273  1.610884546E-02
   274  4.082241571E-01
   275  3.883921651E-03
   276 -2.787281915E-04
   277  2.948309493E-03
   278  1.117142044E+00
   279 -2.287324965E-03
   280  1.434235686E-02
   281 -2.810920573E-01
   282  2.991623447E-03
   283 -2.280953934E-03
   284  1.941126488E-03
   285 -2.766525143E-01
   286 -2.143989151E-03
   287  1.536522054E-02
   288 -2.857749899E-01
   289  3.237057451E-03
   290 -2.550131435E-03
   291  8.734203763E-04
   292 -2.707101213E-01
   293 -1.191522635E-03
   294 -1.157751307E-03
   295  2.896522661E-03
   296  1.274001553E-03
   297  3.567608056E-03
   298 -8.126842966E-04
   299  4.873360241E-01
   300 -4.631965419E-03
   301  1.839803855E-02
   302 -6.226462292E-01
   303 -1.396899621E-03
   304 -4.160881732E-03
   305  3.036374639E-03
   306 -2.943408603E+00
   307 -1.094107036E-03
   308 -7.794660297E-02
   309  3.783236713E-01
   310  2.527866907E-03
   311  1.123612486E-02
   312  1.649355316E-04
   313  3.515065613E+00
   314 -2.473537513E-03
   315  5.406896748E-02
   316 -6.741972069E-01
   317 -6.208357787E-03
   318  1.640596964E-03
   319 -1.846530907E-03
   320 -2.215201657E+00
   321  5.192666832E-03
   322 -7.561738476E-02
   323  5.140671937E-01
   324 -1.938136142E-04
   325  1.010078724E-02
   326 -2.854543435E-03
   327  4.721105470E+00
   328 -1.065887105E-03
   329 -1.782963721E-04
   330 -7.722015600E-04
   331  1.246106331E-03
   332  3.587292004E-03
   333 -8.764531175E-04
   334  4.535501571E-01
   335 -4.587903548E-03
   336  1.821484355E-02
   337 -6.109838992E-01
   338 -4.531036856E-04
   339 -5.354992368E-03
   340 -7.859550691E-04
   341 -3.100221348E+00
   342 -1.221799440E-03
   343 -8.010115906E-02
   344  4.162677022E-01
   345  3.712047111E-03
   346  9.925044983E-03
   347 -4.705463093E-03
   348  3.512555383E+00
   349 -4.298777284E-03
   350  3.736382372E-03
   351 -1.217594574E-01
   352  5.843075730E-03
   353  2.181475417E-03
   354  2.155331861E-03
   355 -1.499507089E+00
   356 -4.558802382E-03
   357  5.151085299E-03
   358 -1.412988923E-01
   359  6.540760351E-03
   360  1.393211198E-03
   361 -3.863624640E-04
   362 -1.515614016E+00
   363  6.489933445E-03
   364 -1.453332208E-02
   365  3.243283808E-01
   366  1.791802954E-03
   367  4.659514888E-04
   368  2.424117562E-04
   369  1.499039601E+00
   370  1.040356239E-03
   371  6.598282144E-02
   372 -3.214816714E-01
   373 -1.133476974E-02
   374  4.224924691E-03
   375 -2.311302816E-04
   376 -3.795645249E+00
   377 -9.264082202E-05
   378  1.673098321E-02
   379  4.007077318E-01
   380  4.644411093E-03
   381 -1.272781948E-03
   382 -6.342055774E-04
   383  1.139600285E+00
   384  5.637244316E-03
   385  2.911546421E-02
   386  9.927872943E-02
   387 -1.272068333E-03
   388 -3.809073329E-03
   389  5.574854389E-04
   390  9.586379485E-01
   391  5.608091308E-03
   392  2.730342097E-02
   393  1.079429298E-01
   394 -1.424783428E-03
   395 -3.686178483E-03
   396  9.646505111E-04
   397  9.572287127E-01
   398 -1.035082687E-02
   399  3.259475201E-02
   400 -4.636166932E-01
   401 -3.512817593E-03
   402 -3.895211880E-03
   403  3.827187191E-04
   404 -1.447659720E+00
Ene=    1.1938258488E-01
Spin= Alpha
Occup=   0.0000000
     1  3.271804796E-03
     2  5.177426858E-03
     3  2.263057502E-02
     4  4.977342453E-03
     5  3.279629991E-03
     6 -1.335428308E-02
     7  3.542253036E-02
     8  1.140497957E-02
     9  4.082709660E-03
    10 -3.992584936E-02
    11  2.008210417E-01
    12  2.382626565E-02
    13  3.283741607E-02
    14  8.407060416E-03
    15 -6.670635338E-03
    16  4.882729315E-03
    17 -3.990216980E-03
    18  5.291115478E-03
    19  1.635942864E+01
    20  1.202830582E+01
    21  3.048289124E+00
    22  1.590749618E+00
    23 -9.552408382E-03
    24 -1.567957695E-02
    25  3.484746898E-02
    26  5.190107450E-03
    27  1.481089196E-02
    28  4.362160620E-02
    29  6.497390061E-02
    30  1.214038817E-02
    31  3.321927836E-02
    32  2.856513142E-01
    33  1.168196985E-01
    34 -7.924058201E-02
    35 -1.366265960E-02
    36 -4.909535182E-03
    37  3.954349352E-03
    38  6.502123273E-03
    39  2.161466663E-03
    40  2.894609386E-03
    41  9.886991665E+00
    42 -2.451876430E+00
    43 -4.403474520E+00
    44 -3.418929141E+00
    45  1.415415291E-03
    46  1.549580767E-03
    47  3.944101588E-02
    48  1.585315748E-02
    49  2.769016295E-03
    50  1.281751505E-02
    51  6.693180554E-02
    52  2.763667007E-02
    53  3.668591080E-03
    54 -3.510965531E-01
    55  1.880221340E-01
    56  6.391623083E-02
    57  2.698676038E-02
    58  2.093299234E-03
    59  1.428660411E-03
    60 -3.487674928E-04
    61  8.369543784E-04
    62 -6.905877761E-03
    63 -4.448433182E+01
    64  5.025845440E+00
    65  3.002974247E+00
    66  6.275892914E-01
    67  3.821210281E-03
    68  6.334908136E-03
    69 -3.863932185E-03
    70 -1.392689181E-02
    71 -1.953955785E-02
    72 -2.296598458E-02
    73  9.489050193E-03
    74 -1.341879726E-02
    75 -2.961983867E-02
    76  4.542262333E-02
    77 -1.451828982E-01
    78 -1.458633939E-01
    79 -3.344551118E-03
    80 -7.275817365E-03
    81 -5.624396530E-03
    82 -6.403323919E-03
    83  2.076665243E-03
    84  2.083391312E-03
    85 -7.119135113E+00
    86 -1.488615671E+00
    87 -2.804247832E+00
    88  1.979832475E+00
    89 -1.276233854E-02
    90 -2.135003247E-02
    91  1.940776934E-02
    92  1.118435986E-02
    93  1.071827295E-02
    94  7.227238794E-02
    95  3.278234366E-02
    96  2.102373314E-02
    97  2.019386866E-02
    98  1.134332876E-01
    99  4.479520439E-02
   100  6.863373794E-02
   101  2.211920852E-02
   102 -1.834356626E-03
   103  5.014438328E-03
   104  1.546544099E-03
   105 -1.439495650E-03
   106  6.136775554E-03
   107  1.756834662E+00
   108 -1.331763664E+00
   109 -9.510917641E-01
   110 -2.810129865E+00
   111  4.259568157E-03
   112  6.311699325E-03
   113  1.544962155E-02
   114  1.117107147E-02
   115 -4.994570402E-04
   116 -3.285154280E-03
   117  3.732675646E-02
   118  1.131537508E-02
   119  3.992526536E-03
   120 -3.305381540E-01
   121 -5.565897448E-02
   122  1.383828167E-01
   123 -5.776348715E-02
   124  8.152386303E-03
   125 -6.351781893E-03
   126  5.939989236E-03
   127 -6.050466274E-04
   128  6.536516295E-03
   129  1.447180983E+01
   130 -6.202020241E+00
   131  1.084889963E+01
   132 -4.645509853E+00
   133  1.715127597E-02
   134  2.872157161E-02
   135  3.103886255E-02
   136  1.965294164E-04
   137  6.109575700E-03
   138 -1.022335657E-01
   139  4.973319368E-02
   140 -6.587113515E-03
   141  1.205176211E-02
   142 -1.112075042E-01
   143  1.486649250E-01
   144  9.029866028E-02
   145  2.270471926E-03
   146  3.128666444E-03
   147 -1.976941366E-03
   148  2.831166507E-03
   149  1.036354581E-03
   150  2.358294508E-03
   151 -6.410590440E+00
   152 -5.328250257E+00
   153 -1.932825254E+00
   154 -7.817945375E-01
   155  3.485072950E-03
   156  5.750354443E-03
   157 -1.330060808E-02
   158 -3.874023785E-03
   159  1.828838900E-02
   160 -2.020192303E-02
   161 -5.218899549E-03
   162  1.670200160E-03
   163  2.907425647E-02
   164  3.182307526E-02
   165 -1.517013653E-01
   166 -1.376573921E-01
   167  1.317493409E-02
   168 -5.046647337E-03
   169  8.175061772E-03
   170  5.606327829E-04
   171 -3.252285915E-03
   172  4.676124793E-03
   173 -8.095150373E+00
   174 -7.423935210E-01
   175 -3.425800320E+00
   176 -7.510770567E-01
   177 -1.275870497E-02
   178 -2.134354066E-02
   179  2.442762252E-02
   180  5.677281720E-03
   181 -8.911720052E-03
   182  7.242199281E-02
   183  4.229504405E-02
   184  1.105207914E-02
   185 -1.782639265E-02
   186  1.040927206E-01
   187  5.732617863E-02
   188  4.508241077E-02
   189 -4.371146997E-02
   190 -4.270902701E-03
   191 -4.772347654E-03
   192 -2.069938340E-03
   193  2.056907874E-03
   194  4.193762815E-03
   195  2.381531289E+00
   196 -2.723240748E+00
   197  5.341392676E-01
   198  2.342633343E+00
   199 -1.041452548E-02
   200 -1.712494617E-02
   201  3.130291158E-02
   202  4.134068870E-04
   203  5.458957552E-03
   204  4.365330030E-02
   205  3.830821770E-02
   206  1.490380498E-03
   207  5.520024617E-03
   208  3.429280047E-01
   209  8.351868227E-02
   210  3.311278435E-02
   211  8.820790499E-03
   212 -2.114879789E-03
   213  2.784351986E-03
   214 -3.299857257E-03
   215 -1.251392539E-03
   216 -5.998753422E-03
   217  7.192213148E+00
   218 -2.495252098E+00
   219 -7.487909958E-01
   220 -2.614570412E-01
   221 -9.816336582E-03
   222 -1.612940482E-02
   223  3.916688030E-02
   224  4.537058410E-04
   225 -2.753897837E-03
   226  4.540204380E-02
   227  7.581164046E-02
   228  5.138810752E-04
   229 -9.913539468E-03
   230  2.807715470E-01
   231  9.066935815E-02
   232 -5.213229610E-02
   233  8.457390795E-02
   234 -1.036191263E-03
   235 -1.629266135E-03
   236 -4.914951710E-03
   237  6.723397279E-03
   238  4.273538063E-03
   239  9.480743184E+00
   240 -4.286811303E+00
   241 -2.469491273E+00
   242  3.928219546E+00
   243 -1.244205452E-02
   244 -2.056179201E-02
   245  2.406234094E-02
   246  2.076284632E-02
   247 -1.694243401E-03
   248  6.294253601E-02
   249  4.037021788E-02
   250  2.546444442E-02
   251  2.782888657E-05
   252  1.942470118E-01
   253  5.036150407E-02
   254  1.120365314E-01
   255 -2.331992470E-02
   256  1.064066218E-03
   257  1.355215352E-03
   258 -1.149904069E-03
   259 -6.501196759E-04
   260 -6.109182184E-03
   261 -6.902293939E+00
   262 -2.879320394E+00
   263  2.799327001E-01
   264 -6.843891342E-01
   265  1.117507363E-03
   266  4.615817913E-02
   267 -1.981700654E-01
   268 -4.212452856E-03
   269 -4.191601323E-03
   270 -4.579325855E-04
   271 -1.430918363E+00
   272  8.850891780E-03
   273 -7.019433324E-02
   274  7.402734641E-01
   275  3.864097212E-03
   276 -2.642068137E-03
   277 -5.643969594E-03
   278  3.848396471E+00
   279  3.841041073E-03
   280 -4.075071149E-02
   281  5.345700122E-01
   282 -7.404807782E-04
   283 -3.296169709E-03
   284 -2.494387773E-03
   285  1.087078491E+00
   286  3.840107236E-03
   287 -4.638883502E-02
   288  5.937141820E-01
   289 -2.424091579E-03
   290 -1.815282578E-03
   291  3.563818468E-03
   292  1.467801802E+00
   293  5.022520314E-03
   294 -4.687346869E-03
   295  2.453496029E-02
   296 -8.346914215E-03
   297 -5.510399237E-03
   298 -9.347752747E-05
   299 -1.490263347E+00
   300  7.399214559E-03
   301 -6.579972711E-02
   302  4.164079175E-01
   303  8.485264026E-04
   304 -1.950011217E-03
   305 -6.259300851E-03
   306  2.583853086E+00
   307  4.675210857E-04
   308 -1.386762513E-03
   309  3.858624787E-02
   310 -4.507180450E-03
   311  3.620167446E-03
   312 -8.339966776E-04
   313  9.200982740E-01
   314 -5.607253897E-03
   315  5.334579074E-02
   316  2.853017361E-02
   317 -7.849345229E-03
   318  3.363203774E-03
   319 -2.708720082E-03
   320 -4.529894123E+00
   321 -3.254032484E-03
   322  9.412994722E-03
   323  3.989124806E-01
   324  1.149505006E-03
   325 -3.412243383E-03
   326  1.214273981E-03
   327 -2.446812877E+00
   328  4.211021001E-03
   329 -1.043457880E-02
   330  5.639289284E-02
   331 -7.983790214E-03
   332 -5.313978672E-03
   333  4.702487415E-05
   334 -1.339478747E+00
   335  7.157810961E-03
   336 -6.873905364E-02
   337  4.046904186E-01
   338 -2.357976661E-03
   339  1.392353298E-03
   340  6.400549043E-03
   341  2.791729671E+00
   342  2.282675504E-04
   343  1.234529946E-03
   344 -1.351269258E-02
   345 -3.993174895E-03
   346  2.945984338E-03
   347 -3.219185197E-03
   348  9.416312241E-01
   349 -4.684908377E-03
   350 -5.371791591E-02
   351 -2.029208057E-02
   352 -1.595225474E-04
   353 -2.264252965E-03
   354 -3.141816062E-03
   355  4.742239728E-01
   356 -4.557040554E-03
   357 -5.517974999E-02
   358 -3.794381119E-03
   359 -2.017916780E-03
   360 -3.934901906E-04
   361  3.770177783E-03
   362  5.872107194E-01
   363  9.501339638E-03
   364 -1.911801382E-02
   365  2.126169105E-01
   366  5.511704553E-03
   367  1.277518018E-03
   368  8.984254500E-04
   369  2.730696701E-01
   370  1.110876497E-03
   371  4.644975573E-02
   372 -2.071148939E-01
   373 -4.429858170E-03
   374 -3.850996009E-03
   375  6.491546496E-04
   376 -1.412637890E+00
   377  8.776425765E-03
   378 -7.491686466E-02
   379  7.596587174E-01
   380  5.491885277E-04
   381  8.756396870E-04
   382  7.555540527E-03
   383  3.994005613E+00
   384 -1.450138764E-03
   385 -4.706892217E-02
   386  6.388753711E-02
   387 -3.968806595E-03
   388 -2.379921541E-03
   389  4.154176921E-03
   390  1.323412287E+00
   391 -1.537260403E-03
   392 -4.661837520E-02
   393  6.283510184E-02
   394 -2.083974181E-03
   395 -4.366435608E-03
   396 -3.291633288E-03
   397  1.282410588E+00
   398  4.644184847E-03
   399 -4.805804512E-03
   400 -1.338666742E-02
   401  1.140361733E-03
   402  3.394330904E-03
   403 -7.424380576E-04
   404 -6.186374448E-01
Ene=    1.2509837909E-01
Spin= Alpha
Occup=   0.0000000
     1 -4.183987378E-03
     2 -7.202377269E-03
     3  1.185502775E-02
     4  1.615741315E-02
     5 -2.377041246E-03
     6  3.623011983E-02
     7  2.204417284E-02
     8  1.632006201E-02
     9 -6.464733244E-04
    10 -1.620546781E-01
    11 -9.006284369E-02
    12  1.801580650E-01
    13 -6.507145085E-02
    14  6.881852570E-03
    15 -2.331960572E-03
    16  7.076683359E-03
    17  8.588809152E-03
    18  2.657775676E-03
    19 -3.014018411E+01
    20 -9.103571101E+00
    21  1.494342927E+00
    22 -2.319978120E+00
    23  1.387004532E-03
    24  1.991576708E-03
    25  3.168261445E-02
    26  2.361678303E-02
    27  9.513466390E-03
    28  6.115199743E-04
    29  5.828753888E-02
    30  3.818735993E-02
    31  2.341934438E-02
    32 -7.596085635E-02
    33  1.098981549E-01
    34  1.050872677E-01
    35 -1.654972515E-02
    36  2.731132030E-03
    37  5.021620013E-03
    38 -6.628017582E-03
    39 -1.238175916E-03
    40 -6.822031227E-04
    41 -1.069148653E+01
    42 -3.212909393E+00
    43  6.859230076E-01
    44 -1.691178608E+00
    45 -1.791635760E-03
    46 -2.260862498E-03
    47  1.763931504E-02
    48  1.650685629E-02
    49 -3.285462629E-04
    50 -1.071194139E-02
    51  2.405045569E-02
    52  2.322542532E-02
    53 -2.561706906E-04
    54  3.365080445E-01
    55 -6.369090730E-03
    56 -2.280258984E-03
    57 -4.539795809E-03
    58 -9.049764902E-03
    59  5.994693339E-03
    60 -7.785564048E-03
    61 -2.554194426E-03
    62 -6.741037934E-03
    63  5.888515912E+01
    64 -9.103461148E+00
    65 -8.121463539E+00
    66  1.407095410E-01
    67 -7.280139376E-03
    68 -1.200787106E-02
    69  1.754934206E-03
    70  1.061773324E-02
    71  2.141384972E-02
    72  3.384474071E-02
    73  2.251656304E-03
    74  1.358453585E-02
    75  2.979590358E-02
    76  1.891779208E-01
    77  2.217698692E-02
    78  7.041659337E-02
    79  1.098046585E-01
    80  6.560111870E-03
    81  2.848257421E-03
    82  1.107538433E-02
    83 -1.430643379E-03
    84  7.874354882E-03
    85  1.594725596E+01
    86  4.789042041E+00
    87  3.141069488E+00
    88 -6.627095817E-01
    89  2.590815848E-03
    90  3.977021020E-03
    91  2.678562429E-02
    92  3.333696578E-02
    93  5.753696358E-03
    94 -5.397652458E-03
    95  4.195805128E-02
    96  6.503361960E-02
    97  1.305795610E-02
    98 -1.067348781E-01
    99  1.413661041E-01
   100  8.847653388E-02
   101 -2.293248823E-03
   102 -5.627688921E-03
   103 -1.876602843E-03
   104  2.799345946E-03
   105 -1.637509917E-04
   106 -5.478673449E-03
   107 -9.964465750E+00
   108  7.403210148E-01
   109 -4.036572335E+00
   110  1.916873272E-01
   111 -5.070588398E-03
   112 -8.630539797E-03
   113  1.885090247E-02
   114  7.704059044E-03
   115  2.713751039E-03
   116  4.026188112E-02
   117  2.092031063E-02
   118  1.832371140E-02
   119  3.382406669E-04
   120 -1.473648348E-01
   121  1.474176592E-01
   122 -1.339493555E-01
   123  7.287641970E-02
   124  7.353615948E-03
   125 -5.957945594E-03
   126  4.491913266E-03
   127 -4.867012709E-03
   128  6.465022358E-03
   129 -3.178622629E+01
   130 -2.880537661E+00
   131 -8.971637348E+00
   132  1.528695472E+00
   133 -1.165613829E-02
   134 -1.956110363E-02
   135  1.861479397E-02
   136  1.833428227E-02
   137 -9.038291286E-04
   138  7.160554380E-02
   139  3.783297128E-02
   140  3.567806054E-02
   141 -1.825807855E-03
   142  1.389925082E-01
   143 -5.078396618E-02
   144 -1.026626854E-02
   145 -2.630188879E-03
   146 -2.683604651E-03
   147  2.743866076E-03
   148 -3.075398770E-03
   149 -1.094597589E-03
   150 -4.251677938E-03
   151 -6.360343981E+00
   152 -2.076530475E+00
   153 -1.732406592E+00
   154  8.590682907E-02
   155 -6.426624752E-03
   156 -1.057639711E-02
   157  1.181867221E-02
   158 -5.197314563E-04
   159 -1.925014203E-02
   160  2.873698886E-02
   161  1.546333943E-02
   162 -9.079391334E-05
   163 -2.583273696E-02
   164  1.832875441E-01
   165  8.016464194E-02
   166 -5.717853179E-03
   167 -9.926758243E-02
   168  5.724384080E-03
   169 -1.165755928E-02
   170  4.908299722E-04
   171  5.569985403E-03
   172  5.891242882E-03
   173  1.741370679E+01
   174  4.668131497E+00
   175  3.268875991E+00
   176  9.768180472E-01
   177  2.428149272E-03
   178  3.689137122E-03
   179  2.902198858E-02
   180  2.976213932E-02
   181 -8.958217842E-03
   182 -4.175244578E-03
   183  4.914055632E-02
   184  5.490039909E-02
   185 -2.294300145E-02
   186 -1.009932634E-01
   187  1.386497949E-01
   188  1.014649287E-01
   189  1.611382301E-02
   190  2.696379643E-03
   191  4.836772611E-03
   192 -6.172678224E-03
   193  3.527538803E-04
   194 -1.000858368E-03
   195 -1.308957475E+01
   196  7.940611152E-01
   197 -3.999286821E+00
   198  1.742653656E+00
   199  1.707950895E-02
   200  2.843899603E-02
   201  1.580699353E-02
   202  3.748522177E-02
   203 -6.220918759E-03
   204 -9.433135238E-02
   205  3.062799761E-02
   206  5.495468013E-02
   207 -6.827614735E-03
   208 -2.248930960E-01
   209  1.584323011E-02
   210  1.790220001E-01
   211 -5.041755131E-02
   212 -9.989487607E-03
   213  5.126406880E-03
   214 -5.489270268E-03
   215  1.776771304E-03
   216 -1.484700720E-03
   217  1.139221144E+01
   218 -9.156140609E-01
   219  1.002556582E+00
   220 -4.945035631E-01
   221  1.898449031E-03
   222  2.840391688E-03
   223  3.502405841E-02
   224  1.892648966E-02
   225 -5.068741902E-03
   226 -2.121389425E-03
   227  6.595249409E-02
   228  2.673499299E-02
   229 -1.177507945E-02
   230 -8.500318773E-02
   231  1.071090248E-01
   232  1.113355374E-01
   233  1.417816462E-02
   234 -5.556101649E-03
   235 -2.108873772E-03
   236  2.659277241E-03
   237 -1.983608166E-03
   238 -5.163467955E-03
   239 -9.236489705E+00
   240 -3.347381080E+00
   241  1.035378821E+00
   242 -2.560426427E-02
   243  1.569133251E-02
   244  2.610998815E-02
   245  3.656383637E-02
   246  8.761769745E-03
   247  6.033253727E-03
   248 -8.607046875E-02
   249  5.331589290E-02
   250  1.841125178E-02
   251  6.394033004E-03
   252 -2.171842442E-01
   253  1.762135238E-01
   254 -5.078445698E-03
   255  4.805527532E-02
   256 -1.059617535E-02
   257  4.219741124E-03
   258 -6.397425883E-03
   259 -1.494759473E-03
   260 -2.537211991E-04
   261  9.824500170E+00
   262  1.158626227E+00
   263 -1.123261472E+00
   264  6.592412398E-01
   265  2.535729255E-03
   266  5.825368426E-02
   267 -1.881797613E-01
   268 -7.686965936E-04
   269  5.991147215E-03
   270 -7.201194837E-03
   271 -2.888791259E+00
   272 -9.677060311E-04
   273 -7.485248275E-02
   274  7.012780975E-01
   275  3.975272974E-05
   276 -5.518642644E-03
   277 -2.182657508E-03
   278  2.973287700E+00
   279 -1.761110008E-02
   280 -1.480913327E-02
   281 -8.434422495E-01
   282  4.255157279E-03
   283  5.097977775E-04
   284 -6.786719069E-03
   285  8.886952053E-01
   286 -1.813647420E-02
   287 -1.471837799E-02
   288 -8.733684379E-01
   289  1.220842663E-03
   290  4.357509577E-03
   291  6.569284712E-03
   292  7.253445364E-01
   293  3.994536877E-03
   294 -3.048681403E-02
   295  1.429273111E-02
   296  5.566618519E-03
   297  4.006924957E-03
   298  3.634427185E-04
   299  1.308530787E+00
   300 -1.501898459E-03
   301 -7.879837849E-02
   302  6.701923962E-01
   303 -3.712869292E-03
   304 -2.800679908E-04
   305 -4.320601032E-03
   306  2.941595108E+00
   307  1.826890968E-03
   308  7.225312886E-02
   309 -3.165345846E-01
   310  7.425157399E-03
   311 -5.871631581E-03
   312 -1.540552513E-03
   313 -3.194194814E+00
   314  8.363161329E-04
   315 -1.612186521E-02
   316  3.830958378E-02
   317  1.036756964E-03
   318  4.114018916E-03
   319 -1.153825086E-03
   320  1.000917380E+00
   321  1.835522108E-05
   322 -1.282394717E-03
   323 -2.867536477E-02
   324  4.192586507E-03
   325 -7.237307041E-04
   326  1.055606885E-03
   327  7.662507851E-01
   328  3.849460746E-03
   329 -2.432926351E-02
   330 -4.301077352E-02
   331  5.399186642E-03
   332  3.836491480E-03
   333 -6.051806597E-04
   334  1.085937017E+00
   335 -1.322319753E-03
   336 -8.013525148E-02
   337  7.236189677E-01
   338 -5.018685859E-03
   339  1.620265748E-03
   340  1.729248710E-03
   341  2.680899123E+00
   342  2.368014077E-03
   343  6.930758218E-02
   344 -2.211385768E-01
   345  5.342944328E-03
   346 -3.378362222E-03
   347  7.291637020E-03
   348 -3.279866611E+00
   349 -5.827656071E-03
   350  1.855784451E-02
   351 -2.182067487E-01
   352  7.307268014E-03
   353  1.279619136E-03
   354 -3.874366815E-03
   355 -9.503838102E-01
   356 -5.570885811E-03
   357  1.966465483E-02
   358 -2.343116050E-01
   359  5.584630726E-03
   360  3.848427109E-03
   361  5.114331706E-03
   362 -9.649445153E-01
   363  5.282801470E-03
   364  8.423597972E-02
   365 -1.489533750E-01
   366 -4.619900139E-04
   367 -1.131597457E-02
   368  3.120589022E-03
   369 -1.633655360E+00
   370  2.703336750E-03
   371  6.182362712E-02
   372 -2.385219590E-01
   373 -3.156225406E-03
   374  8.362216561E-03
   375  2.010282758E-03
   376 -2.798777844E+00
   377 -1.275010321E-03
   378 -7.009889705E-02
   379  6.359887879E-01
   380 -1.318951849E-03
   381 -3.883981320E-03
   382  4.127338336E-03
   383  3.012684922E+00
   384 -6.071632502E-03
   385  1.854735124E-02
   386 -2.935482289E-01
   387  3.372193410E-03
   388  6.788876022E-03
   389  4.368613818E-03
   390 -9.223358177E-01
   391 -6.689395904E-03
   392  1.792998386E-02
   393 -3.209724460E-01
   394  5.427446217E-03
   395  4.094512756E-03
   396 -5.486854529E-03
   397 -1.064536279E+00
   398  7.247385819E-03
   399  8.017852291E-02
   400 -1.214854415E-01
   401 -1.029606632E-02
   402  2.120763075E-03
   403 -2.758509986E-03
   404 -1.052481917E+00
