 [Molden Format]
 [Cell]
  20.86936651     0.00000000     0.00000000
   0.00000000    20.86936651     0.00000000
    0.00000000     0.00000000    20.86936651
 [Nval]
 C 4 
 H 1
 [Atoms] AU
 C        1       6      12.573193      15.316261      16.610902
 C        2       6      12.188503      12.967110      14.928345
 C        3       6      14.923301      14.923301      18.290052
 C        4       6      15.316261      17.273410      13.235701
 C        5       6      12.967109      17.658099      14.918258
 C        6       6      14.923301      14.923302      11.556551
 C        7       6      17.273410      14.530342      16.610902
 C        8       6      17.658100      16.879492      14.928345
 C        9       6      14.530341      12.573193      13.235700
 C       10       6      16.879492      12.188504      14.918258
 H       11       1      14.250314      10.904959      12.041267
 H       12       1      16.564602      14.647281      10.322055
 H       13       1      18.554106      11.879264      13.737698
 H       14       1      16.645251      10.493811      16.087361
 H       15       1      18.941644      14.250314      17.805336
 H       16       1      15.199322      16.564602      19.524548
 H       17       1      17.967339      18.554106      16.108905
 H       18       1      19.352792      16.645251      13.759241
 H       19       1      15.596289      18.941644      12.041267
 H       20       1      13.282001      15.199322      10.322055
 H       21       1      11.292496      17.967339      13.737697
 H       22       1      13.201352      19.352792      16.087361
 H       23       1      10.904959      15.596289      17.805336
 H       24       1      14.647280      13.282000      19.524548
 H       25       1      11.879264      11.292496      16.108906
 H       26       1      10.493810      13.201352      13.759242
 [GTO]
        1       0
                         s       6    1.00
                                                       4563.240000000        0.001966650
                                                        682.024000000        0.015230600
                                                        154.973000000        0.076126900
                                                         44.455300000        0.260801000
                                                         13.029000000        0.616462000
                                                          1.827730000        0.221006000
                         s       3    1.00
                                                         20.964200000        0.114660000
                                                          4.803310000        0.919999000
                                                          1.459330000       -0.003030680
                         p       3    1.00
                                                         20.964200000        0.040248700
                                                          4.803310000        0.237594000
                                                          1.459330000        0.815854000
                         s       1    1.00
                                                          0.483456000        1.000000000
                         p       1    1.00
                                                          0.483456000        1.000000000
                         s       1    1.00
                                                          0.145585000        1.000000000
                         p       1    1.00
                                                          0.145585000        1.000000000
                         d       1    1.00
                                                          0.626000000        1.000000000
                         s       1    1.00
                                                          0.043800000        1.000000000
                         p       1    1.00
                                                          0.043800000        1.000000000
    
        2       0
                         s       6    1.00
                                                       4563.240000000        0.001966650
                                                        682.024000000        0.015230600
                                                        154.973000000        0.076126900
                                                         44.455300000        0.260801000
                                                         13.029000000        0.616462000
                                                          1.827730000        0.221006000
                         s       3    1.00
                                                         20.964200000        0.114660000
                                                          4.803310000        0.919999000
                                                          1.459330000       -0.003030680
                         p       3    1.00
                                                         20.964200000        0.040248700
                                                          4.803310000        0.237594000
                                                          1.459330000        0.815854000
                         s       1    1.00
                                                          0.483456000        1.000000000
                         p       1    1.00
                                                          0.483456000        1.000000000
                         s       1    1.00
                                                          0.145585000        1.000000000
                         p       1    1.00
                                                          0.145585000        1.000000000
                         d       1    1.00
                                                          0.626000000        1.000000000
                         s       1    1.00
                                                          0.043800000        1.000000000
                         p       1    1.00
                                                          0.043800000        1.000000000
    
        3       0
                         s       6    1.00
                                                       4563.240000000        0.001966650
                                                        682.024000000        0.015230600
                                                        154.973000000        0.076126900
                                                         44.455300000        0.260801000
                                                         13.029000000        0.616462000
                                                          1.827730000        0.221006000
                         s       3    1.00
                                                         20.964200000        0.114660000
                                                          4.803310000        0.919999000
                                                          1.459330000       -0.003030680
                         p       3    1.00
                                                         20.964200000        0.040248700
                                                          4.803310000        0.237594000
                                                          1.459330000        0.815854000
                         s       1    1.00
                                                          0.483456000        1.000000000
                         p       1    1.00
                                                          0.483456000        1.000000000
                         s       1    1.00
                                                          0.145585000        1.000000000
                         p       1    1.00
                                                          0.145585000        1.000000000
                         d       1    1.00
                                                          0.626000000        1.000000000
                         s       1    1.00
                                                          0.043800000        1.000000000
                         p       1    1.00
                                                          0.043800000        1.000000000
    
        4       0
                         s       6    1.00
                                                       4563.240000000        0.001966650
                                                        682.024000000        0.015230600
                                                        154.973000000        0.076126900
                                                         44.455300000        0.260801000
                                                         13.029000000        0.616462000
                                                          1.827730000        0.221006000
                         s       3    1.00
                                                         20.964200000        0.114660000
                                                          4.803310000        0.919999000
                                                          1.459330000       -0.003030680
                         p       3    1.00
                                                         20.964200000        0.040248700
                                                          4.803310000        0.237594000
                                                          1.459330000        0.815854000
                         s       1    1.00
                                                          0.483456000        1.000000000
                         p       1    1.00
                                                          0.483456000        1.000000000
                         s       1    1.00
                                                          0.145585000        1.000000000
                         p       1    1.00
                                                          0.145585000        1.000000000
                         d       1    1.00
                                                          0.626000000        1.000000000
                         s       1    1.00
                                                          0.043800000        1.000000000
                         p       1    1.00
                                                          0.043800000        1.000000000
    
        5       0
                         s       6    1.00
                                                       4563.240000000        0.001966650
                                                        682.024000000        0.015230600
                                                        154.973000000        0.076126900
                                                         44.455300000        0.260801000
                                                         13.029000000        0.616462000
                                                          1.827730000        0.221006000
                         s       3    1.00
                                                         20.964200000        0.114660000
                                                          4.803310000        0.919999000
                                                          1.459330000       -0.003030680
                         p       3    1.00
                                                         20.964200000        0.040248700
                                                          4.803310000        0.237594000
                                                          1.459330000        0.815854000
                         s       1    1.00
                                                          0.483456000        1.000000000
                         p       1    1.00
                                                          0.483456000        1.000000000
                         s       1    1.00
                                                          0.145585000        1.000000000
                         p       1    1.00
                                                          0.145585000        1.000000000
                         d       1    1.00
                                                          0.626000000        1.000000000
                         s       1    1.00
                                                          0.043800000        1.000000000
                         p       1    1.00
                                                          0.043800000        1.000000000
    
        6       0
                         s       6    1.00
                                                       4563.240000000        0.001966650
                                                        682.024000000        0.015230600
                                                        154.973000000        0.076126900
                                                         44.455300000        0.260801000
                                                         13.029000000        0.616462000
                                                          1.827730000        0.221006000
                         s       3    1.00
                                                         20.964200000        0.114660000
                                                          4.803310000        0.919999000
                                                          1.459330000       -0.003030680
                         p       3    1.00
                                                         20.964200000        0.040248700
                                                          4.803310000        0.237594000
                                                          1.459330000        0.815854000
                         s       1    1.00
                                                          0.483456000        1.000000000
                         p       1    1.00
                                                          0.483456000        1.000000000
                         s       1    1.00
                                                          0.145585000        1.000000000
                         p       1    1.00
                                                          0.145585000        1.000000000
                         d       1    1.00
                                                          0.626000000        1.000000000
                         s       1    1.00
                                                          0.043800000        1.000000000
                         p       1    1.00
                                                          0.043800000        1.000000000
    
        7       0
                         s       6    1.00
                                                       4563.240000000        0.001966650
                                                        682.024000000        0.015230600
                                                        154.973000000        0.076126900
                                                         44.455300000        0.260801000
                                                         13.029000000        0.616462000
                                                          1.827730000        0.221006000
                         s       3    1.00
                                                         20.964200000        0.114660000
                                                          4.803310000        0.919999000
                                                          1.459330000       -0.003030680
                         p       3    1.00
                                                         20.964200000        0.040248700
                                                          4.803310000        0.237594000
                                                          1.459330000        0.815854000
                         s       1    1.00
                                                          0.483456000        1.000000000
                         p       1    1.00
                                                          0.483456000        1.000000000
                         s       1    1.00
                                                          0.145585000        1.000000000
                         p       1    1.00
                                                          0.145585000        1.000000000
                         d       1    1.00
                                                          0.626000000        1.000000000
                         s       1    1.00
                                                          0.043800000        1.000000000
                         p       1    1.00
                                                          0.043800000        1.000000000
    
        8       0
                         s       6    1.00
                                                       4563.240000000        0.001966650
                                                        682.024000000        0.015230600
                                                        154.973000000        0.076126900
                                                         44.455300000        0.260801000
                                                         13.029000000        0.616462000
                                                          1.827730000        0.221006000
                         s       3    1.00
                                                         20.964200000        0.114660000
                                                          4.803310000        0.919999000
                                                          1.459330000       -0.003030680
                         p       3    1.00
                                                         20.964200000        0.040248700
                                                          4.803310000        0.237594000
                                                          1.459330000        0.815854000
                         s       1    1.00
                                                          0.483456000        1.000000000
                         p       1    1.00
                                                          0.483456000        1.000000000
                         s       1    1.00
                                                          0.145585000        1.000000000
                         p       1    1.00
                                                          0.145585000        1.000000000
                         d       1    1.00
                                                          0.626000000        1.000000000
                         s       1    1.00
                                                          0.043800000        1.000000000
                         p       1    1.00
                                                          0.043800000        1.000000000
    
        9       0
                         s       6    1.00
                                                       4563.240000000        0.001966650
                                                        682.024000000        0.015230600
                                                        154.973000000        0.076126900
                                                         44.455300000        0.260801000
                                                         13.029000000        0.616462000
                                                          1.827730000        0.221006000
                         s       3    1.00
                                                         20.964200000        0.114660000
                                                          4.803310000        0.919999000
                                                          1.459330000       -0.003030680
                         p       3    1.00
                                                         20.964200000        0.040248700
                                                          4.803310000        0.237594000
                                                          1.459330000        0.815854000
                         s       1    1.00
                                                          0.483456000        1.000000000
                         p       1    1.00
                                                          0.483456000        1.000000000
                         s       1    1.00
                                                          0.145585000        1.000000000
                         p       1    1.00
                                                          0.145585000        1.000000000
                         d       1    1.00
                                                          0.626000000        1.000000000
                         s       1    1.00
                                                          0.043800000        1.000000000
                         p       1    1.00
                                                          0.043800000        1.000000000
    
       10       0
                         s       6    1.00
                                                       4563.240000000        0.001966650
                                                        682.024000000        0.015230600
                                                        154.973000000        0.076126900
                                                         44.455300000        0.260801000
                                                         13.029000000        0.616462000
                                                          1.827730000        0.221006000
                         s       3    1.00
                                                         20.964200000        0.114660000
                                                          4.803310000        0.919999000
                                                          1.459330000       -0.003030680
                         p       3    1.00
                                                         20.964200000        0.040248700
                                                          4.803310000        0.237594000
                                                          1.459330000        0.815854000
                         s       1    1.00
                                                          0.483456000        1.000000000
                         p       1    1.00
                                                          0.483456000        1.000000000
                         s       1    1.00
                                                          0.145585000        1.000000000
                         p       1    1.00
                                                          0.145585000        1.000000000
                         d       1    1.00
                                                          0.626000000        1.000000000
                         s       1    1.00
                                                          0.043800000        1.000000000
                         p       1    1.00
                                                          0.043800000        1.000000000
    
       11       0
                         s       3    1.00
                                                         33.865000000        0.025493800
                                                          5.094790000        0.190373000
                                                          1.158790000        0.852161000
                         s       1    1.00
                                                          0.325840000        1.000000000
                         s       1    1.00
                                                          0.102741000        1.000000000
                         p       1    1.00
                                                          0.750000000        1.000000000
                         s       1    1.00
                                                          0.036000000        1.000000000
    
       12       0
                         s       3    1.00
                                                         33.865000000        0.025493800
                                                          5.094790000        0.190373000
                                                          1.158790000        0.852161000
                         s       1    1.00
                                                          0.325840000        1.000000000
                         s       1    1.00
                                                          0.102741000        1.000000000
                         p       1    1.00
                                                          0.750000000        1.000000000
                         s       1    1.00
                                                          0.036000000        1.000000000
    
       13       0
                         s       3    1.00
                                                         33.865000000        0.025493800
                                                          5.094790000        0.190373000
                                                          1.158790000        0.852161000
                         s       1    1.00
                                                          0.325840000        1.000000000
                         s       1    1.00
                                                          0.102741000        1.000000000
                         p       1    1.00
                                                          0.750000000        1.000000000
                         s       1    1.00
                                                          0.036000000        1.000000000
    
       14       0
                         s       3    1.00
                                                         33.865000000        0.025493800
                                                          5.094790000        0.190373000
                                                          1.158790000        0.852161000
                         s       1    1.00
                                                          0.325840000        1.000000000
                         s       1    1.00
                                                          0.102741000        1.000000000
                         p       1    1.00
                                                          0.750000000        1.000000000
                         s       1    1.00
                                                          0.036000000        1.000000000
    
       15       0
                         s       3    1.00
                                                         33.865000000        0.025493800
                                                          5.094790000        0.190373000
                                                          1.158790000        0.852161000
                         s       1    1.00
                                                          0.325840000        1.000000000
                         s       1    1.00
                                                          0.102741000        1.000000000
                         p       1    1.00
                                                          0.750000000        1.000000000
                         s       1    1.00
                                                          0.036000000        1.000000000
    
       16       0
                         s       3    1.00
                                                         33.865000000        0.025493800
                                                          5.094790000        0.190373000
                                                          1.158790000        0.852161000
                         s       1    1.00
                                                          0.325840000        1.000000000
                         s       1    1.00
                                                          0.102741000        1.000000000
                         p       1    1.00
                                                          0.750000000        1.000000000
                         s       1    1.00
                                                          0.036000000        1.000000000
    
       17       0
                         s       3    1.00
                                                         33.865000000        0.025493800
                                                          5.094790000        0.190373000
                                                          1.158790000        0.852161000
                         s       1    1.00
                                                          0.325840000        1.000000000
                         s       1    1.00
                                                          0.102741000        1.000000000
                         p       1    1.00
                                                          0.750000000        1.000000000
                         s       1    1.00
                                                          0.036000000        1.000000000
    
       18       0
                         s       3    1.00
                                                         33.865000000        0.025493800
                                                          5.094790000        0.190373000
                                                          1.158790000        0.852161000
                         s       1    1.00
                                                          0.325840000        1.000000000
                         s       1    1.00
                                                          0.102741000        1.000000000
                         p       1    1.00
                                                          0.750000000        1.000000000
                         s       1    1.00
                                                          0.036000000        1.000000000
    
       19       0
                         s       3    1.00
                                                         33.865000000        0.025493800
                                                          5.094790000        0.190373000
                                                          1.158790000        0.852161000
                         s       1    1.00
                                                          0.325840000        1.000000000
                         s       1    1.00
                                                          0.102741000        1.000000000
                         p       1    1.00
                                                          0.750000000        1.000000000
                         s       1    1.00
                                                          0.036000000        1.000000000
    
       20       0
                         s       3    1.00
                                                         33.865000000        0.025493800
                                                          5.094790000        0.190373000
                                                          1.158790000        0.852161000
                         s       1    1.00
                                                          0.325840000        1.000000000
                         s       1    1.00
                                                          0.102741000        1.000000000
                         p       1    1.00
                                                          0.750000000        1.000000000
                         s       1    1.00
                                                          0.036000000        1.000000000
    
       21       0
                         s       3    1.00
                                                         33.865000000        0.025493800
                                                          5.094790000        0.190373000
                                                          1.158790000        0.852161000
                         s       1    1.00
                                                          0.325840000        1.000000000
                         s       1    1.00
                                                          0.102741000        1.000000000
                         p       1    1.00
                                                          0.750000000        1.000000000
                         s       1    1.00
                                                          0.036000000        1.000000000
    
       22       0
                         s       3    1.00
                                                         33.865000000        0.025493800
                                                          5.094790000        0.190373000
                                                          1.158790000        0.852161000
                         s       1    1.00
                                                          0.325840000        1.000000000
                         s       1    1.00
                                                          0.102741000        1.000000000
                         p       1    1.00
                                                          0.750000000        1.000000000
                         s       1    1.00
                                                          0.036000000        1.000000000
    
       23       0
                         s       3    1.00
                                                         33.865000000        0.025493800
                                                          5.094790000        0.190373000
                                                          1.158790000        0.852161000
                         s       1    1.00
                                                          0.325840000        1.000000000
                         s       1    1.00
                                                          0.102741000        1.000000000
                         p       1    1.00
                                                          0.750000000        1.000000000
                         s       1    1.00
                                                          0.036000000        1.000000000
    
       24       0
                         s       3    1.00
                                                         33.865000000        0.025493800
                                                          5.094790000        0.190373000
                                                          1.158790000        0.852161000
                         s       1    1.00
                                                          0.325840000        1.000000000
                         s       1    1.00
                                                          0.102741000        1.000000000
                         p       1    1.00
                                                          0.750000000        1.000000000
                         s       1    1.00
                                                          0.036000000        1.000000000
    
       25       0
                         s       3    1.00
                                                         33.865000000        0.025493800
                                                          5.094790000        0.190373000
                                                          1.158790000        0.852161000
                         s       1    1.00
                                                          0.325840000        1.000000000
                         s       1    1.00
                                                          0.102741000        1.000000000
                         p       1    1.00
                                                          0.750000000        1.000000000
                         s       1    1.00
                                                          0.036000000        1.000000000
    
       26       0
                         s       3    1.00
                                                         33.865000000        0.025493800
                                                          5.094790000        0.190373000
                                                          1.158790000        0.852161000
                         s       1    1.00
                                                          0.325840000        1.000000000
                         s       1    1.00
                                                          0.102741000        1.000000000
                         p       1    1.00
                                                          0.750000000        1.000000000
                         s       1    1.00
                                                          0.036000000        1.000000000
    
 [5D7F]
 [9G]
 [MO]
Ene=   -1.0166451011E+01
Spin= Alpha
Occup=   2.0000000
     1  2.985768757E-02
     2  2.455361181E-02
     3 -1.295451534E-05
     4 -1.107448039E-04
     5 -6.916664587E-08
     6  1.241593924E-03
     7  1.057096380E-04
     8  7.454285311E-04
     9 -1.014196211E-05
    10 -2.340763216E-03
    11 -6.441666030E-04
    12  1.332206012E-03
    13  5.575995454E-04
    14 -5.714544857E-07
    15 -7.430663092E-05
    16 -1.326914816E-04
    17 -9.912505016E-06
    18 -1.293400655E-04
    19 -4.277531791E-03
    20 -1.350016982E-03
    21 -4.592135073E-03
    22  5.589367982E-04
    23  4.852539338E-03
    24  4.014734415E-03
    25  1.060286006E-04
    26 -3.289809392E-05
    27 -1.121188081E-04
    28 -7.804987453E-04
    29 -8.888177574E-05
    30 -1.821322901E-04
    31 -1.254200743E-06
    32  1.542896502E-02
    33  5.633288197E-03
    34  3.447852600E-03
    35 -2.276529549E-03
    36 -1.440781396E-04
    37  4.597135593E-04
    38 -3.634894402E-04
    39  4.764969347E-07
    40  2.591814950E-04
    41  1.339470646E-02
    42  2.534678532E-03
    43  2.051186811E-03
    44 -3.560317747E-03
    45  3.627749740E-04
    46  3.001677962E-04
    47 -6.168486106E-06
    48  3.307190161E-05
    49 -5.054906459E-06
    50 -5.820451201E-05
    51 -2.933579370E-05
    52 -1.282207619E-04
    53  1.342890364E-05
    54  1.151491507E-03
    55  2.246045009E-04
    56  2.422060289E-03
    57 -4.928368984E-04
    58  2.122785852E-05
    59  2.154363503E-06
    60  1.035767862E-04
    61 -3.973919340E-05
    62  1.379793624E-05
    63  1.006971096E-03
    64  6.691796999E-04
    65  5.060452868E-03
    66 -2.468348301E-04
    67 -4.127875885E-01
    68 -3.394596130E-01
    69 -3.315560616E-06
    70  1.045542704E-05
    71 -8.002005302E-05
    72 -1.709230340E-02
    73  5.590996907E-05
    74  1.395271337E-04
    75  3.874034077E-04
    76  3.119507862E-02
    77 -1.798860589E-03
    78 -1.104440635E-02
    79  8.701197129E-03
    80 -6.686339530E-05
    81  1.134874481E-04
    82  6.402727096E-04
    83  5.255823736E-04
    84 -1.767299672E-04
    85  5.678251976E-02
    86 -1.763588912E-03
    87 -9.971580551E-03
    88  4.071138405E-03
    89 -4.536885222E-03
    90 -3.753158494E-03
    91 -1.307091796E-04
    92 -1.608169884E-05
    93  1.368799384E-04
    94  7.091699593E-04
    95  7.678685960E-06
    96 -1.919036499E-04
    97  1.683886241E-05
    98 -1.424497522E-02
    99 -4.279161504E-03
   100  4.446826604E-03
   101  2.574720139E-03
   102  1.318117946E-04
   103 -5.379162432E-04
   104 -1.478645541E-04
   105  1.890425118E-04
   106  1.751319938E-04
   107 -1.204197849E-02
   108 -1.985816676E-03
   109  2.253067080E-03
   110  3.845001485E-03
   111 -3.690919261E-04
   112 -3.053108475E-04
   113 -5.149996730E-05
   114 -3.167931695E-04
   115 -5.312290132E-06
   116  5.736347216E-05
   117 -3.114525771E-05
   118 -1.485575995E-04
   119  1.420371731E-05
   120 -1.150964350E-03
   121 -6.992281767E-04
   122 -4.334238493E-03
   123 -4.913694310E-04
   124 -2.119997001E-05
   125  6.407116990E-05
   126  3.938555453E-04
   127 -4.034525405E-05
   128  1.400805490E-05
   129 -9.256134033E-04
   130 -7.992255618E-04
   131 -5.238447309E-03
   132 -2.249221733E-04
   133  8.022828584E-04
   134  6.598351881E-04
   135 -2.176654418E-05
   136 -1.093381456E-04
   137  5.934925300E-06
   138  2.861886124E-05
   139  1.498122502E-04
   140  7.385218075E-04
   141 -4.087764530E-05
   142  1.745515234E-05
   143  2.660711204E-04
   144  1.177106847E-03
   145 -4.018370807E-05
   146 -1.084048549E-05
   147 -1.633343520E-05
   148 -1.424293586E-04
   149  3.476147026E-05
   150  1.206351243E-04
   151  1.027966953E-04
   152 -9.528418728E-04
   153 -4.668891021E-03
   154  2.234972627E-04
   155 -4.857246642E-03
   156 -4.018588854E-03
   157  1.174883836E-04
   158 -4.859599325E-05
   159  1.279782501E-04
   160  7.801309964E-04
   161 -8.882020967E-05
   162 -1.830447061E-04
   163  1.713719342E-05
   164 -1.542630665E-02
   165  5.850516319E-03
   166  3.145157730E-03
   167  2.386959523E-03
   168  1.440606182E-04
   169  4.732995854E-04
   170 -3.543265266E-04
   171  2.564617524E-05
   172 -2.679962652E-04
   173 -1.339500971E-02
   174  2.862953032E-03
   175  1.595276928E-03
   176  3.571377443E-03
   177  3.816297558E-01
   178  3.138364422E-01
   179 -4.745847164E-06
   180  1.492253882E-06
   181  8.581705700E-05
   182  1.580556432E-02
   183  6.304271089E-05
   184  1.850117158E-04
   185 -4.376288946E-04
   186 -2.885465556E-02
   187 -1.644026750E-03
   188 -1.013543950E-02
   189 -8.182380788E-03
   190  7.828949571E-05
   191  1.035686794E-04
   192  5.812311626E-04
   193 -4.999056323E-04
   194  1.677357070E-04
   195 -5.262644082E-02
   196 -1.694980698E-03
   197 -9.603088617E-03
   198 -3.278684713E-03
   199  4.529142526E-03
   200  3.746849183E-03
   201 -1.147393009E-04
   202 -4.988684744E-06
   203 -1.210251145E-04
   204 -7.101965035E-04
   205  7.847996640E-06
   206 -1.908660561E-04
   207 -9.352039856E-07
   208  1.424051296E-02
   209 -3.977766218E-03
   210  4.666135546E-03
   211 -2.464440940E-03
   212 -1.317891622E-04
   213 -5.278121287E-04
   214 -1.607747226E-04
   215 -1.629462542E-04
   216 -1.840430256E-04
   217  1.197489305E-02
   218 -1.521426256E-03
   219  2.570545986E-03
   220 -3.837687477E-03
   221  1.783676490E-04
   222 -3.028422057E-03
   223  1.065166053E-03
   224 -2.027297312E-04
   225 -1.191602422E-03
   226 -8.086143852E-04
   227 -2.555185644E-04
   228 -1.156171293E-06
   229  1.059987444E-04
   230 -1.756915656E-04
   231 -2.402133556E-05
   232 -4.637253189E-05
   233  2.470471995E-05
   234 -2.181339990E-06
   235  4.293125319E-05
   236 -1.820169023E-03
   237  9.229294133E-04
   238  3.168781921E-04
   239 -2.080172772E-04
   240 -1.716408077E-04
   241 -1.585528058E-03
   242 -9.658251429E-06
   243 -9.645420157E-04
   244  2.691987080E-03
   245  3.662636190E-05
   246 -2.829333708E-04
   247  1.010831496E-04
   248  9.276889080E-04
   249  1.415238484E-06
   250 -1.818299413E-05
   251 -1.170382213E-05
   252 -7.877716397E-06
   253 -5.690706652E-05
   254  5.254000048E-06
   255 -1.583450230E-05
   256  4.953549580E-05
   257 -8.661672159E-04
   258 -1.413962623E-03
   259  9.201973254E-06
   260  5.733388306E-05
   261  1.189911113E-04
   262 -2.215608445E-03
   263  1.278531030E-06
   264  1.183466329E-03
   265 -2.618779992E-03
   266 -1.436183577E-04
   267 -2.921364427E-04
   268 -1.154659018E-04
   269 -6.069441585E-04
   270 -4.201704046E-05
   271  1.852907090E-03
   272 -1.243868757E-03
   273 -3.899417826E-04
   274 -1.016831249E-04
   275  1.770909567E-04
   276  1.332591742E-03
   277 -1.925358928E-04
   278  3.273131075E-03
   279 -1.155041336E-03
   280 -2.182242022E-04
   281 -1.284294697E-03
   282  8.814072659E-04
   283  2.632160986E-04
   284 -1.846502532E-06
   285  1.224046161E-04
   286 -1.137642666E-04
   287  7.280808368E-06
   288 -5.179045439E-05
   289  2.509720141E-05
   290  6.190315195E-05
   291 -3.936380371E-05
   292  1.764228148E-03
   293 -1.036866595E-03
   294  3.091533121E-04
   295 -2.054392337E-04
   296  1.724180545E-04
   297  1.413717932E-03
   298  6.030943892E-06
   299  1.023384605E-03
   300 -2.565725463E-03
   301  3.669170842E-05
   302 -2.919118021E-04
   303 -1.010228461E-04
   304 -7.583896517E-04
   305  1.280500580E-05
   306 -2.237353147E-04
   307  9.621996594E-05
   308 -9.882160476E-05
   309 -4.171260857E-05
   310  6.628797157E-05
   311 -1.778731209E-06
   312 -4.655486001E-05
   313  6.401167547E-04
   314  1.701464867E-03
   315  3.882346666E-06
   316  2.662054136E-05
   317 -6.958732643E-05
   318  2.164059385E-03
   319 -4.714321930E-06
   320 -1.126126721E-03
   321  2.739785636E-03
   322 -1.409396077E-04
   323 -2.838707670E-04
   324  1.158581676E-04
   325  7.756625629E-04
   326  4.579069052E-05
   327 -1.910408592E-03
   328  1.125733350E-03
   329 -3.983594312E-04
   330 -1.018169092E-04
   331 -1.766513327E-04
   332 -1.501952467E-03
Ene=   -1.0166450997E+01
Spin= Alpha
Occup=   2.0000000
     1  4.142369314E-01
     2  3.406514958E-01
     3  1.098020347E-05
     4  3.605707734E-06
     5 -7.968055358E-05
     6  1.715226218E-02
     7  1.366838771E-04
     8 -5.797975095E-05
     9  3.845685900E-04
    10 -3.130445471E-02
    11 -1.108843354E-02
    12  1.802270778E-03
    13  8.724546301E-03
    14  6.622449640E-05
    15 -6.430234547E-04
    16  1.144230306E-04
    17  5.268087399E-04
    18 -1.767148877E-04
    19 -5.698864057E-02
    20 -9.988174719E-03
    21  1.785247444E-03
    22  4.109080768E-03
    23  4.519214418E-03
    24  3.738541444E-03
    25 -1.704872899E-05
    26  1.316414625E-04
    27  1.380628723E-04
    28 -7.063867900E-04
    29 -1.915598686E-04
    30 -7.057439965E-06
    31  1.774849548E-05
    32  1.418976979E-02
    33  4.414914987E-03
    34  4.282856576E-03
    35  2.587162133E-03
    36 -1.312861817E-04
    37  1.455525049E-04
    38 -5.370575096E-04
    39  1.904134559E-04
    40  1.737363981E-04
    41  1.201168512E-02
    42  2.227787782E-03
    43  2.007461165E-03
    44  3.854715272E-03
    45  4.076182316E-04
    46  3.371913689E-04
    47 -3.166614853E-04
    48  5.138761355E-05
    49 -5.853035808E-06
    50 -6.353377587E-05
    51 -1.484260392E-04
    52  3.148615577E-05
    53  1.562076767E-05
    54  1.273068998E-03
    55 -4.333437952E-03
    56  6.913103998E-04
    57 -5.434335835E-04
    58  2.343588200E-05
    59 -3.937246868E-04
    60  6.370125955E-05
    61 -4.455335331E-05
    62  1.546942988E-05
    63  1.064940584E-03
    64 -5.238056529E-03
    65  7.867296246E-04
    66 -2.586403497E-04
    67 -1.105463319E-03
    68 -9.091540969E-04
    69 -1.092114398E-04
    70  2.220887765E-05
    71  6.525662144E-06
    72 -4.129515305E-05
    73  7.376995884E-04
    74 -1.526649844E-04
    75 -4.495939663E-05
    76  7.174839261E-06
    77  1.174255585E-03
    78 -2.792220657E-04
    79 -4.001949509E-05
    80  1.168837576E-05
    81  1.425426119E-04
    82 -1.525370245E-05
    83  3.441170773E-05
    84  1.206898804E-04
    85  1.235836253E-05
    86 -4.670065835E-03
    87  9.552456246E-04
    88  2.668438790E-04
    89  4.870762239E-03
    90  4.029756285E-03
    91 -4.900306888E-05
    92 -1.180285618E-04
    93  1.283470617E-04
    94 -7.820841630E-04
    95 -1.830583512E-04
    96  8.947818967E-05
    97  1.792552809E-05
    98  1.546707205E-02
    99  3.141144940E-03
   100 -5.875262318E-03
   101  2.384026252E-03
   102 -1.444354184E-04
   103  3.555226979E-04
   104  4.743516207E-04
   105  2.640615385E-05
   106 -2.689585363E-04
   107  1.337534059E-02
   108  1.567411374E-03
   109 -2.879530041E-03
   110  3.560448633E-03
   111 -4.012480508E-04
   112 -3.320015706E-04
   113  3.323528123E-05
   114  7.205433471E-06
   115 -5.598084590E-06
   116  6.436416949E-05
   117 -1.280893366E-04
   118  2.989583633E-05
   119  1.488648408E-05
   120 -1.273268815E-03
   121  2.423500668E-03
   122 -2.109142416E-04
   123 -5.449125812E-04
   124 -2.347448746E-05
   125 -1.037595339E-04
   126  7.874770805E-07
   127 -4.395372930E-05
   128  1.526262673E-05
   129 -1.099966576E-03
   130  5.062739259E-03
   131 -6.546844131E-04
   132 -2.687030976E-04
   133 -3.798121845E-01
   134 -3.123417401E-01
   135  1.079976789E-06
   136  5.183464076E-06
   137  8.608264748E-05
   138 -1.573036864E-02
   139  1.868916894E-04
   140 -6.584503275E-05
   141 -4.400892438E-04
   142  2.871709664E-02
   143 -1.008301560E-02
   144  1.630944131E-03
   145 -8.151473381E-03
   146 -7.884441220E-05
   147 -5.777724703E-04
   148  1.034615383E-04
   149 -4.984899272E-04
   150  1.667931356E-04
   151  5.237319568E-02
   152 -9.570975927E-03
   153  1.706725215E-03
   154 -3.238495913E-03
   155 -4.511147122E-03
   156 -3.731978081E-03
   157 -4.769511596E-06
   158  1.139854350E-04
   159 -1.205343948E-04
   160  7.075707876E-04
   161 -1.904560348E-04
   162 -7.218552887E-06
   163 -1.719337896E-07
   164 -1.418570024E-02
   165  4.657760998E-03
   166  3.949373831E-03
   167 -2.464955554E-03
   168  1.312793487E-04
   169  1.598230584E-04
   170 -5.259154730E-04
   171 -1.615794761E-04
   172 -1.835689960E-04
   173 -1.196704899E-02
   174  2.585801875E-03
   175  1.495467668E-03
   176 -3.846553173E-03
   177 -3.280604172E-02
   178 -2.697822554E-02
   179 -1.107670991E-04
   180  1.245112864E-05
   181 -3.716556412E-08
   182 -1.363545355E-03
   183  7.453422155E-04
   184 -1.038030125E-04
   185 -1.144890568E-05
   186  2.562645831E-03
   187  1.345705874E-03
   188  7.267126227E-04
   189  6.127877360E-04
   190  9.287219843E-07
   191  1.317729640E-04
   192 -7.939133899E-05
   193 -6.876327071E-06
   194 -1.303363460E-04
   195  4.637907704E-03
   196 -4.584384771E-03
   197  1.393413573E-03
   198  6.089802183E-04
   199 -4.866099105E-03
   200 -4.025946055E-03
   201 -3.163921021E-05
   202 -1.053611383E-04
   203 -1.108156250E-04
   204  7.825343534E-04
   205 -1.820731259E-04
   206  8.952371595E-05
   207 -3.685553351E-07
   208 -1.547095382E-02
   209  3.476181749E-03
   210 -5.634916590E-03
   211 -2.261699674E-03
   212  1.444688091E-04
   213  3.656575416E-04
   214  4.593640042E-04
   215  2.454906123E-06
   216  2.592059132E-04
   217 -1.341474434E-02
   218  2.078511758E-03
   219 -2.522967195E-03
   220 -3.547524944E-03
   221 -1.415438019E-05
   222  2.469091943E-04
   223 -1.041322413E-04
   224 -4.019093004E-05
   225  1.077554965E-04
   226  7.289034033E-05
   227  9.260750552E-07
   228  4.636799563E-05
   229 -6.277788364E-04
   230 -1.717143947E-03
   231  2.499674373E-05
   232 -3.430849956E-06
   233 -6.694509611E-05
   234 -2.159711822E-03
   235  4.748468124E-06
   236  1.128790096E-03
   237 -2.748576248E-03
   238 -2.843907968E-04
   239  1.414334474E-04
   240  1.164227274E-04
   241 -7.802649599E-04
   242 -4.595452520E-05
   243  1.916204397E-03
   244 -1.127685678E-03
   245 -1.019037768E-04
   246  3.996410583E-04
   247 -1.769183903E-04
   248  1.506977791E-03
   249 -1.775409872E-04
   250  3.014199099E-03
   251 -1.060047283E-03
   252 -1.186152033E-03
   253  2.020148862E-04
   254 -8.044066479E-04
   255  2.544287663E-04
   256  1.113228276E-06
   257 -1.152628384E-04
   258  1.937124499E-04
   259 -4.609800258E-05
   260  2.550529220E-05
   261  2.701976430E-05
   262  4.773683005E-06
   263 -4.309696395E-05
   264  1.818613731E-03
   265 -9.068521820E-04
   266 -2.076247514E-04
   267 -3.162296596E-04
   268 -1.711680529E-04
   269  1.595737910E-03
   270  1.002047238E-05
   271  9.547276614E-04
   272 -2.692701173E-03
   273 -2.810680939E-04
   274 -3.627097025E-05
   275  1.004611218E-04
   276 -9.413057873E-04
   277 -1.577236098E-06
   278  2.070715701E-05
   279  9.477075520E-06
   280 -5.700218693E-05
   281  7.150486974E-06
   282  6.241250935E-06
   283  1.877288904E-05
   284 -4.968264786E-05
   285  8.778922668E-04
   286  1.397581224E-03
   287  5.898011314E-05
   288 -9.313786466E-06
   289  1.215736557E-04
   290  2.219477586E-03
   291 -9.177179876E-07
   292 -1.192286796E-03
   293  2.616335607E-03
   294 -2.935065689E-04
   295  1.443952437E-04
   296 -1.159822521E-04
   297  5.922242591E-04
   298  4.181240971E-05
   299 -1.852707250E-03
   300  1.260080844E-03
   301 -1.017508568E-04
   302  3.903129583E-04
   303  1.773869351E-04
   304 -1.320654013E-03
   305  1.932097871E-04
   306 -3.284607456E-03
   307  1.159471722E-03
   308 -1.288553765E-03
   309  2.191321060E-04
   310  8.848284047E-04
   311 -2.646234611E-04
   312  2.150371802E-06
   313 -1.368180882E-04
   314  1.233272730E-04
   315 -5.208171057E-05
   316 -9.054370286E-06
   317  2.802788105E-05
   318 -6.830763103E-05
   319  3.918375242E-05
   320 -1.756866144E-03
   321  1.034370887E-03
   322 -2.047618516E-04
   323 -3.076765087E-04
   324  1.720119530E-04
   325 -1.405190842E-03
   326 -5.989504668E-06
   327 -1.019809174E-03
   328  2.554034812E-03
   329 -2.909707985E-04
   330 -3.634726007E-05
   331 -1.003882470E-04
   332  7.523196232E-04
Ene=   -1.0166450824E+01
Spin= Alpha
Occup=   2.0000000
     1  2.554674279E-01
     2  2.100867068E-01
     3  8.127117668E-05
     4 -7.040799440E-06
     5  5.815362338E-05
     6  1.056692749E-02
     7 -4.234487460E-04
     8  2.639844884E-05
     9 -4.856237127E-04
    10 -1.927566941E-02
    11 -7.604802469E-03
    12  1.235585278E-03
    13  4.173695610E-03
    14 -1.083032494E-04
    15 -4.914655722E-04
    16  9.007354038E-05
    17  1.992486457E-04
    18 -6.294789637E-05
    19 -3.467521518E-02
    20 -2.829784758E-03
    21  8.399219464E-04
    22  6.979951347E-03
    23 -5.309968510E-04
    24 -4.395231169E-04
    25 -1.080105115E-04
    26  1.384992694E-04
    27  1.426507280E-04
    28  8.875268447E-05
    29  1.219735828E-05
    30  1.529507949E-05
    31  1.443767186E-04
    32 -1.681047329E-03
    33 -2.575569593E-03
    34  2.312201711E-03
    35  9.789949000E-04
    36  1.578968942E-05
    37 -1.552770812E-04
    38 -3.497531505E-05
    39  2.266914303E-04
    40 -1.057583706E-04
    41 -1.027515311E-03
    42 -3.230749084E-03
    43  4.037758429E-03
    44  6.285231755E-05
    45  6.639528912E-03
    46  5.493067354E-03
    47  1.963396559E-05
    48 -4.956208255E-06
    49 -9.397218145E-05
    50 -1.050951181E-03
    51  1.062273896E-05
    52  5.171591480E-06
    53  2.505518081E-04
    54  2.091507583E-02
    55  2.521072250E-04
    56 -1.756962768E-04
    57 -8.941117927E-03
    58  3.852857888E-04
    59  2.382541646E-05
    60 -9.572245198E-06
    61 -7.265361980E-04
    62  2.523245551E-04
    63  1.768744079E-02
    64  2.851375978E-04
    65 -3.292482323E-04
    66 -4.323389859E-03
    67 -2.597114091E-01
    68 -2.135768765E-01
    69  1.976397269E-05
    70  7.934038254E-05
    71  5.726615966E-05
    72 -1.074183228E-02
    73 -1.120239273E-04
    74 -4.081257112E-04
    75 -4.809949154E-04
    76  1.959912772E-02
    77 -1.391317685E-03
    78 -7.690574842E-03
    79  4.258817900E-03
    80  1.072741427E-04
    81  7.486005064E-05
    82  5.007998579E-04
    83  2.000163078E-04
    84 -7.854278136E-05
    85  3.529247141E-02
    86 -3.139922195E-04
    87 -3.026397603E-03
    88  7.017581396E-03
    89 -6.266990038E-05
    90 -5.160059391E-05
    91 -1.346102023E-04
    92 -9.499727819E-05
    93  1.295307174E-04
    94  5.483342538E-06
    95  6.141621566E-06
    96  3.675197794E-07
    97  1.433371316E-04
    98 -1.923354444E-04
    99 -2.718212538E-03
   100 -1.883791221E-03
   101  7.241759421E-04
   102  1.664436035E-06
   103 -8.006750107E-05
   104  1.000934470E-04
   105  2.263002106E-04
   106 -7.417324272E-05
   107 -6.165050030E-04
   108 -4.258766987E-03
   109 -2.900181779E-03
   110 -3.254873820E-04
   111 -6.644057348E-03
   112 -5.496762199E-03
   113  8.053739932E-07
   114  1.701289619E-05
   115 -9.413675611E-05
   116  1.050420386E-03
   117  9.552830413E-06
   118  6.364883445E-06
   119  2.509817026E-04
   120 -2.091564384E-02
   121 -1.091621027E-04
   122  2.516574915E-04
   123 -8.940022527E-03
   124 -3.852511828E-04
   125  2.789598688E-06
   126 -2.174031649E-05
   127 -7.269435429E-04
   128  2.524624965E-04
   129 -1.771666865E-02
   130 -2.665865492E-04
   131  3.285748274E-04
   132 -4.329066752E-03
   133  3.054237568E-01
   134  2.511687098E-01
   135 -8.008858457E-05
   136  1.863068232E-05
   137  4.772968915E-05
   138  1.263641087E-02
   139  3.896382712E-04
   140 -1.006119023E-04
   141 -4.337126832E-04
   142 -2.306249167E-02
   143  8.915864126E-03
   144 -1.583054037E-03
   145  5.235113148E-03
   146 -9.890681020E-05
   147  5.708413021E-04
   148 -8.819375840E-05
   149  2.592640307E-04
   150 -9.765203016E-05
   151 -4.166130499E-02
   152  4.162667191E-03
   153 -5.412380478E-04
   154  7.455990747E-03
   155  5.537149777E-04
   156  4.578768095E-04
   157  9.702763122E-05
   158 -1.489645413E-04
   159  1.451924717E-04
   160 -8.353926542E-05
   161  2.086777518E-05
   162  5.673655210E-06
   163  1.443636346E-04
   164  1.748841163E-03
   165  1.389871192E-03
   166 -3.177446618E-03
   167  1.030303966E-03
   168 -1.608358061E-05
   169  8.525981106E-05
   170  1.392269011E-04
   171  2.467339747E-04
   172 -5.493284066E-05
   173  1.939911940E-03
   174  2.633321915E-03
   175 -4.454827372E-03
   176  1.438841606E-04
   177 -3.015445751E-01
   178 -2.479787540E-01
   179 -5.924921161E-06
   180 -8.211063218E-05
   181  4.853071967E-05
   182 -1.247365356E-02
   183  1.514645074E-05
   184  4.058713301E-04
   185 -4.375860842E-04
   186  2.275172627E-02
   187  1.427288406E-03
   188  8.830266680E-03
   189  5.149257350E-03
   190  9.993350620E-05
   191 -1.035470121E-04
   192 -5.623313618E-04
   193  2.590260517E-04
   194 -8.223822600E-05
   195  4.103803336E-02
   196  1.069247877E-03
   197  3.960144984E-03
   198  7.402572425E-03
   199  3.086550285E-05
   200  2.583676979E-05
   201  1.530552266E-04
   202  1.097566019E-04
   203  1.583109511E-04
   204 -1.179764587E-05
   205  1.519681833E-05
   206  9.844287717E-06
   207  1.454059686E-04
   208  1.243055313E-04
   209  2.770062959E-03
   210  2.083375092E-03
   211  1.285145116E-03
   212 -1.416349096E-06
   213  9.486165719E-05
   214 -1.399247557E-04
   215  2.471153401E-04
   216 -8.655562866E-05
   217 -2.657652416E-04
   218  4.227254438E-03
   219  2.972676328E-03
   220  5.355403236E-04
   221 -1.389508227E-04
   222  2.377751528E-03
   223 -8.619333282E-04
   224  1.539045265E-04
   225  8.984739181E-04
   226  6.999116408E-04
   227  1.418069336E-04
   228 -3.008018534E-05
   229  2.109375618E-03
   230 -2.523887136E-03
   231 -2.836490712E-04
   232  5.183413999E-05
   233  4.561261644E-04
   234  6.390151635E-04
   235  2.940908829E-05
   236 -4.858616382E-04
   237 -9.535870570E-04
   238  7.279767447E-05
   239 -2.117790511E-05
   240  7.827566149E-06
   241 -1.434307188E-03
   242 -3.033918745E-05
   243  4.673284237E-04
   244  1.046580780E-03
   245  3.244206259E-06
   246  7.080566162E-05
   247  7.507932636E-06
   248  1.406601548E-03
   249  1.407522855E-04
   250 -2.407609737E-03
   251  8.733822170E-04
   252  9.114375361E-04
   253 -1.493454845E-04
   254  7.080543685E-04
   255 -1.486888828E-04
   256  2.458725030E-05
   257 -2.021835341E-03
   258  2.707975626E-03
   259  5.133671718E-05
   260  2.785464301E-04
   261  4.450591021E-04
   262 -3.839804635E-04
   263 -2.950382292E-05
   264  3.421895188E-04
   265  1.270472249E-03
   266 -3.496531007E-06
   267 -3.778327535E-05
   268  2.210038508E-05
   269  1.506658355E-03
   270  3.539289470E-05
   271 -6.904698803E-04
   272 -8.925581708E-04
   273  1.179723126E-04
   274  8.794337358E-06
   275 -1.343698336E-05
   276 -1.563643270E-03
   277 -1.192748041E-04
   278  2.044306481E-03
   279 -7.462792145E-04
   280 -1.247848318E-04
   281 -7.690723736E-04
   282  6.108676935E-04
   283  1.121726838E-04
   284 -2.420031944E-05
   285  2.016839219E-03
   286 -2.717703354E-03
   287  2.794602793E-04
   288 -4.564967166E-05
   289  4.446166704E-04
   290  3.670273013E-04
   291  3.430922398E-05
   292 -5.420744950E-04
   293 -1.171773790E-03
   294 -7.209002092E-05
   295  2.654882498E-05
   296  3.024901338E-06
   297 -1.683544331E-03
   298 -3.652546485E-05
   299  5.872515529E-04
   300  1.191790851E-03
   301  5.126972391E-06
   302 -8.726484123E-05
   303 -2.939228248E-06
   304  1.672045493E-03
   305  1.175065001E-04
   306 -2.012400457E-03
   307  7.307263463E-04
   308 -7.548312374E-04
   309  1.291283143E-04
   310  6.018100248E-04
   311 -1.136491075E-04
   312  2.980708025E-05
   313 -2.103427580E-03
   314  2.539972681E-03
   315 -4.607854202E-05
   316 -2.841649521E-04
   317  4.553891341E-04
   318 -6.228608758E-04
   319 -3.416064363E-05
   320  6.870560066E-04
   321  8.578945037E-04
   322  4.429822038E-05
   323  1.075196799E-04
   324 -1.154168413E-05
   325  1.615611998E-03
   326  3.151873245E-05
   327 -3.627656591E-04
   328 -1.343489598E-03
   329 -3.968875653E-05
   330  6.841744629E-06
   331  1.829163496E-05
   332 -1.513275451E-03
Ene=   -1.0166427247E+01
Spin= Alpha
Occup=   2.0000000
     1 -2.812794410E-01
     2 -2.314791309E-01
     3 -7.224188498E-05
     4  1.217613391E-05
     5  5.274135527E-05
     6 -9.373571263E-03
     7  7.061178896E-04
     8 -1.175972081E-04
     9 -5.091204026E-04
    10  9.804936711E-03
    11 -9.226603627E-05
    12  2.603224156E-06
    13  5.676545221E-05
    14  8.496825206E-07
    15  6.102612003E-04
    16 -1.037175260E-04
    17 -4.167681502E-04
    18  1.434651466E-04
    19 -2.430791289E-02
    20 -9.567324125E-03
    21  1.594468800E-03
    22  6.810122488E-03
    23 -7.033940351E-03
    24 -5.730194312E-03
    25 -2.208993522E-04
    26 -1.583831174E-04
    27 -1.140130659E-07
    28 -9.156580152E-04
    29  6.181650700E-04
    30  4.432156671E-04
    31  1.410265094E-06
    32  7.725564067E-05
    33  1.311716126E-03
    34  9.689282961E-04
    35 -3.915412149E-05
    36 -2.302490950E-05
    37 -3.947394647E-04
    38  5.526006655E-04
    39  1.153732279E-05
    40  4.088053704E-05
    41  1.404344810E-02
    42  3.494320270E-03
    43  2.584268709E-03
    44 -7.759191927E-05
    45 -7.049796844E-03
    46 -5.742923121E-03
    47 -1.346567277E-07
    48  1.226213653E-08
    49  2.728756209E-04
    50 -9.238046199E-04
    51 -1.057959290E-07
    52  5.988672102E-08
    53 -7.624961889E-04
    54  9.671537567E-05
    55 -1.584007542E-06
    56 -8.184175471E-07
    57 -1.648755453E-03
    58  4.937963485E-05
    59 -2.232103859E-07
    60 -7.519362711E-09
    61  6.442643590E-04
    62 -2.215533851E-04
    63  1.445289747E-02
    64  1.113666866E-06
    65 -1.568031157E-06
    66 -4.467628131E-03
    67 -2.811060524E-01
    68 -2.313365491E-01
    69  1.207136459E-05
    70  7.221287367E-05
    71 -5.278303664E-05
    72 -9.366270523E-03
    73 -1.169048887E-04
    74 -7.060016897E-04
    75  5.094636495E-04
    76  9.790691973E-03
    77  4.459153844E-06
    78  9.781122163E-05
    79 -6.020963311E-05
    80  7.859920436E-07
    81  1.037678279E-04
    82  6.098937159E-04
    83  4.166563895E-04
    84 -1.432977273E-04
    85 -2.437129223E-02
    86  1.593528156E-03
    87  9.580819522E-03
    88 -6.818320062E-03
    89 -7.029764188E-03
    90 -5.726747913E-03
    91 -1.583213600E-04
    92  2.208637726E-04
    93  1.194885800E-07
    94 -9.162138505E-04
    95  4.430168062E-04
    96 -6.180849054E-04
    97 -1.425705747E-06
    98  8.944561406E-05
    99  9.739022080E-04
   100 -1.314644176E-03
   101  4.002702755E-05
   102 -2.314337455E-05
   103 -5.522638752E-04
   104 -3.943549114E-04
   105 -1.163351312E-05
   106 -4.105982508E-05
   107  1.403214746E-02
   108  2.585982255E-03
   109 -3.490609525E-03
   110  7.723247809E-05
   111 -7.045583979E-03
   112 -5.739427606E-03
   113  2.521853686E-08
   114  1.288664611E-07
   115 -2.728272208E-04
   116 -9.245976488E-04
   117  1.139916212E-08
   118  1.100313421E-07
   119  7.623870886E-04
   120  1.111420457E-04
   121  1.255531671E-06
   122  1.367422390E-06
   123  1.654782799E-03
   124  4.964017114E-05
   125 -8.432827844E-08
   126 -1.876988106E-07
   127 -6.438099939E-04
   128  2.213936466E-04
   129  1.450221178E-02
   130 -4.932390114E-07
   131 -8.705212120E-07
   132  4.477862004E-03
   133 -2.816448735E-01
   134 -2.317796548E-01
   135  7.226915823E-05
   136 -1.207858805E-05
   137  5.282198515E-05
   138 -9.388544520E-03
   139 -7.061104636E-04
   140  1.169098633E-04
   141 -5.095171968E-04
   142  9.830987358E-03
   143  8.337063143E-05
   144 -2.010467095E-06
   145  4.990429745E-05
   146  7.801058657E-07
   147 -6.107628891E-04
   148  1.039153905E-04
   149 -4.172381895E-04
   150  1.435015041E-04
   151 -2.434997449E-02
   152  9.575406398E-03
   153 -1.592313034E-03
   154  6.817777587E-03
   155 -7.034173780E-03
   156 -5.730381801E-03
   157  2.207985396E-04
   158  1.585338408E-04
   159 -3.056913769E-07
   160 -9.157389895E-04
   161 -6.182695207E-04
   162 -4.430768473E-04
   163  1.250610278E-06
   164  7.779748449E-05
   165 -1.312275111E-03
   166 -9.684786437E-04
   167 -4.273688818E-05
   168 -2.303047144E-05
   169  3.944450669E-04
   170 -5.528303199E-04
   171  1.134041982E-05
   172  4.095193865E-05
   173  1.405952848E-02
   174 -3.497314715E-03
   175 -2.586747007E-03
   176 -7.563069011E-05
   177 -2.814583621E-01
   178 -2.316262751E-01
   179 -1.217252100E-05
   180 -7.220146924E-05
   181 -5.285573236E-05
   182 -9.380811719E-03
   183  1.175460301E-04
   184  7.057397642E-04
   185  5.098202072E-04
   186  9.816674390E-03
   187 -2.100836054E-06
   188 -8.902808719E-05
   189 -5.305373726E-05
   190  7.147622130E-07
   191 -1.037435671E-04
   192 -6.104261597E-04
   193  4.170483586E-04
   194 -1.435616778E-04
   195 -2.438216468E-02
   196 -1.597279055E-03
   197 -9.581451269E-03
   198 -6.820071574E-03
   199 -7.038415422E-03
   200 -5.733882982E-03
   201  1.583989203E-04
   202 -2.209752983E-04
   203  1.173509329E-07
   204 -9.151622736E-04
   205 -4.432357379E-04
   206  6.183892732E-04
   207 -1.433946570E-06
   208  6.559675564E-05
   209 -9.676933015E-04
   210  1.306266962E-03
   211  4.014866896E-05
   212 -2.290940884E-05
   213  5.530725041E-04
   214  3.949544646E-04
   215 -1.151554514E-05
   216 -4.067994129E-05
   217  1.407481668E-02
   218 -2.591042194E-03
   219  3.498230002E-03
   220  7.827872005E-05
   221  4.266712758E-05
   222  1.460274699E-03
   223 -2.315084283E-03
   224  1.641067014E-04
   225  9.783073927E-04
   226  7.006219712E-04
   227 -4.718655903E-03
   228  4.290324099E-05
   229  9.790226468E-04
   230  2.467046359E-03
   231 -3.085468772E-04
   232  5.291467893E-05
   233  2.301140498E-04
   234  5.725043454E-04
   235  4.152757618E-05
   236  9.924368925E-04
   237  2.516372369E-03
   238 -3.154180028E-04
   239  5.885845092E-05
   240  2.211424604E-04
   241  6.118860778E-04
   242  4.341568291E-05
   243  9.710513399E-04
   244  2.445961096E-03
   245  4.557186177E-05
   246  3.168189086E-04
   247 -2.183803783E-04
   248  4.921953162E-04
   249  4.258511460E-05
   250  1.461707424E-03
   251 -2.315501414E-03
   252 -9.788539096E-04
   253  1.642429935E-04
   254 -7.010554560E-04
   255 -4.718474955E-03
   256  4.285307337E-05
   257  9.809938081E-04
   258  2.467164704E-03
   259 -5.295161552E-05
   260 -3.087663352E-04
   261 -2.304997345E-04
   262  5.734637848E-04
   263  4.154227635E-05
   264  9.911855034E-04
   265  2.517654348E-03
   266 -5.872422999E-05
   267 -3.151351765E-04
   268 -2.210476704E-04
   269  6.092437724E-04
   270  4.346402721E-05
   271  9.695594530E-04
   272  2.448831420E-03
   273 -3.165188549E-04
   274  4.565500082E-05
   275  2.182232956E-04
   276  4.939195049E-04
   277  4.279588897E-05
   278  1.457747831E-03
   279 -2.315479241E-03
   280 -1.639683412E-04
   281 -9.772211379E-04
   282  6.998865383E-04
   283 -4.716557284E-03
   284  4.284106976E-05
   285  9.798490142E-04
   286  2.467511358E-03
   287  3.086023629E-04
   288 -5.287979141E-05
   289  2.302020266E-04
   290  5.722908971E-04
   291  4.158474321E-05
   292  9.897137194E-04
   293  2.520339500E-03
   294  3.148833797E-04
   295 -5.855767909E-05
   296  2.208871573E-04
   297  6.107919469E-04
   298  4.348223249E-05
   299  9.682692751E-04
   300  2.450215439E-03
   301 -4.569292428E-05
   302 -3.162119035E-04
   303 -2.181255178E-04
   304  4.914982519E-04
   305  4.271361366E-05
   306  1.459141933E-03
   307 -2.315954003E-03
   308  9.777522222E-04
   309 -1.640127965E-04
   310 -7.002921030E-04
   311 -4.713722770E-03
   312  4.290047557E-05
   313  9.802910083E-04
   314  2.465950073E-03
   315  5.290234467E-05
   316  3.087363365E-04
   317 -2.304151133E-04
   318  5.719769660E-04
   319  4.160488133E-05
   320  9.903292900E-04
   321  2.517290337E-03
   322  5.865568341E-05
   323  3.150784812E-04
   324 -2.209779814E-04
   325  6.096752650E-04
   326  4.339945090E-05
   327  9.703977442E-04
   328  2.449387511E-03
   329  3.166052916E-04
   330 -4.560566931E-05
   331  2.182875379E-04
   332  4.928681954E-04
Ene=   -1.0157924763E+01
Spin= Alpha
Occup=   2.0000000
     1 -4.095074983E-05
     2 -3.319452404E-05
     3  4.138959960E-05
     4  2.424774976E-04
     5  3.263020847E-07
     6 -1.927668923E-05
     7 -2.276220924E-05
     8 -1.322135952E-04
     9  4.255501023E-06
    10  2.053759961E-04
    11  8.513741139E-04
    12  4.752159553E-03
    13 -6.161698812E-05
    14 -6.611831631E-07
    15  6.017261560E-05
    16  3.753415915E-04
    17  4.553834233E-05
    18  1.342226408E-04
    19  1.309505728E-03
    20  1.204003626E-03
    21  5.958235895E-03
    22 -2.942797394E-04
    23 -2.810213731E-01
    24 -2.311404134E-01
    25 -4.189333176E-06
    26 -1.331578265E-06
    27  1.856068533E-06
    28 -1.105934357E-02
    29  7.143618584E-05
    30  4.305601881E-05
    31 -1.105826036E-05
    32  1.488940496E-02
    33  4.214297880E-03
    34  2.931112608E-03
    35 -2.777333729E-07
    36  9.666777103E-06
    37 -2.440300795E-04
    38  3.324887652E-04
    39 -1.187331186E-05
    40 -3.146516626E-05
    41  4.097879865E-02
    42  6.627583056E-03
    43  4.562467797E-03
    44 -6.370124073E-05
    45  3.448457725E-03
    46  2.835658714E-03
    47 -1.563423954E-07
    49 -2.567324835E-06
    50  1.518355531E-04
    51  9.895914686E-07
    52 -7.084486185E-08
    53  1.126227823E-05
    54 -2.975140299E-04
    55  5.092348449E-06
    56  1.903716535E-07
    57  1.433304897E-04
    58 -2.292020645E-06
    59 -3.198168459E-07
    60  2.239859895E-08
    61 -1.079885436E-05
    62 -1.479851035E-05
    63 -4.376850696E-04
    64  1.837642473E-05
    65 -4.094658451E-06
    66  9.667947422E-05
    67  2.963847108E-05
    68  2.395663362E-05
    69 -2.427379619E-04
    70  4.178149406E-05
    71  1.227105282E-06
    72  1.718522409E-05
    73  1.326116673E-04
    74 -2.242727545E-05
    75  3.073325564E-06
    76 -1.811972824E-04
    77 -4.752740463E-03
    78  8.510105836E-04
    79 -4.637394592E-05
    80  9.211772310E-07
    81  3.757002720E-04
    82 -6.005079630E-05
    83  4.417439567E-05
    84  1.346274246E-04
    85 -1.096732406E-03
    86 -5.962773023E-03
    87  1.170919698E-03
    88 -2.512788374E-04
    89  2.821708295E-01
    90  2.320859802E-01
    91  1.482723912E-06
    92 -4.356212920E-06
    93  1.802748430E-06
    94  1.110301284E-02
    95 -4.440651426E-05
    96  7.298933812E-05
    97 -1.079807031E-05
    98 -1.494826190E-02
    99 -2.942681177E-03
   100  4.231588963E-03
   101  1.415969701E-06
   102 -9.724279272E-06
   103  3.341648260E-04
   104  2.451725238E-04
   105 -1.191980258E-05
   106 -3.147762002E-05
   107 -4.119990690E-02
   108 -4.589738115E-03
   109  6.661176052E-03
   110 -6.159041587E-05
   111 -4.239764506E-03
   112 -3.486514000E-03
   113  4.618413415E-08
   114  4.850509661E-08
   115 -2.590679773E-06
   116 -1.828935556E-04
   117 -1.164688613E-07
   118 -3.126620159E-07
   119  1.160797891E-05
   120  3.394352578E-04
   121 -5.314769237E-06
   122 -2.695544670E-08
   123  1.576723892E-04
   124  2.189388646E-06
   125 -1.087280780E-07
   126 -3.627710377E-08
   127 -1.194018313E-05
   128 -1.440454830E-05
   129  5.845838418E-04
   130 -7.764581205E-06
   131 -1.797321962E-06
   132  1.272033476E-04
   133 -2.237893588E-05
   134 -1.802029542E-05
   135 -4.132455489E-05
   136 -2.422155786E-04
   137  9.943215313E-07
   138 -1.596314033E-05
   139  2.171159408E-05
   140  1.320724050E-04
   141  2.812085554E-06
   142  1.663666752E-04
   143 -8.395846053E-04
   144 -4.753724546E-03
   145 -5.217573748E-05
   146 -5.484036360E-07
   147 -6.064758461E-05
   148 -3.749426644E-04
   149  4.454198249E-05
   150  1.346285900E-04
   151  9.030776846E-04
   152 -1.123916139E-03
   153 -5.977077544E-03
   154 -2.419426688E-04
   155 -2.815740584E-01
   156 -2.315950863E-01
   157  4.266948826E-06
   158  1.515839995E-06
   159  1.667964516E-06
   160 -1.108011408E-02
   161 -7.214124805E-05
   162 -4.458409156E-05
   163 -1.005221565E-05
   164  1.491878437E-02
   165 -4.223221467E-03
   166 -2.936771285E-03
   167  8.456330576E-06
   168  9.656224475E-06
   169  2.443765242E-04
   170 -3.335765555E-04
   171 -1.202768469E-05
   172 -3.139583592E-05
   173  4.113745083E-02
   174 -6.646878880E-03
   175 -4.589038108E-03
   176 -4.290697310E-05
   177  3.521954154E-05
   178  2.852794635E-05
   179  2.418345413E-04
   180 -4.163632978E-05
   181  1.036095278E-06
   182  1.792968906E-05
   183 -1.315845128E-04
   184  2.253946917E-05
   185  3.471458322E-06
   186 -1.904388144E-04
   187  4.751114549E-03
   188 -8.534754787E-04
   189 -4.808810262E-05
   190  9.592591951E-07
   191 -3.747641766E-04
   192  5.970043870E-05
   193  4.458261039E-05
   194  1.346891006E-04
   195 -1.126339582E-03
   196  5.968677649E-03
   197 -1.181311897E-03
   198 -2.544673133E-04
   199  2.811531494E-01
   200  2.312487320E-01
   201 -1.368944849E-06
   202  4.100381825E-06
   203  1.719952421E-06
   204  1.106534844E-02
   205  4.331027466E-05
   206 -7.065931553E-05
   207 -1.031776822E-05
   208 -1.489960425E-02
   209  2.932956503E-03
   210 -4.217147716E-03
   211  7.112586850E-06
   212 -9.703573189E-06
   213 -3.327320784E-04
   214 -2.438326317E-04
   215 -1.201777805E-05
   216 -3.143212115E-05
   217 -4.105323461E-02
   218  4.578174426E-03
   219 -6.636797118E-03
   220 -4.463143228E-05
   221 -4.949136409E-07
   222  1.086178330E-05
   223  9.759110832E-06
   224 -1.118922167E-04
   225  2.087776026E-05
   226  2.750780605E-06
   227 -9.708510481E-05
   228 -1.437572707E-06
   229  1.092649421E-05
   230  3.924084070E-05
   231  6.317682965E-07
   232  9.186265894E-05
   233  5.098152286E-06
   234  1.055738574E-07
   235 -9.046696187E-06
   236 -5.149738964E-04
   237  2.881955785E-03
   238  6.576905647E-04
   239  1.484917011E-04
   240 -5.562857618E-04
   241  2.953112865E-04
   242 -3.460575814E-06
   243 -5.700500257E-04
   244  2.818205305E-03
   245 -3.430857514E-04
   246 -5.872943499E-04
   247  5.548589606E-04
   248  2.291245192E-04
   249  5.720163768E-07
   250 -8.872565984E-06
   251 -7.614850346E-06
   252  2.000045269E-05
   253  1.119545275E-04
   254  2.562876727E-06
   255  7.971444732E-05
   256  1.241322102E-06
   257 -7.716118992E-06
   258 -4.575341274E-05
   259  9.141255308E-05
   260 -2.937426079E-06
   261  4.002931195E-06
   262  3.869211714E-06
   263  9.027867888E-06
   264  5.167561052E-04
   265 -2.879666759E-03
   266  1.485690708E-04
   267 -6.591109272E-04
   268 -5.572368602E-04
   269 -2.955686115E-04
   270  3.261432013E-06
   271  5.731294933E-04
   272 -2.815681606E-03
   273 -5.888170277E-04
   274  3.434744942E-04
   275  5.557841315E-04
   276 -2.312818531E-04
   277 -4.997873912E-07
   278  9.794452478E-06
   279  9.845569802E-06
   280  1.117411690E-04
   281 -2.051182790E-05
   282  2.572621035E-06
   283 -9.213866445E-05
   284 -8.952813869E-07
   285  6.880258894E-06
   286  3.415545926E-05
   287 -6.014637800E-07
   288 -9.183969888E-05
   289  4.271920705E-06
   290 -4.526534278E-06
   291 -8.767778499E-06
   292 -5.200961516E-04
   293  2.881359700E-03
   294 -6.607090224E-04
   295 -1.483904787E-04
   296 -5.586137720E-04
   297  2.928832524E-04
   298 -3.525281247E-06
   299 -5.726770220E-04
   300  2.822421862E-03
   301  3.442326368E-04
   302  5.897250727E-04
   303  5.572576978E-04
   304  2.337161631E-04
   305  4.420037723E-07
   306 -1.168273432E-05
   307 -1.166257959E-05
   308 -2.102965227E-05
   309 -1.117271268E-04
   310  3.167817546E-06
   311  1.088719699E-04
   312  1.071641809E-06
   313 -6.546551844E-06
   314 -4.570518345E-05
   315 -9.151082163E-05
   316  2.947381165E-06
   317  3.778257641E-06
   318  1.783599827E-06
   319  8.769189997E-06
   320  5.171319516E-04
   321 -2.874241792E-03
   322 -1.480702000E-04
   323  6.579193569E-04
   324 -5.558895251E-04
   325 -2.929721303E-04
   326  3.720935490E-06
   327  5.681626307E-04
   328 -2.815921223E-03
   329  5.869400874E-04
   330 -3.432012324E-04
   331  5.545546399E-04
   332 -2.325179567E-04
Ene=   -1.0157924630E+01
Spin= Alpha
Occup=   2.0000000
     1 -1.380734264E-05
     2 -1.129575828E-05
     3 -1.401549069E-04
     4  2.347237666E-05
     5 -2.023984984E-04
     6 -2.786843730E-06
     7  7.723494017E-05
     8 -1.287854539E-05
     9  1.161591922E-04
    10  2.206825809E-05
    11 -2.735029096E-03
    12  3.966515897E-04
    13 -3.944385925E-03
    14  1.402801627E-04
    15  2.172676657E-04
    16 -3.627786404E-05
    17  2.948921240E-04
    18 -1.033693024E-04
    19  1.919859379E-04
    20 -3.369661977E-03
    21  5.305577478E-04
    22 -4.940810908E-03
    23  1.631799484E-01
    24  1.342162375E-01
    25  1.293789047E-06
    26  1.555607834E-06
    27  9.345192675E-08
    28  6.412696189E-03
    29 -3.782381178E-05
    30 -3.197178725E-05
    31  1.422730945E-06
    32 -8.624027692E-03
    33 -2.437104461E-03
    34 -1.701507848E-03
    35 -7.507842022E-05
    36 -2.585602596E-05
    37  1.396928970E-04
    38 -1.952940097E-04
    39  6.528133490E-06
    40  6.951049890E-06
    41 -2.354033305E-02
    42 -3.761445549E-03
    43 -2.664003904E-03
    44 -4.071378934E-05
    45 -3.243744079E-01
    46 -2.667987660E-01
    47 -3.283652647E-08
    48 -1.845465779E-08
    49  3.556171373E-06
    50 -1.275515577E-02
    51  1.840801202E-07
    52  1.996246358E-08
    53 -9.157197001E-05
    54  1.712901480E-02
    55  1.004411967E-06
    56  2.664880721E-06
    57 -5.896292427E-03
    58 -4.129213478E-05
    59 -5.025769339E-08
    60 -4.429582669E-08
    61  4.478002614E-04
    62 -1.546911935E-04
    63  4.677914976E-02
    64  3.852329345E-06
    65  3.777492460E-06
    66 -9.151862930E-03
    67 -1.291477498E-05
    68 -1.055947398E-05
    69  2.376049217E-05
    70  1.403384262E-04
    71  2.026828717E-04
    72 -2.748369182E-06
    73 -1.286775897E-05
    74 -7.756365527E-05
    75 -1.164600071E-04
    76  2.123813518E-05
    77  4.071308714E-04
    78  2.733713575E-03
    79  3.944522014E-03
    80  1.402071866E-04
    81  3.575830654E-05
    82  2.176426960E-04
    83 -2.952877496E-04
    84  1.030830211E-04
    85  1.969746738E-04
    86  5.436968121E-04
    87  3.369764559E-03
    88  4.942776654E-03
    89  1.629416186E-01
    90  1.340202879E-01
    91  1.556098018E-06
    92 -1.434594813E-06
    93 -3.078965526E-08
    94  6.402420759E-03
    95 -3.212313025E-05
    96  3.883965250E-05
    97 -1.849418712E-06
    98 -8.610008249E-03
    99 -1.696332612E-03
   100  2.435065880E-03
   101  7.430494653E-05
   102 -2.585206837E-05
   103  1.951279378E-04
   104  1.396916816E-04
   105 -6.370859146E-06
   106 -6.925650970E-06
   107 -2.354399471E-02
   108 -2.659945651E-03
   109  3.765459978E-03
   110  3.646848374E-05
   111 -3.247497254E-01
   112 -2.671075440E-01
   113  2.874365428E-08
   114  8.265253403E-08
   115 -3.658930122E-06
   116 -1.276893391E-02
   117 -1.374493298E-07
   118 -5.278139181E-07
   119  9.254889329E-05
   120  1.714588576E-02
   121 -1.152268210E-06
   122 -2.477237113E-06
   123  5.902071603E-03
   124 -4.131679126E-05
   125 -4.214153519E-08
   126 -1.627421553E-07
   127 -4.484761168E-04
   128  1.549826254E-04
   129  4.685357572E-02
   130 -8.094765172E-07
   131 -9.364723832E-06
   132  9.164726653E-03
   133 -1.079861744E-05
   134 -8.835404407E-06
   135  1.402429201E-04
   136 -2.297198269E-05
   137 -2.022869281E-04
   138 -2.304538115E-06
   139 -7.749484796E-05
   140  1.233748392E-05
   141  1.159125907E-04
   142  1.646714037E-05
   143  2.736906659E-03
   144 -3.962060662E-04
   145 -3.942884663E-03
   146  1.403040889E-04
   147 -2.172703408E-04
   148  3.682656059E-05
   149  2.947566165E-04
   150 -1.032125932E-04
   151  1.530330902E-04
   152  3.379001987E-03
   153 -5.367470258E-04
   154 -4.937558489E-03
   155  1.634843914E-01
   156  1.344666981E-01
   157 -1.397978166E-06
   158 -1.560671129E-06
   159 -1.181242808E-08
   160  6.424020809E-03
   161  3.872443685E-05
   162  3.206082292E-05
   163  1.990483030E-06
   164 -8.639009253E-03
   165  2.441204637E-03
   166  1.704779491E-03
   167 -7.030919478E-05
   168 -2.586453939E-05
   169 -1.402022236E-04
   170  1.956639168E-04
   171  6.446396614E-06
   172  6.980845924E-06
   173 -2.360917196E-02
   174  3.775110483E-03
   175  2.667140260E-03
   176 -2.917967041E-05
   177 -2.721020571E-06
   178 -2.227202181E-06
   179 -2.390913263E-05
   180 -1.403193483E-04
   181  2.023156611E-04
   182 -9.940070046E-07
   183  1.311808744E-05
   184  7.805232376E-05
   185 -1.156719240E-04
   186  2.463972349E-07
   187 -4.083483533E-04
   188 -2.739725188E-03
   189  3.939723436E-03
   190  1.402672168E-04
   191 -3.564272557E-05
   192 -2.179694219E-04
   193 -2.947055461E-04
   194  1.029177807E-04
   195 -9.893601511E-06
   196 -5.491878769E-04
   197 -3.409367654E-03
   198  4.915838760E-03
   199  1.623825810E-01
   200  1.335603670E-01
   201 -1.445066129E-06
   202  1.324475438E-06
   203  1.993119398E-08
   204  6.381725397E-03
   205  3.111598001E-05
   206 -3.782273242E-05
   207 -2.125094313E-06
   208 -8.583179083E-03
   209  1.690810173E-03
   210 -2.427323935E-03
   211  7.149552395E-05
   212 -2.584267686E-05
   213 -1.941980712E-04
   214 -1.391546034E-04
   215 -6.306032616E-06
   216 -6.938012795E-06
   217 -2.345720856E-02
   218  2.647050345E-03
   219 -3.755740573E-03
   220  2.916528479E-05
   221 -1.377566639E-07
   222  6.503600685E-07
   223  5.516817594E-06
   224  8.312909679E-06
   225  6.472336650E-05
   226 -9.299980770E-05
   227  7.435466754E-06
   228  7.248571671E-06
   229  6.284716836E-04
   230 -3.277548315E-03
   231 -9.473443599E-04
   232  1.590846720E-04
   233  3.123432391E-04
   234 -3.255153439E-04
   235 -5.703834737E-06
   236 -2.893615054E-04
   237  1.650225263E-03
   238  3.204002701E-04
   239  4.239407142E-05
   240 -3.952682973E-04
   241  1.824778605E-04
   242 -1.888597132E-06
   243 -3.432904041E-04
   244  1.605116727E-03
   245 -1.376597574E-04
   246 -2.974165348E-04
   247  3.952294222E-04
   248  1.341860724E-04
   249 -1.766002554E-07
   250 -7.353086970E-07
   251  4.058557357E-06
   252 -6.434119196E-05
   253  8.054546177E-06
   254  9.334118873E-05
   255  1.822864712E-05
   256  7.516449414E-06
   257  6.253330702E-04
   258 -3.276799365E-03
   259 -1.590660472E-04
   260 -9.460870003E-04
   261 -3.114592622E-04
   262 -3.256289872E-04
   263 -5.508332655E-06
   264 -2.935214148E-04
   265  1.656083388E-03
   266 -4.256708852E-05
   267  3.233076113E-04
   268  3.976104462E-04
   269  1.834431859E-04
   270 -2.025095914E-06
   271 -3.450220301E-04
   272  1.613779831E-03
   273  2.997511065E-04
   274 -1.390649177E-04
   275 -3.975377166E-04
   276  1.378619493E-04
   277 -2.037705695E-07
   278 -9.575502321E-07
   279  3.261516274E-06
   280 -8.247207658E-06
   281 -6.413608729E-05
   282 -9.333420905E-05
   283  2.153772796E-05
   284  7.350015797E-06
   285  6.277194108E-04
   286 -3.277587632E-03
   287  9.473542237E-04
   288 -1.590268151E-04
   289  3.122117290E-04
   290 -3.242872546E-04
   291 -5.743969639E-06
   292 -2.907218534E-04
   293  1.652469230E-03
   294 -3.218529479E-04
   295 -4.257661488E-05
   296 -3.965856914E-04
   297  1.839270703E-04
   298 -1.709175738E-06
   299 -3.462995762E-04
   300  1.605838349E-03
   301  1.381294162E-04
   302  2.990200755E-04
   303  3.965056524E-04
   304  1.346483346E-04
   305 -1.927507475E-07
   306 -1.193707879E-06
   307  3.923168611E-06
   308  6.419388836E-05
   309 -7.914754068E-06
   310  9.344033332E-05
   311  2.205596589E-05
   312  7.219360361E-06
   313  6.275292781E-04
   314 -3.274098991E-03
   315  1.590572335E-04
   316  9.460830156E-04
   317 -3.119117071E-04
   318 -3.224722943E-04
   319 -5.751708205E-06
   320 -2.908243745E-04
   321  1.656200318E-03
   322  4.275282687E-05
   323 -3.222763719E-04
   324  3.969278820E-04
   325  1.841130740E-04
   326 -1.880105283E-06
   327 -3.451926276E-04
   328  1.610840749E-03
   329 -2.992001369E-04
   330  1.386071010E-04
   331 -3.968024526E-04
   332  1.361181033E-04
Ene=   -1.0157909862E+01
Spin= Alpha
Occup=   2.0000000
     1 -6.042389593E-04
     2 -4.937423561E-04
     3  4.989872103E-05
     4  3.231054885E-04
     5 -2.839557929E-05
     6 -1.094474390E-04
     7 -8.651504709E-05
     8 -3.541511936E-04
     9  5.570505502E-05
    10  1.261417683E-03
    11  4.340034440E-04
    12  3.074375661E-04
    13 -3.341760909E-04
    14 -6.739523742E-06
    15  4.612115753E-05
    16  3.545190271E-04
    17  1.633001460E-05
    18 -7.833433776E-05
    19  1.100513155E-02
    20  2.158137205E-03
    21 -1.197155996E-03
    22 -1.517252465E-03
    23 -2.503146483E-01
    24 -2.059338934E-01
    25 -7.441643809E-05
    26 -1.564835865E-05
    27  5.846134603E-05
    28 -9.259805423E-03
    29  6.589994558E-04
    30  1.728345549E-04
    31 -3.121434893E-04
    32  1.186290146E-02
    33  3.271946909E-03
    34  2.599765373E-03
    35 -2.685010171E-03
    36  5.555157885E-06
    37 -3.693258963E-04
    38  3.279482275E-04
    39  4.132232560E-05
    40 -1.809642397E-05
    41  4.207909607E-02
    42  7.417318893E-03
    43  2.324805620E-03
    44 -5.278790052E-03
    45 -6.765691549E-03
    46 -5.566145203E-03
    47 -1.851001975E-05
    48 -3.106523241E-05
    49  1.935661667E-06
    50 -2.503901454E-04
    51  9.213285104E-05
    52  6.465058666E-05
    53 -1.737856886E-05
    54  3.224157053E-04
    55  9.109360548E-04
    56  3.455721058E-03
    57 -1.148992512E-04
    58 -1.560955328E-07
    59 -3.713714684E-05
    60 -6.771938835E-05
    61  1.209952592E-05
    62 -4.186747872E-06
    63  1.155425545E-03
    64  1.618845476E-03
    65  3.189032206E-03
    66 -2.054283882E-04
    67 -6.743666974E-03
    68 -5.513903249E-03
    69 -3.687521729E-05
    70 -6.621723786E-06
    71  2.349810196E-04
    72 -1.129916800E-03
    73  1.003195150E-04
    74  3.585014033E-04
    75 -5.147898431E-04
    76  1.351186054E-02
    77 -6.805508967E-04
    78 -3.968829219E-03
    79  3.075533387E-03
    80 -4.075749108E-05
    81  2.332870199E-06
    82 -2.148811102E-04
    83 -3.774537641E-04
    84  1.212225538E-04
    85  1.210960831E-01
    86 -4.057142508E-03
    87 -2.462550426E-02
    88  1.709756121E-02
    89  3.092174861E-01
    90  2.543933769E-01
    91  7.173503946E-05
    92 -5.468522075E-05
    93 -4.622513538E-05
    94  1.143859185E-02
    95 -6.298211133E-04
    96  5.200151011E-04
    97  2.483088518E-04
    98 -1.468757555E-02
    99 -2.953791293E-03
   100  4.288411878E-03
   101  2.169509320E-03
   102 -5.571118012E-06
   103  5.315618449E-04
   104  2.764341861E-04
   105 -4.603883079E-05
   106  9.837953571E-06
   107 -5.209418005E-02
   108 -7.189675523E-03
   109  6.154583103E-03
   110  4.365640756E-03
   111  7.809063393E-03
   112  6.424484903E-03
   113  2.247627352E-05
   114  1.133889926E-04
   115  2.137369640E-06
   116  2.891254192E-04
   117 -1.231635874E-04
   118 -7.106851514E-04
   119 -1.971771270E-05
   120 -3.722193941E-04
   121 -1.002331869E-03
   122 -3.122754369E-03
   123 -1.307601792E-04
   124  1.809731541E-07
   125 -4.289706596E-05
   126 -2.004720463E-04
   127  1.429760442E-05
   128 -4.955379280E-06
   129 -1.352616279E-03
   130 -2.075410036E-03
   131 -9.882381726E-03
   132 -2.376843606E-04
   133  7.575484420E-04
   134  6.188196544E-04
   135  5.792007440E-05
   136  3.219231926E-04
   137  2.251247938E-05
   138  1.400719369E-04
   139 -1.039007191E-04
   140 -3.511835383E-04
   141 -5.494232430E-05
   142 -1.610352524E-03
   143  5.411015787E-04
   144  2.940141016E-04
   145  4.055584265E-04
   146  4.420085866E-06
   147  3.272913371E-05
   148  3.569912272E-04
   149 -1.369201631E-05
   150  7.723240180E-05
   151 -1.393251799E-02
   152  2.745377520E-03
   153 -1.282582073E-03
   154  1.967512427E-03
   155  2.508098945E-01
   156  2.063413487E-01
   157 -7.618736257E-05
   158 -1.354666461E-05
   159 -5.997586823E-05
   160  9.277651902E-03
   161  6.693628220E-04
   162  1.621470731E-04
   163  3.240094960E-04
   164 -1.188663507E-02
   165  3.351752662E-03
   166  2.501568603E-03
   167  2.679639283E-03
   168 -5.615532876E-06
   169 -3.722780777E-04
   170  3.277481622E-04
   171 -4.613378291E-05
   172  1.970226524E-05
   173 -4.228615654E-02
   174  7.594700719E-03
   175  2.145266075E-03
   176  5.403438676E-03
   177  6.550176933E-03
   178  5.355443041E-03
   179 -3.547061108E-05
   180  2.678799532E-06
   181 -2.408790899E-04
   182  1.102072278E-03
   183  9.689996354E-05
   184  3.385113071E-04
   185  5.141650793E-04
   186 -1.316208033E-02
   187 -6.658410066E-04
   188 -3.851174958E-03
   189 -3.014172880E-03
   190  4.264129135E-05
   191  5.128117848E-06
   192 -1.994882994E-04
   193  3.801535285E-04
   194 -1.223649480E-04
   195 -1.177309345E-01
   196 -3.961529103E-03
   197 -2.396451526E-02
   198 -1.660856106E-02
   199 -3.091481216E-01
   200 -2.543361260E-01
   201  6.941678859E-05
   202 -5.612815858E-05
   203  4.470991866E-05
   204 -1.143863941E-02
   205 -6.167035661E-04
   206  5.268609818E-04
   207 -2.364397090E-04
   208  1.469065731E-02
   209 -2.852690626E-03
   210  4.364848066E-03
   211 -2.175647142E-03
   212  5.749842656E-06
   213  5.293621742E-04
   214  2.779375437E-04
   215  4.126336382E-05
   216 -8.148773249E-06
   217  5.205812139E-02
   218 -6.986167856E-03
   219  6.302320921E-03
   220 -4.244813211E-03
   221  2.936307929E-05
   222  1.108292294E-03
   223  7.945080408E-04
   224  5.370171741E-05
   225  3.773735283E-04
   226  2.127847035E-04
   227 -9.047608592E-03
   228 -2.094708693E-05
   229  1.433871716E-04
   230  2.164308717E-04
   231  3.235293621E-05
   232  3.213362018E-05
   233  1.972247096E-05
   234  1.421906148E-04
   235  4.928049673E-05
   236  5.490651350E-04
   237 -1.697785751E-03
   238 -7.767550586E-04
   239 -1.400444393E-04
   240  7.343221223E-04
   241 -9.726777787E-04
   242 -1.332031774E-04
   243  1.921103785E-03
   244 -3.069821573E-04
   245  2.346514602E-04
   246  9.256186070E-04
   247 -7.041005033E-04
   248  1.585313118E-05
   249  3.900886103E-06
   250  1.218177121E-04
   251  7.367528720E-05
   252 -2.817758418E-05
   253  8.236532540E-05
   254 -2.693352934E-05
   255 -1.085830734E-03
   256  1.938089975E-04
   257 -1.411891409E-03
   258 -1.502800749E-03
   259 -7.694995083E-06
   260 -2.819913517E-05
   261  2.772287791E-04
   262 -1.059479660E-03
   263  1.391587909E-04
   264 -1.785110375E-03
   265  3.715894638E-06
   266  9.089981271E-05
   267  8.016828489E-04
   268  5.676079399E-04
   269 -2.040016448E-04
   270 -7.142320994E-05
   271 -2.290797231E-04
   272  1.640899961E-03
   273  5.260421601E-04
   274 -3.280831444E-04
   275 -5.996496676E-04
   276  1.000451796E-03
   277 -3.039385705E-05
   278 -1.138655001E-03
   279 -8.215655286E-04
   280  5.504805735E-05
   281  3.860247931E-04
   282 -2.215727718E-04
   283  9.291380845E-03
   284  2.311624195E-05
   285 -2.067338647E-04
   286 -1.631086192E-04
   287 -1.825921807E-05
   288  4.068346629E-05
   289 -4.409265866E-05
   290 -1.140660005E-04
   291 -4.405179469E-05
   292 -5.899434969E-04
   293  1.652758249E-03
   294 -7.813448144E-04
   295 -1.328675174E-04
   296 -7.351724147E-04
   297  9.485028234E-04
   298  1.282802349E-04
   299 -1.886385877E-03
   300  3.414344489E-04
   301  2.394054825E-04
   302  9.209431674E-04
   303  7.037680393E-04
   304  1.973853193E-05
   305 -3.373754784E-06
   306 -9.354326135E-05
   307 -5.821692190E-05
   308 -2.096186693E-05
   309  8.123829068E-05
   310  1.874781118E-05
   311  8.481200046E-04
   312 -1.956155700E-04
   313  1.465224856E-03
   314  1.459430197E-03
   315 -2.451807228E-07
   316  1.587453991E-05
   317 -2.977981911E-04
   318  1.041796347E-03
   319 -1.439432102E-04
   320  1.818565292E-03
   321  3.792372597E-05
   322  9.716810980E-05
   323  8.035424560E-04
   324 -5.671172035E-04
   325  2.322176845E-04
   326  7.678782614E-05
   327  1.871625857E-04
   328 -1.676923604E-03
   329  5.185171067E-04
   330 -3.328137023E-04
   331  5.979902621E-04
   332 -1.027040348E-03
Ene=   -1.0157909861E+01
Spin= Alpha
Occup=   2.0000000
     1 -6.647905772E-03
     2 -5.435521850E-03
     3  1.844281558E-06
     4 -3.649137054E-05
     5 -2.380752095E-04
     6 -1.115351925E-03
     7 -3.483651816E-04
     8  9.876313682E-05
     9  5.146090678E-04
    10  1.333231914E-02
    11  3.907553819E-03
    12 -6.790082570E-04
    13 -3.042836198E-03
    14 -4.176164769E-05
    15 -2.071956423E-04
    16 -4.275623240E-06
    17  3.789034484E-04
    18 -1.220215174E-04
    19  1.193733367E-01
    20  2.428579990E-02
    21 -4.014890000E-03
    22 -1.684173293E-02
    23  3.096690535E-01
    24  2.547647352E-01
    25  5.546440851E-05
    26  7.056363207E-05
    27  4.544724328E-05
    28  1.145715151E-02
    29 -5.240005575E-04
    30 -6.233826194E-04
    31 -2.421949974E-04
    32 -1.471215282E-02
    33 -4.334265302E-03
    34 -2.905748519E-03
    35 -2.172794155E-03
    36 -5.684074447E-06
    37  2.777170814E-04
    38 -5.311161902E-04
    39  4.358541863E-05
    40 -8.917159594E-06
    41 -5.211521868E-02
    42 -6.234546889E-03
    43 -7.086223482E-03
    44 -4.302570272E-03
    45 -1.294575692E-04
    46 -1.065065724E-04
    47 -1.134110561E-04
    48  2.249233544E-05
    49  3.639006086E-08
    50 -4.874814634E-06
    51  7.108057126E-04
    52 -1.232405102E-04
    53 -2.666405965E-07
    54  6.856098293E-06
    55  3.122993811E-03
    56 -1.002480117E-03
    57 -2.973896662E-06
    58  1.218777818E-08
    59 -2.004873982E-04
    60  4.289276940E-05
    61  1.679154184E-07
    62 -2.769845217E-08
    63 -8.554809344E-06
    64  9.880160711E-03
    65 -2.072014719E-03
    66  1.032005777E-06
    67  6.751208019E-04
    68  5.515285709E-04
    69 -3.222870519E-04
    70  5.363083226E-05
    71 -2.555535893E-05
    72  1.243466419E-04
    73  3.526637079E-04
    74 -9.469403201E-05
    75  5.525918690E-05
    76 -1.428815177E-03
    77 -2.951018948E-04
    78  4.830598478E-04
    79 -3.690038808E-04
    80  5.591358256E-06
    81  3.552556265E-04
    82 -3.966060025E-05
    83  1.500870316E-05
    84 -7.799855354E-05
    85 -1.230401506E-02
    86  1.243910622E-03
    87  2.422860066E-03
    88 -1.722517274E-03
    89  2.502783006E-01
    90  2.059040800E-01
    91  1.465072829E-05
    92 -7.531569004E-05
    93  5.922049189E-05
    94  9.257197460E-03
    95 -1.678480065E-04
    96  6.643405474E-04
    97 -3.179914815E-04
    98 -1.185935550E-02
    99 -2.549594433E-03
   100  3.305620677E-03
   101 -2.682191650E-03
   102 -5.577717372E-06
   103  3.276672473E-04
   104  3.705905482E-04
   105  4.363864517E-05
   106 -1.880594084E-05
   107 -4.216951804E-02
   108 -2.238164392E-03
   109  7.499183345E-03
   110 -5.334532805E-03
   111  3.820734667E-04
   112  3.143149707E-04
   113  3.106103949E-05
   114 -1.853034054E-05
   115  1.080375981E-07
   116  1.433564381E-05
   117 -6.461808313E-05
   118  9.221239933E-05
   119 -1.000451288E-06
   120 -2.022778194E-05
   121 -3.456571121E-03
   122  9.104228632E-04
   123 -6.930089606E-06
   124 -8.400293147E-09
   125 -6.774315357E-05
   126  3.711089400E-05
   127  7.690173226E-07
   128 -2.362539111E-07
   129 -1.003044537E-04
   130 -3.192840613E-03
   131  1.615733631E-03
   132 -1.961295208E-05
   133  6.648102972E-03
   134  5.435599488E-03
   135  2.084521639E-06
   136 -3.587082400E-05
   137  2.378485212E-04
   138  1.116888772E-03
   139 -3.486832273E-04
   140  9.848471075E-05
   141 -5.144501879E-04
   142 -1.334520204E-02
   143  3.912890569E-03
   144 -6.670734897E-04
   145  3.046926514E-03
   146  4.164546615E-05
   147 -2.072706866E-04
   148 -3.216914992E-06
   149 -3.788609845E-04
   150  1.216062580E-04
   151 -1.194436800E-01
   152  2.429567941E-02
   153 -4.005149874E-03
   154  1.686770566E-02
   155 -3.088065586E-01
   156 -2.540552884E-01
   157  5.535915747E-05
   158  7.059970399E-05
   159 -4.549647906E-05
   160 -1.142381968E-02
   161 -5.230425709E-04
   162 -6.233105625E-04
   163  2.426091215E-04
   164  1.466773498E-02
   165 -4.319393568E-03
   166 -2.901043000E-03
   167  2.173081934E-03
   168  5.661600010E-06
   169  2.767491834E-04
   170 -5.299890472E-04
   171 -4.375041285E-05
   172  9.040348512E-06
   173  5.199497641E-02
   174 -6.209417022E-03
   175 -7.088112397E-03
   176  4.312426968E-03
   177 -6.869121255E-04
   178 -5.612398275E-04
   179 -3.228537013E-04
   180  5.419996769E-05
   181  2.536978983E-05
   182 -1.250811322E-04
   183  3.528226260E-04
   184 -9.573432342E-05
   185 -5.543497506E-05
   186  1.442215160E-03
   187 -3.065742891E-04
   188  4.912118898E-04
   189  3.702144611E-04
   190 -5.573346056E-06
   191  3.563840820E-04
   192 -3.914862879E-05
   193 -1.507279311E-05
   194  7.761710248E-05
   195  1.254089949E-02
   196  1.236809844E-03
   197  2.464364384E-03
   198  1.751130005E-03
   199 -2.509222868E-01
   200 -2.064337174E-01
   201  1.454960749E-05
   202 -7.532028087E-05
   203 -5.927064861E-05
   204 -9.283149728E-03
   205 -1.672037490E-04
   206  6.642511705E-04
   207  3.184139674E-04
   208  1.189441737E-02
   209 -2.553005662E-03
   210  3.318851636E-03
   211  2.682406697E-03
   212  5.602246211E-06
   213  3.281694688E-04
   214  3.710989303E-04
   215 -4.379568975E-05
   216  1.898145389E-05
   217  4.223047506E-02
   218 -2.232716849E-03
   219  7.520684910E-03
   220  5.341150941E-03
   221 -3.690173554E-06
   222 -1.083713135E-04
   223 -6.748798231E-05
   224 -8.171262310E-05
   225 -2.485079235E-05
   226 -2.304278508E-05
   227  9.697672025E-04
   228 -1.946651153E-04
   229  1.437050777E-03
   230  1.483445184E-03
   231  7.370328170E-06
   232 -4.296279449E-06
   233  2.869254532E-04
   234  1.052829421E-03
   235 -1.414610168E-04
   236  1.801733938E-03
   237  1.147075285E-05
   238 -8.033285495E-04
   239  9.366612964E-05
   240  5.680606721E-04
   241  2.156258397E-04
   242  7.407755941E-05
   243  2.089223320E-04
   244 -1.661645236E-03
   245  3.308578432E-04
   246  5.230092020E-04
   247 -5.995295898E-04
   248 -1.010691255E-03
   249  2.986313120E-05
   250  1.124009308E-03
   251  8.079762182E-04
   252 -3.818328514E-04
   253  5.423291609E-05
   254 -2.173070333E-04
   255 -9.174329164E-03
   256 -2.202344978E-05
   257  1.753155505E-04
   258  1.910166856E-04
   259 -3.661014177E-05
   260  6.641094108E-06
   261 -3.206003609E-05
   262  1.273363564E-04
   263  4.660104282E-05
   264  5.690934587E-04
   265 -1.671656151E-03
   266  1.362223537E-04
   267 -7.781675459E-04
   268 -7.340178772E-04
   269 -9.586116331E-04
   270 -1.306538799E-04
   271  1.902196552E-03
   272 -3.220817714E-04
   273 -9.223305796E-04
   274  2.366908668E-04
   275  7.031941229E-04
   276 -1.155904702E-06
   277  3.536361329E-06
   278  1.074429145E-04
   279  6.262512215E-05
   280 -8.193575964E-05
   281 -2.433950857E-05
   282  2.267537456E-05
   283 -9.593625025E-04
   284  1.948110680E-04
   285 -1.440449788E-03
   286 -1.480120263E-03
   287  4.959748411E-06
   288 -3.644644000E-06
   289 -2.881971888E-04
   290 -1.052124150E-03
   291  1.417234533E-04
   292 -1.802747379E-03
   293 -2.078990849E-05
   294 -8.021466397E-04
   295  9.442614245E-05
   296 -5.668361997E-04
   297 -2.167728903E-04
   298 -7.416994962E-05
   299 -2.072810813E-04
   300  1.656000519E-03
   301  3.301339075E-04
   302  5.217065038E-04
   303  5.982869259E-04
   304  1.013818136E-03
   305 -2.988664548E-05
   306 -1.123482652E-03
   307 -8.082985810E-04
   308 -3.817142908E-04
   309  5.452141313E-05
   310  2.171284954E-04
   311  9.162571667E-03
   312  2.207170634E-05
   313 -1.750801469E-04
   314 -1.877195804E-04
   315 -3.622959740E-05
   316  7.443856330E-06
   317  3.178082517E-05
   318 -1.267598242E-04
   319 -4.676116725E-05
   320 -5.701224376E-04
   321  1.679147273E-03
   322  1.367190081E-04
   323 -7.802379777E-04
   324  7.357423829E-04
   325  9.631012477E-04
   326  1.308645782E-04
   327 -1.905982380E-03
   328  3.267623232E-04
   329 -9.245724707E-04
   330  2.374476267E-04
   331 -7.049358801E-04
   332  4.521264716E-06
Ene=   -1.0157909813E+01
Spin= Alpha
Occup=   2.0000000
     1  4.747289505E-03
     2  3.881203452E-03
     3 -2.362113226E-04
     4  3.715447146E-05
     5 -1.604840849E-04
     6  8.008151200E-04
     7  5.111524851E-04
     8 -8.651006802E-05
     9  1.286520990E-06
    10 -9.556988070E-03
    11 -3.053825263E-03
    12  5.428757320E-04
    13  1.810469128E-03
    14 -5.740408757E-05
    15  3.942826875E-04
    16 -6.795891157E-05
    17  7.404086512E-05
    18 -2.501696419E-05
    19 -8.526494601E-02
    20 -1.675824215E-02
    21  2.903254491E-03
    22  1.282893578E-02
    23  1.817169291E-03
    24  1.494535307E-03
    25  4.517294423E-05
    26 -6.076555189E-05
    27 -4.257147723E-05
    28  7.476417942E-05
    29 -2.447198428E-04
    30  3.264551817E-04
    31  3.304353161E-04
    32 -1.123613812E-04
    33 -2.053092589E-03
    34  2.752476094E-03
    35 -1.143921955E-04
    36 -2.719310835E-06
    37  5.947516252E-05
    38  3.728411016E-05
    39 -1.318574052E-04
    40  4.430114211E-05
    41 -4.226703805E-04
    42 -4.074176075E-03
    43  5.521166566E-03
    44  3.495424722E-03
    45 -3.980423223E-01
    46 -3.274690558E-01
    47  4.129877755E-07
    48  5.576881849E-07
    49  1.108039092E-04
    50 -1.473234573E-02
    51 -2.149289227E-06
    52 -1.123893501E-06
    53 -1.010750159E-03
    54  1.895746489E-02
    55 -1.869649291E-05
    56 -6.247238358E-05
    57 -6.706501875E-03
    58 -9.475086304E-06
    59  8.097267572E-07
    60  1.213121247E-06
    61  7.201873181E-04
    62 -2.493485804E-04
    63  6.705130053E-02
    64 -3.548044287E-05
    65 -5.529881853E-05
    66 -1.181289382E-02
    67 -4.614355333E-03
    68 -3.772585614E-03
    69 -4.216657396E-05
    70 -2.351811381E-04
    71 -1.651677924E-04
    72 -7.771380205E-04
    73  9.092233306E-05
    74  5.030697110E-04
    75  1.169000460E-05
    76  9.279022256E-03
    77 -5.350540881E-04
    78 -2.968548458E-03
    79  1.750409563E-03
    80  5.843576193E-05
    81 -6.173111147E-05
    82 -3.910141269E-04
    83  8.107554332E-05
    84 -2.855939221E-05
    85  8.283065420E-02
    86 -2.803874571E-03
    87 -1.625636006E-02
    88  1.249224347E-02
    89 -2.951929331E-03
    90 -2.428117178E-03
    91  5.971150214E-05
    92  4.484781750E-05
    93 -4.066856394E-05
    94 -1.166843011E-04
    95 -3.179313086E-04
    96 -2.424017594E-04
    97  3.202480770E-04
    98  1.668578022E-04
    99 -2.745151840E-03
   100 -2.072941906E-03
   101 -2.029842356E-04
   102  2.704318713E-06
   103  3.353343717E-05
   104 -5.779863971E-05
   105 -1.302703135E-04
   106  4.379055841E-05
   107  6.091969814E-04
   108 -5.434035717E-03
   109 -4.053010228E-03
   110  3.317932739E-03
   111  3.978488851E-01
   112  3.273099974E-01
   113 -4.350580187E-07
   114 -2.064675558E-06
   115  1.108464926E-04
   116  1.472413531E-02
   117  2.313309578E-06
   118  1.295180634E-05
   119 -1.011190189E-03
   120 -1.894549309E-02
   121  2.040871055E-05
   122  5.650168432E-05
   123 -6.702098463E-03
   124  9.427947867E-06
   125  8.279523940E-07
   126  3.644672774E-06
   127  7.200964293E-04
   128 -2.493195299E-04
   129 -6.703063097E-02
   130  3.883384895E-05
   131  1.825861362E-04
   132 -1.180736451E-02
   133  4.714056132E-03
   134  3.854049036E-03
   135  2.342288141E-04
   136 -4.891779116E-05
   137 -1.617159238E-04
   138  7.948115455E-04
   139 -5.071934909E-04
   140  9.930071692E-05
   141  3.957026137E-06
   142 -9.487426450E-03
   143  3.030701079E-03
   144 -5.530501569E-04
   145  1.793083229E-03
   146 -5.766531994E-05
   147 -3.954721866E-04
   148  5.493577907E-05
   149  7.506785481E-05
   150 -2.801522778E-05
   151 -8.465503494E-02
   152  1.663569555E-02
   153 -2.852627353E-03
   154  1.274323634E-02
   155 -6.967478451E-03
   156 -5.732598415E-03
   157 -4.248423754E-05
   158  6.120375695E-05
   159 -4.035361661E-05
   160 -2.501701822E-04
   161  2.210509522E-04
   162 -3.317673145E-04
   163  3.185234320E-04
   164  3.038388258E-04
   165  1.937443215E-03
   166 -2.842255297E-03
   167 -2.155126327E-04
   168 -2.521801282E-06
   169 -4.623956740E-05
   170 -4.861150341E-05
   171 -1.302053646E-04
   172  4.359115482E-05
   173  1.045362502E-03
   174  3.810980226E-03
   175 -5.596416821E-03
   176  3.293410658E-03
   177 -4.856778351E-03
   178 -3.970797482E-03
   179  4.389425540E-05
   180  2.351806013E-04
   181 -1.564853975E-04
   182 -8.178154072E-04
   183 -9.495973485E-05
   184 -5.156852298E-04
   185 -7.086193876E-06
   186  9.765320923E-03
   187  5.600503886E-04
   188  3.110943499E-03
   189  1.861539472E-03
   190  5.691382335E-05
   191  6.114505674E-05
   192  3.986477582E-04
   193  6.723308674E-05
   194 -2.419792449E-05
   195  8.718811334E-02
   196  2.952689428E-03
   197  1.714462315E-02
   198  1.310241262E-02
   199  8.684194889E-03
   200  7.144922668E-03
   201 -6.231372686E-05
   202 -4.272324962E-05
   203 -4.225825329E-05
   204  3.138228943E-04
   205  3.409606057E-04
   206  2.223992999E-04
   207  3.287154558E-04
   208 -3.861071404E-04
   209  2.854806415E-03
   210  1.910338193E-03
   211 -1.269353316E-04
   212  2.492927501E-06
   213 -5.336905779E-05
   214  4.718617417E-05
   215 -1.318066598E-04
   216  4.409692904E-05
   217 -1.351986037E-03
   218  5.696670750E-03
   219  3.815300523E-03
   220  3.469739163E-03
   221 -2.196712436E-05
   222 -8.196231538E-04
   223 -5.921467987E-04
   224 -3.813768443E-05
   225 -2.232280699E-04
   226 -2.354651652E-04
   227  6.691853221E-03
   228  5.373559711E-05
   229 -1.590335342E-03
   230  1.274988313E-03
   231  1.292382419E-03
   232 -2.163275408E-04
   233 -6.142775253E-04
   234  6.243541230E-04
   235  1.369718220E-04
   236 -1.050287938E-03
   237 -9.939593003E-04
   238  1.234908626E-04
   239 -1.764682121E-04
   240 -3.598060907E-05
   241 -7.151560186E-04
   242 -1.374961867E-04
   243  9.887192178E-04
   244  1.103191334E-03
   245 -1.446965559E-04
   246  1.312481493E-04
   247  3.735162142E-06
   248  7.644000432E-04
   249  2.126864426E-05
   250  7.962508729E-04
   251  5.744161546E-04
   252 -2.154865487E-04
   253  3.565143927E-05
   254 -2.307555871E-04
   255 -6.500175849E-03
   256 -5.671115360E-05
   257  1.612111871E-03
   258 -1.255902245E-03
   259 -2.156545270E-04
   260 -1.292908050E-03
   261 -6.187203583E-04
   262 -6.076594077E-04
   263 -1.403046048E-04
   264  1.069986664E-03
   265  1.028241151E-03
   266 -1.806681747E-04
   267 -1.221516280E-04
   268 -3.138564192E-05
   269  7.386362546E-04
   270  1.413342189E-04
   271 -1.022438309E-03
   272 -1.124382432E-03
   273  1.402502512E-04
   274  1.458535937E-04
   275  2.845729202E-07
   276 -7.817734168E-04
   277 -2.087025537E-05
   278 -7.786878389E-04
   279 -5.623240819E-04
   280  3.625126091E-05
   281  2.092894238E-04
   282 -2.275418875E-04
   283  6.357393782E-03
   284  5.268287733E-05
   285 -1.582109946E-03
   286  1.283404540E-03
   287 -1.292646077E-03
   288  2.150045453E-04
   289 -6.127525943E-04
   290  6.287625355E-04
   291  1.385020109E-04
   292 -1.027138692E-03
   293 -1.055091412E-03
   294 -9.395173860E-05
   295  1.813432031E-04
   296 -8.362409355E-06
   297 -7.497741746E-04
   298 -1.421854365E-04
   299  1.058631532E-03
   300  1.089257904E-03
   301  1.355993515E-04
   302 -1.657039984E-04
   303 -2.279163470E-05
   304  7.628978917E-04
   305  2.143913717E-05
   306  8.015999041E-04
   307  5.775001829E-04
   308  2.168677661E-04
   309 -3.870883689E-05
   310 -2.318554501E-04
   311 -6.547746343E-03
   312 -4.959921803E-05
   313  1.559614075E-03
   314 -1.309171719E-03
   315  2.158477302E-04
   316  1.293127178E-03
   317 -6.082427763E-04
   318 -6.439076029E-04
   319 -1.350797688E-04
   320  1.004844156E-03
   321  1.024549280E-03
   322  1.770418510E-04
   323  9.374860701E-05
   324 -1.154372816E-05
   325  7.273299003E-04
   326  1.384553719E-04
   327 -1.027655555E-03
   328 -1.063722379E-03
   329 -1.582130192E-04
   330 -1.340534009E-04
   331 -2.075417420E-05
   332 -7.427980796E-04
Ene=   -1.0157895788E+01
Spin= Alpha
Occup=   2.0000000
     1 -8.631891657E-03
     2 -7.171850214E-03
     3  1.810672926E-04
     4 -3.245123615E-05
     5 -1.292386076E-04
     6  5.962402488E-04
     7 -5.076914141E-04
     8  9.125881659E-05
     9  3.637058189E-04
    10  1.846216276E-04
    11  5.071140901E-04
    12 -7.878062609E-05
    13 -3.549932981E-04
    14 -1.489480757E-06
    15 -2.765504990E-04
    16  4.498886849E-05
    17  1.861165023E-04
    18 -6.207869696E-05
    19  9.718503620E-02
    20  1.469417049E-02
    21 -2.459966293E-03
    22 -1.045389888E-02
    23  2.295614317E-01
    24  1.888815249E-01
    25  7.046484851E-05
    26  4.955935130E-05
    27 -1.004492726E-06
    28  8.085958082E-03
    29 -7.743626724E-04
    30 -5.520259926E-04
    31  6.159309318E-06
    32 -1.018088281E-02
    33 -2.341001292E-03
    34 -1.700933660E-03
    35  3.805223872E-05
    36  5.719698706E-06
    37  4.015930113E-04
    38 -5.560316391E-04
    39 -4.207568646E-06
    40 -1.612237419E-05
    41 -6.525900520E-02
    42 -8.367121361E-03
    43 -6.048621344E-03
    44  6.878799175E-05
    45  2.305215894E-01
    46  1.896711596E-01
    47  6.652869696E-08
    48  2.571745400E-08
    49 -8.633600247E-05
    50  8.122730685E-03
    51 -3.732729884E-07
    52 -2.081735790E-08
    53  9.522424995E-04
    54 -1.020507236E-02
    55 -1.822438742E-06
    56 -3.711669261E-06
    57  2.910979326E-03
    58 -1.624880193E-05
    59  9.406446015E-08
    60  6.443484157E-08
    61 -6.481895316E-04
    62  2.264237862E-04
    63 -6.587903205E-02
    64 -4.267335007E-06
    65 -4.120780245E-06
    66  1.049436285E-02
    67 -8.624640435E-03
    68 -7.165920345E-03
    69 -3.192827004E-05
    70 -1.810011085E-04
    71  1.291839959E-04
    72  5.974375303E-04
    73  9.057610073E-05
    74  5.072479482E-04
    75 -3.634045850E-04
    76  1.700864768E-04
    77 -7.751983350E-05
    78 -5.025425724E-04
    79  3.518056896E-04
    80 -1.501589824E-06
    81 -4.544093336E-05
    82 -2.761109973E-04
    83 -1.858957222E-04
    84  6.212994882E-05
    85  9.702499178E-02
    86 -2.454762820E-03
    87 -1.466254520E-02
    88  1.043249948E-02
    89  2.289564660E-01
    90  1.883838230E-01
    91  4.943635247E-05
    92 -7.032718590E-05
    93  9.694329286E-07
    94  8.063530498E-03
    95 -5.510343879E-04
    96  7.730530469E-04
    97 -6.035428923E-06
    98 -1.015109436E-02
    99 -1.693149551E-03
   100  2.333611170E-03
   101 -3.579480405E-05
   102  5.730190110E-06
   103  5.550907266E-04
   104  4.008504056E-04
   105  4.251746899E-06
   106  1.610178710E-05
   107 -6.511648189E-02
   108 -6.032501260E-03
   109  8.344959578E-03
   110 -6.756568140E-05
   111  2.302805015E-01
   112  1.894728096E-01
   113 -3.448214061E-08
   114 -1.173513942E-07
   115  8.627491767E-05
   116  8.113921358E-03
   117  1.530610947E-07
   118  7.642918025E-07
   119 -9.516478990E-04
   120 -1.019461578E-02
   121  2.396020902E-06
   122  3.749464006E-06
   123 -2.907359289E-03
   124 -1.626414996E-05
   125  8.409283573E-08
   126  2.435814078E-07
   127  6.477610049E-04
   128 -2.262842256E-04
   129 -6.585659641E-02
   130  3.553582610E-06
   131  1.440441084E-05
   132 -1.049174387E-02
   133 -8.638115259E-03
   134 -7.176941677E-03
   135 -1.811909050E-04
   136  3.172355239E-05
   137 -1.294562188E-04
   138  5.952574559E-04
   139  5.081309743E-04
   140 -9.049887845E-05
   141  3.641704972E-04
   142  1.963883305E-04
   143 -5.105312639E-04
   144  7.827918503E-05
   145 -3.575712570E-04
   146 -1.531529422E-06
   147  2.766194271E-04
   148 -4.580234553E-05
   149  1.864305235E-04
   150 -6.234218125E-05
   151  9.725927773E-02
   152 -1.470907517E-02
   153  2.466464725E-03
   154 -1.046391193E-02
   155  2.291900316E-01
   156  1.885759869E-01
   157 -7.031650983E-05
   158 -4.956909464E-05
   159 -8.424835371E-07
   160  8.072034806E-03
   161  7.731258118E-04
   162  5.520505725E-04
   163  5.289742667E-06
   164 -1.016141100E-02
   165  2.335760168E-03
   166  1.696521570E-03
   167  3.025702285E-05
   168  5.718858596E-06
   169 -4.009015626E-04
   170  5.556235144E-04
   171 -4.075265053E-06
   172 -1.615126498E-05
   173 -6.515601586E-02
   174  8.346895877E-03
   175  6.042596609E-03
   176  4.970546692E-05
   177 -8.639587861E-03
   178 -7.178136458E-03
   179  3.223512533E-05
   180  1.809670415E-04
   181  1.297166790E-04
   182  5.948363052E-04
   183 -9.106265214E-05
   184 -5.079827132E-04
   185 -3.645428131E-04
   186  2.010208094E-04
   187  7.945950270E-05
   188  5.118575697E-04
   189  3.589842615E-04
   190 -1.589717365E-06
   191  4.517989448E-05
   192  2.765856230E-04
   193 -1.867409012E-04
   194  6.234851915E-05
   195  9.735595332E-02
   196  2.464149272E-03
   197  1.472785303E-02
   198  1.047559825E-02
   199  2.298469889E-01
   200  1.891164550E-01
   201 -4.960357811E-05
   202  7.050955109E-05
   203  9.207468336E-07
   204  8.096489791E-03
   205  5.525791423E-04
   206 -7.747322455E-04
   207 -5.756557919E-06
   208 -1.019362185E-02
   209  1.702110326E-03
   210 -2.345860523E-03
   211 -3.198372251E-05
   212  5.711612439E-06
   213 -5.565728040E-04
   214 -4.017310587E-04
   215  4.153615227E-06
   216  1.612285670E-05
   217 -6.527250191E-02
   218  6.051989142E-03
   219 -8.365701842E-03
   220 -5.552360830E-05
   221 -1.080400673E-04
   222 -4.406052530E-04
   223 -2.542016937E-03
   224 -4.401697195E-05
   225 -2.631792769E-04
   226 -1.888660388E-04
   227  1.143402113E-03
   228  9.249734140E-05
   229 -1.776483395E-03
   230  4.946854273E-04
   231  7.691843138E-04
   232 -1.294979071E-04
   233 -6.032768196E-04
   234  1.799425382E-03
   235  9.174363628E-05
   236 -1.778033795E-03
   237  4.495548834E-04
   238  7.980739190E-04
   239 -1.658021988E-04
   240 -5.515209032E-04
   241  1.806511838E-03
   242  9.124670621E-05
   243 -1.762804687E-03
   244  4.835109686E-04
   245 -9.476874369E-05
   246 -8.128354599E-04
   247  5.465448179E-04
   248  1.856538620E-03
   249 -1.080068665E-04
   250 -4.405003266E-04
   251 -2.540583563E-03
   252  2.630448707E-04
   253 -4.410431219E-05
   254  1.888660642E-04
   255  1.137632768E-03
   256  9.221624937E-05
   257 -1.775162398E-03
   258  4.977612410E-04
   259  1.296125394E-04
   260  7.699813208E-04
   261  6.032028879E-04
   262  1.801662807E-03
   263  9.166292538E-05
   264 -1.775504790E-03
   265  4.482935230E-04
   266  1.658908370E-04
   267  7.962384000E-04
   268  5.500223185E-04
   269  1.805880600E-03
   270  9.116161158E-05
   271 -1.760234843E-03
   272  4.812778420E-04
   273  8.111366483E-04
   274 -9.411942730E-05
   275 -5.450061487E-04
   276  1.854013442E-03
   277 -1.079340534E-04
   278 -4.383585979E-04
   279 -2.538676006E-03
   280  4.395002553E-05
   281  2.623311694E-04
   282 -1.883944180E-04
   283  1.120186035E-03
   284  9.231626820E-05
   285 -1.775125035E-03
   286  4.961120783E-04
   287 -7.692117060E-04
   288  1.294153163E-04
   289 -6.030125065E-04
   290  1.800036202E-03
   291  9.174524906E-05
   292 -1.775403267E-03
   293  4.452015385E-04
   294 -7.957111822E-04
   295  1.660599892E-04
   296 -5.494192435E-04
   297  1.802649820E-03
   298  9.100214966E-05
   299 -1.758272883E-03
   300  4.821913163E-04
   301  9.399079649E-05
   302  8.103234378E-04
   303  5.444950639E-04
   304  1.857465089E-03
   305 -1.079920633E-04
   306 -4.393851957E-04
   307 -2.540332066E-03
   308 -2.627134889E-04
   309  4.388163626E-05
   310  1.886588724E-04
   311  1.131701885E-03
   312  9.265339872E-05
   313 -1.778369488E-03
   314  4.943070180E-04
   315 -1.295794896E-04
   316 -7.699719220E-04
   317  6.038515942E-04
   318  1.799098463E-03
   319  9.203432873E-05
   320 -1.779320171E-03
   321  4.469418680E-04
   322 -1.662010670E-04
   323 -7.975609694E-04
   324  5.508392599E-04
   325  1.802819831E-03
   326  9.093111213E-05
   327 -1.759577844E-03
   328  4.857991675E-04
   329 -8.117206456E-04
   330  9.473337511E-05
   331 -5.459197486E-04
   332  1.857896374E-03
Ene=   -8.6663877866E-01
Spin= Alpha
Occup=   2.0000000
     1 -4.104653786E-02
     2 -6.311001897E-02
     3  1.276818714E-02
     4 -2.189021317E-03
     5 -9.169755510E-03
     6  1.605159846E-01
     7  2.110477611E-02
     8 -3.604451657E-03
     9 -1.515636899E-02
    10  9.883948322E-02
    11  1.179608447E-02
    12 -2.000451349E-03
    13 -8.485976371E-03
    14  1.189236329E-05
    15  1.490248745E-03
    16 -2.571636091E-04
    17 -1.007963846E-03
    18  3.311886404E-04
    19 -2.334331883E-01
    20 -4.038703723E-02
    21  6.650602554E-03
    22  2.841969732E-02
    23 -3.444884316E-02
    24 -5.293463153E-02
    25  1.367781721E-02
    26  9.800287428E-03
    27  1.115105179E-05
    28  1.346806823E-01
    29  2.367498148E-02
    30  1.696954316E-02
    31 -6.118678726E-06
    32  6.514918855E-02
    33  5.453103899E-03
    34  3.892363789E-03
    35 -1.342160028E-05
    36 -7.224423110E-04
    37 -2.456132168E-03
    38  3.430919418E-03
    39  3.926987799E-04
    40  1.195509502E-03
    41  1.684023338E-01
    42  2.133128187E-02
    43  1.531247289E-02
    44 -2.752612999E-04
    45 -3.443374968E-02
    46 -5.291133649E-02
    47  3.510886334E-08
    48  2.227020324E-08
    49 -1.684376048E-02
    50  1.346300870E-01
    51 -2.008472532E-07
    52 -1.155140393E-07
    53 -2.915176784E-02
    54  6.507896996E-02
    55  3.791976470E-06
    56 -3.326663594E-07
    57 -6.674200544E-03
    58  1.465105178E-03
    59 -1.472432160E-07
    60  4.186887918E-08
    61  3.992419929E-03
    62 -1.361484900E-03
    63  1.715571870E-01
    64  1.396701637E-05
    65  2.137789998E-05
    66 -2.710238968E-02
    67 -4.104654818E-02
    68 -6.311007163E-02
    69 -2.189041172E-03
    70 -1.276818935E-02
    71  9.169743881E-03
    72  1.605172838E-01
    73 -3.604481713E-03
    74 -2.110483247E-02
    75  1.515652315E-02
    76  9.882723093E-02
    77 -2.003338066E-03
    78 -1.179350644E-02
    79  8.484337112E-03
    80  1.192158657E-05
    81  2.569732073E-04
    82  1.490204655E-03
    83  1.008035906E-03
    84 -3.311812488E-04
    85 -2.337197754E-01
    86  6.677376457E-03
    87  4.043341798E-02
    88 -2.844130324E-02
    89 -3.444887020E-02
    90 -5.293472679E-02
    91  9.800397236E-03
    92 -1.367780950E-02
    93 -1.115172354E-05
    94  1.346821120E-01
    95  1.696893339E-02
    96 -2.367507576E-02
    97  5.992854519E-06
    98  6.513394778E-02
    99  3.896899142E-03
   100 -5.443371434E-03
   101  9.075023120E-06
   102 -7.224195086E-04
   103 -3.430938982E-03
   104 -2.455866061E-03
   105 -3.923927472E-04
   106 -1.195484901E-03
   107  1.679089605E-01
   108  1.531517390E-02
   109 -2.119187836E-02
   110  2.553253685E-04
   111 -3.443374969E-02
   112 -5.291127765E-02
   113 -9.021708621E-08
   114 -5.242586738E-08
   115  1.684371515E-02
   116  1.346285072E-01
   117  5.617208630E-07
   118  2.614994860E-07
   119  2.915196350E-02
   120  6.509465010E-02
   121 -2.963612157E-06
   122 -5.213901760E-06
   123  6.679754703E-03
   124  1.465217596E-03
   125 -7.026835198E-08
   126 -1.948996271E-07
   127 -3.992563595E-03
   128  1.361558738E-03
   129  1.720817628E-01
   130 -5.069196971E-05
   131 -1.356412507E-05
   132  2.721926583E-02
   133 -4.104653273E-02
   134 -6.311003748E-02
   135 -1.276815520E-02
   136  2.189031032E-03
   137 -9.169764691E-03
   138  1.605169038E-01
   139 -2.110501045E-02
   140  3.604508991E-03
   141 -1.515636799E-02
   142  9.883064643E-02
   143 -1.179089567E-02
   144  2.001790849E-03
   145 -8.482137854E-03
   146  1.183823382E-05
   147 -1.490093487E-03
   148  2.569986289E-04
   149 -1.007846280E-03
   150  3.310968020E-04
   151 -2.339689044E-01
   152  4.044695603E-02
   153 -6.677157047E-03
   154  2.850952805E-02
   155 -3.444885222E-02
   156 -5.293465737E-02
   157 -1.367782357E-02
   158 -9.800333481E-03
   159  1.123367789E-05
   160  1.346808594E-01
   161 -2.367485065E-02
   162 -1.696921316E-02
   163 -6.544169092E-06
   164  6.514660409E-02
   165 -5.449422092E-03
   166 -3.896471166E-03
   167 -8.710831872E-06
   168 -7.224279163E-04
   169  2.455863439E-03
   170 -3.430978796E-03
   171  3.925455399E-04
   172  1.195524637E-03
   173  1.681892022E-01
   174 -2.126410604E-02
   175 -1.533746533E-02
   176 -1.946078013E-04
   177 -4.104653636E-02
   178 -6.311007135E-02
   179  2.189029434E-03
   180  1.276812573E-02
   181  9.169732361E-03
   182  1.605180327E-01
   183  3.604499644E-03
   184  2.110529114E-02
   185  1.515663438E-02
   186  9.881827346E-02
   187  2.000160331E-03
   188  1.178595374E-02
   189  8.479397181E-03
   190  1.186653668E-05
   191 -2.570457495E-04
   192 -1.489927898E-03
   193  1.007841461E-03
   194 -3.311002993E-04
   195 -2.345567122E-01
   196 -6.636152771E-03
   197 -4.058323292E-02
   198 -2.856728702E-02
   199 -3.444884449E-02
   200 -5.293460955E-02
   201 -9.800372137E-03
   202  1.367775580E-02
   203 -1.119438936E-05
   204  1.346797979E-01
   205 -1.696889768E-02
   206  2.367523640E-02
   207  6.261007175E-06
   208  6.515922403E-02
   209 -3.902695337E-03
   210  5.450698179E-03
   211  7.032088964E-06
   212 -7.224780551E-04
   213  3.431030504E-03
   214  2.455858458E-03
   215 -3.924293932E-04
   216 -1.195693737E-03
   217  1.684532016E-01
   218 -1.536778160E-02
   219  2.131795309E-02
   220  2.397790935E-04
   221  1.885195751E-02
   222  2.260557142E-02
   223 -1.947583248E-04
   224  7.256789998E-04
   225  4.311186808E-03
   226  3.088388369E-03
   227 -7.400037759E-03
   228  1.743393158E-02
   229  2.180593425E-02
   230 -4.377512245E-03
   231 -3.396407324E-03
   232  5.699546751E-04
   233  3.481827075E-03
   234 -5.057174662E-03
   235  1.748873172E-02
   236  2.184812985E-02
   237 -4.211493403E-03
   238 -4.014655464E-03
   239  1.396466390E-03
   240  2.448929473E-03
   241 -5.175685359E-03
   242  1.742010448E-02
   243  2.178210209E-02
   244 -4.269605186E-03
   245 -5.589046418E-05
   246  4.253981830E-03
   247 -2.418373926E-03
   248 -5.348610037E-03
   249  1.885193392E-02
   250  2.260548462E-02
   251 -1.995535638E-04
   252 -4.311151030E-03
   253  7.256120610E-04
   254 -3.088361739E-03
   255 -7.370454182E-03
   256  1.743396669E-02
   257  2.180608092E-02
   258 -4.376829282E-03
   259 -5.699560033E-04
   260 -3.396460795E-03
   261 -3.481938152E-03
   262 -5.088281680E-03
   263  1.748868950E-02
   264  2.184877989E-02
   265 -4.219225035E-03
   266 -1.396437379E-03
   267 -4.014791229E-03
   268 -2.448904125E-03
   269 -5.188820040E-03
   270  1.742021809E-02
   271  2.178138863E-02
   272 -4.265099470E-03
   273 -4.253923730E-03
   274 -5.596841678E-05
   275  2.418413943E-03
   276 -5.337000138E-03
   277  1.885178980E-02
   278  2.260744541E-02
   279 -2.066570522E-04
   280 -7.256443341E-04
   281 -4.311305767E-03
   282  3.088464526E-03
   283 -7.350139574E-03
   284  1.743381335E-02
   285  2.180700022E-02
   286 -4.391898729E-03
   287  3.396489202E-03
   288 -5.699290764E-04
   289  3.481779315E-03
   290 -5.099567215E-03
   291  1.748884963E-02
   292  2.184778951E-02
   293 -4.205089328E-03
   294  4.014801267E-03
   295 -1.396541824E-03
   296  2.448987807E-03
   297 -5.162491316E-03
   298  1.742011301E-02
   299  2.178270241E-02
   300 -4.273111299E-03
   301  5.591503069E-05
   302 -4.254104849E-03
   303 -2.418423377E-03
   304 -5.377945634E-03
   305  1.885177767E-02
   306  2.260697056E-02
   307 -2.124878769E-04
   308  4.311188704E-03
   309 -7.256682415E-04
   310 -3.088346526E-03
   311 -7.343201366E-03
   312  1.743400542E-02
   313  2.180561475E-02
   314 -4.371886064E-03
   315  5.699360656E-04
   316  3.396466673E-03
   317 -3.481951938E-03
   318 -5.072447250E-03
   319  1.748860957E-02
   320  2.184931925E-02
   321 -4.222699511E-03
   322  1.396435158E-03
   323  4.014790775E-03
   324 -2.448939148E-03
   325 -5.186146719E-03
   326  1.742002628E-02
   327  2.178316770E-02
   328 -4.273124203E-03
   329  4.254036966E-03
   330  5.595421296E-05
   331  2.418480356E-03
   332 -5.343452432E-03
Ene=   -7.6515705078E-01
Spin= Alpha
Occup=   2.0000000
     1  4.006710916E-02
     2  6.191047447E-02
     3 -1.506259853E-02
     4  2.646314902E-03
     5 -1.768898781E-02
     6 -1.611592329E-01
     7 -2.608548309E-02
     8  4.551843700E-03
     9 -2.697438568E-02
    10 -9.570366185E-02
    11 -1.771166316E-02
    12  3.008840169E-03
    13 -5.992426595E-03
    14  1.805916253E-03
    15 -5.709583377E-03
    16  9.328976391E-04
    17 -3.916912808E-03
    18  1.357484680E-03
    19  1.596210631E-01
    20  6.524199388E-02
    21 -1.128022709E-02
    22 -4.183500429E-03
    23  1.592461787E-04
    24  2.455533859E-04
    25  6.702819696E-03
    26 -9.458282166E-03
    27 -2.236940330E-02
    28 -6.307645136E-04
    29  1.129004523E-02
    30 -1.591480196E-02
    31 -3.457916686E-02
    32 -3.534918477E-04
    33  5.005986938E-03
    34 -7.099216150E-03
    35 -1.221237396E-02
    36  1.339700776E-05
    37 -5.424646623E-03
    38 -3.873527159E-03
    39  3.790770743E-03
    40 -1.300280959E-03
    41 -1.827854291E-03
    42 -6.623460159E-03
    43  8.457041542E-03
    44 -4.369050562E-03
    45  6.118646596E-02
    46  9.449973569E-02
    47 -1.966172475E-06
    48  8.142530144E-07
    49  1.129922220E-02
    50 -2.454327075E-01
    51 -2.497839330E-06
    52  1.579158042E-06
    53  2.143357370E-02
    54 -1.325858813E-01
    55 -5.847333108E-06
    56 -2.337733575E-06
    57  5.027130245E-03
    58  3.190528533E-04
    59  7.517552397E-07
    60 -2.666289479E-07
    61 -4.157283570E-03
    62  1.404824680E-03
    63 -2.437646082E-01
    64 -5.209991311E-05
    65 -2.272345219E-05
    66  3.048345749E-02
    67 -4.007332111E-02
    68 -6.192006797E-02
    69 -2.646425792E-03
    70 -1.506185272E-02
    71 -1.768729147E-02
    72  1.611845324E-01
    73 -4.552124934E-03
    74 -2.608414510E-02
    75 -2.697168918E-02
    76  9.571075988E-02
    77 -3.007693754E-03
    78 -1.771213052E-02
    79 -5.992167034E-03
    80 -1.805841487E-03
    81  9.327766948E-04
    82  5.709322151E-03
    83 -3.916575396E-03
    84  1.357326798E-03
    85 -1.605114681E-01
    86  1.131176440E-02
    87  6.533121127E-02
    88 -4.302736539E-03
    89 -1.643315974E-04
    90 -2.533264027E-04
    91  9.460085352E-03
    92  6.703034400E-03
    93 -2.237027776E-02
    94  6.491525632E-04
    95  1.591816114E-02
    96  1.128989570E-02
    97 -3.458039167E-02
    98  3.849632994E-04
    99  7.102181550E-03
   100  5.002337751E-03
   101 -1.221580020E-02
   102 -1.344629219E-05
   103 -3.874062415E-03
   104  5.424626185E-03
   105  3.791220733E-03
   106 -1.300490306E-03
   107  2.422699963E-03
   108 -8.381882871E-03
   109 -6.714817427E-03
   110 -4.418168640E-03
   111 -6.118645822E-02
   112 -9.449968458E-02
   113 -2.889827442E-07
   114  1.809784708E-06
   115  1.129916984E-02
   116  2.454317207E-01
   117 -8.308895326E-07
   118  2.777652146E-06
   119  2.143377091E-02
   120  1.325936744E-01
   121  1.664060190E-06
   122  3.765952076E-06
   123  5.026556373E-03
   124 -3.190156028E-04
   125 -1.755201405E-08
   126  6.324768414E-07
   127 -4.157210821E-03
   128  1.404832261E-03
   129  2.439476224E-01
   130  3.733280033E-05
   131 -4.401969035E-05
   132  3.050720359E-02
   133  4.007379343E-02
   134  6.192080960E-02
   135  1.506228929E-02
   136 -2.643327238E-03
   137 -1.768718883E-02
   138 -1.611865877E-01
   139  2.608507717E-02
   140 -4.547204972E-03
   141 -2.697106059E-02
   142 -9.571179320E-02
   143  1.771039858E-02
   144 -3.004984081E-03
   145 -5.995969284E-03
   146  1.805823061E-03
   147  5.709248159E-03
   148 -9.335983333E-04
   149 -3.916602780E-03
   150  1.357120661E-03
   151  1.605270103E-01
   152 -6.539803763E-02
   153  1.126652948E-02
   154 -4.271516792E-03
   155  1.599563801E-04
   156  2.466329076E-04
   157 -6.704751744E-03
   158  9.461218223E-03
   159 -2.237129466E-02
   160 -6.329725077E-04
   161 -1.129289471E-02
   162  1.591914879E-02
   163 -3.458171097E-02
   164 -3.661880559E-04
   165 -5.006777776E-03
   166  7.107036034E-03
   167 -1.221904282E-02
   168  1.345124366E-05
   169  5.425274263E-03
   170  3.873988908E-03
   171  3.791859834E-03
   172 -1.300684846E-03
   173 -1.892042551E-03
   174  6.629873344E-03
   175 -8.410135751E-03
   176 -4.407021776E-03
   177 -4.006756621E-02
   178 -6.191115761E-02
   179  2.643249160E-03
   180  1.506310315E-02
   181 -1.768883797E-02
   182  1.611605499E-01
   183  4.546796912E-03
   184  2.608580547E-02
   185 -2.697429927E-02
   186  9.570784313E-02
   187  3.007726481E-03
   188  1.771243087E-02
   189 -5.994721884E-03
   190 -1.805935994E-03
   191 -9.336116303E-04
   192 -5.709136292E-03
   193 -3.917226986E-03
   194  1.357329164E-03
   195 -1.602715118E-01
   196 -1.134596333E-02
   197 -6.532531435E-02
   198 -4.190874593E-03
   199 -1.548370593E-04
   200 -2.387140850E-04
   201 -9.459316577E-03
   202 -6.704546068E-03
   203 -2.237048493E-02
   204  6.124330243E-04
   205 -1.591643446E-02
   206 -1.129313594E-02
   207 -3.458012322E-02
   208  3.500945889E-04
   209 -7.101675325E-03
   210 -5.007748546E-03
   211 -1.221673885E-02
   212 -1.343032290E-05
   213  3.873471265E-03
   214 -5.425320784E-03
   215  3.791285348E-03
   216 -1.300498452E-03
   217  1.768912225E-03
   218  8.463098569E-03
   219  6.598000476E-03
   220 -4.478053071E-03
   221  2.716152558E-02
   222  3.451262223E-02
   223 -6.530563682E-05
   224  9.577826611E-04
   225  5.678903111E-03
   226  2.813660411E-03
   227 -1.862539148E-02
   228  4.029152639E-02
   229  4.735678743E-02
   230 -7.318354644E-03
   231 -6.874902982E-03
   232  1.153941231E-03
   233  5.481426869E-03
   234 -4.467721383E-03
   235  3.542941972E-03
   236  4.740392134E-03
   237 -2.106675629E-03
   238 -1.194931779E-03
   239  1.850497424E-05
   240 -5.969256993E-04
   241 -1.537344910E-03
   242 -3.288139615E-03
   243 -4.440652434E-03
   244  1.986169022E-03
   245 -3.610753102E-04
   246 -1.100413335E-03
   247 -6.244155442E-04
   248  1.699828818E-03
   249 -2.716566274E-02
   250 -3.451915405E-02
   251  6.887990864E-05
   252  5.679740304E-03
   253 -9.580175077E-04
   254  2.814395025E-03
   255  1.867569424E-02
   256 -4.029165075E-02
   257 -4.735625672E-02
   258  7.313939405E-03
   259  1.153848985E-03
   260  6.874978348E-03
   261  5.481394745E-03
   262  4.454430129E-03
   263 -3.546181077E-03
   264 -4.742781011E-03
   265  2.095393184E-03
   266  1.860084861E-05
   267  1.195438888E-03
   268 -5.965755137E-04
   269  1.488200525E-03
   270  3.284553285E-03
   271  4.435881851E-03
   272 -1.981048727E-03
   273 -1.099741342E-03
   274  3.609760752E-04
   275 -6.248836878E-04
   276 -1.684871081E-03
   277  2.716535886E-02
   278  3.451892607E-02
   279 -6.613846912E-05
   280 -9.581196835E-04
   281 -5.679689905E-03
   282  2.814289433E-03
   283 -1.862961329E-02
   284  4.029223782E-02
   285  4.735624101E-02
   286 -7.306133833E-03
   287  6.874897579E-03
   288 -1.153920203E-03
   289  5.481545697E-03
   290 -4.423408508E-03
   291  3.549152649E-03
   292  4.748053781E-03
   293 -2.117804852E-03
   294  1.195883133E-03
   295 -1.868863930E-05
   296 -5.961666766E-04
   297 -1.525035234E-03
   298 -3.282171775E-03
   299 -4.431024840E-03
   300  1.967327215E-03
   301  3.608509629E-04
   302  1.099230208E-03
   303 -6.251940099E-04
   304  1.691327655E-03
   305 -2.716092036E-02
   306 -3.451550046E-02
   307  8.802748284E-05
   308 -5.679081461E-03
   309  9.579265419E-04
   310  2.813742954E-03
   311  1.863384100E-02
   312 -4.029223095E-02
   313 -4.735645517E-02
   314  7.301308484E-03
   315 -1.154041298E-03
   316 -6.874996552E-03
   317  5.481563196E-03
   318  4.415213419E-03
   319 -3.546243381E-03
   320 -4.743248749E-03
   321  2.101348942E-03
   322 -1.861307572E-05
   323 -1.195382715E-03
   324 -5.964709989E-04
   325  1.493933824E-03
   326  3.285637351E-03
   327  4.436038879E-03
   328 -1.973506184E-03
   329  1.099836573E-03
   330 -3.608624078E-04
   331 -6.247989864E-04
   332 -1.680089748E-03
Ene=   -7.6501856415E-01
Spin= Alpha
Occup=   2.0000000
     1  3.764413202E-02
     2  5.816736654E-02
     3  1.067462982E-03
     4 -2.166457715E-02
     5  1.021176758E-02
     6 -1.514205909E-01
     7 -1.228011462E-04
     8 -3.444263658E-02
     9  1.768137933E-02
    10 -8.991607018E-02
    11 -6.673884480E-03
    12 -1.294608045E-02
    13  1.195146838E-02
    14 -8.808500800E-04
    15  1.037905731E-03
    16  6.062566220E-03
    17  3.084791158E-03
    18 -2.796361325E-03
    19  1.479843739E-01
    20  3.827356586E-02
    21  2.530781809E-02
    22 -4.401394703E-02
    23 -3.535560983E-03
    24 -5.460244318E-03
    25  1.352485831E-02
    26 -1.781869392E-02
    27 -1.159183838E-02
    28  1.416335392E-02
    29  2.107625036E-02
    30 -2.741249083E-02
    31 -1.952282621E-02
    32  7.830486949E-03
    33  7.400446375E-03
    34 -9.710971412E-03
    35 -8.678447008E-03
    36  2.723608186E-05
    37 -3.412520365E-03
    38 -2.120208653E-03
    39  6.294592420E-03
    40 -2.164977245E-03
    41  1.319899507E-02
    42  3.907685408E-03
    43 -2.537846577E-03
    44  1.078596456E-02
    45  4.733229508E-06
    46  7.397949139E-06
    47  2.091395905E-02
    48 -1.159234576E-02
    49  9.685414809E-07
    50 -2.136210724E-05
    51  3.356346941E-02
    52 -1.692029282E-02
    53  1.098296294E-06
    54  1.792278397E-05
    55  1.325762050E-02
    56 -4.840993020E-03
    57 -9.954081221E-06
    58  1.756763748E-07
    59 -6.663879601E-03
    60  3.110212726E-03
    61  3.403149801E-09
    62 -5.408459840E-08
    63  1.250929653E-03
    64 -6.221451912E-03
    65 -1.010991677E-02
    66 -3.025801908E-04
    67  4.232880133E-02
    68  6.540662858E-02
    69  1.790768775E-02
    70 -8.223002951E-03
    71 -1.140005409E-02
    72 -1.702925982E-01
    73  2.904002192E-02
    74 -1.112229481E-02
    75 -1.974525173E-02
    76 -1.008727243E-01
    77  1.313237451E-02
    78  2.774671138E-03
    79 -1.334615514E-02
    80 -9.518306581E-04
    81  5.397367962E-03
    82 -8.654002996E-04
    83 -4.576392178E-03
    84 -4.630551059E-06
    85  1.701219987E-01
    86 -3.450064550E-02
    87 -3.315785969E-02
    88  4.950168015E-02
    89  6.108973637E-02
    90  9.435076717E-02
    91 -7.599649406E-03
    92  8.344252202E-03
    93  7.240444031E-04
    94 -2.450217588E-01
    95 -1.406482493E-02
    96  1.613228040E-02
    97  1.175437785E-03
    98 -1.326322518E-01
    99 -3.501470387E-03
   100  3.777241956E-03
   101  6.006947366E-04
   102 -1.636392235E-04
   103  3.698913150E-03
   104  2.354656570E-03
   105 -4.781245438E-04
   106 -1.497513850E-04
   107 -2.420394851E-01
   108 -1.797831367E-02
   109  2.413349060E-02
   110 -4.686741728E-04
   111 -4.741301952E-06
   112 -7.411777580E-06
   113  2.917107005E-03
   114 -2.623990367E-02
   115  9.142446176E-07
   116  2.145833243E-05
   117  3.259182244E-03
   118 -4.156468389E-02
   119  1.547660934E-06
   120 -1.486037409E-05
   121 -3.251011581E-04
   122 -1.584082117E-02
   123 -7.485931085E-06
   124 -2.992236137E-07
   125  4.369176797E-04
   126 -8.170332036E-03
   127 -3.207185908E-07
   128  5.407724459E-08
   129 -3.556946565E-04
   130  1.092455089E-02
   131  2.800835052E-03
   132 -4.942145416E-05
   133 -3.763796666E-02
   134 -5.815790279E-02
   135  1.069939336E-03
   136 -2.166493043E-02
   137 -1.021452900E-02
   138  1.513979914E-01
   139 -1.199027206E-04
   140 -3.444344283E-02
   141 -1.768560484E-02
   142  8.987740800E-02
   143 -6.648596904E-03
   144 -1.294608646E-02
   145 -1.195401639E-02
   146  8.813152692E-04
   147  1.039415156E-03
   148  6.062185828E-03
   149 -3.085692936E-03
   150  2.796688234E-03
   151 -1.492983027E-01
   152  3.865738238E-02
   153  2.528478858E-02
   154  4.402864947E-02
   155  3.535528449E-03
   156  5.460110954E-03
   157  1.352383724E-02
   158 -1.781746958E-02
   159  1.158850315E-02
   160 -1.416139015E-02
   161  2.107451109E-02
   162 -2.740873596E-02
   163  1.951683534E-02
   164 -7.849130534E-03
   165  7.411313560E-03
   166 -9.721110202E-03
   167  8.691836950E-03
   168 -2.709625356E-05
   169 -3.412340484E-03
   170 -2.119691305E-03
   171 -6.294430304E-03
   172  2.165057189E-03
   173 -1.446354276E-02
   174  4.218751532E-03
   175 -2.470896122E-03
   176 -1.069771205E-02
   177 -4.233498660E-02
   178 -6.541614343E-02
   179  1.790800639E-02
   180 -8.220712926E-03
   181  1.139744843E-02
   182  1.703156242E-01
   183  2.904117808E-02
   184 -1.111788010E-02
   185  1.974014065E-02
   186  1.009109198E-01
   187  1.312759086E-02
   188  2.783182569E-03
   189  1.336290646E-02
   190  9.514854322E-04
   191  5.396970162E-03
   192 -8.668330756E-04
   193  4.576299631E-03
   194  4.603669468E-06
   195 -1.681727979E-01
   196 -3.461346045E-02
   197 -3.292283141E-02
   198 -4.914781740E-02
   199 -6.108975316E-02
   200 -9.435085584E-02
   201 -7.600851546E-03
   202  8.343438992E-03
   203 -7.274609162E-04
   204  2.450232943E-01
   205 -1.406877100E-02
   206  1.612925811E-02
   207 -1.180860503E-03
   208  1.326197461E-01
   209 -3.485296068E-03
   210  3.787336055E-03
   211 -5.921198200E-04
   212  1.639057453E-04
   213  3.699205346E-03
   214  2.354200953E-03
   215  4.780915447E-04
   216  1.496218937E-04
   217  2.417491684E-01
   218 -1.781366443E-02
   219  2.419226044E-02
   220  4.164576652E-04
   221  2.872644383E-02
   222  3.650719325E-02
   223 -1.263312764E-04
   224  1.678277846E-03
   225  4.947785851E-03
   226  4.302072604E-03
   227 -1.966154140E-02
   228  3.259263254E-03
   229  4.408144435E-03
   230 -1.954649769E-03
   231 -4.222395109E-04
   232 -1.109348652E-03
   233  6.700744582E-04
   234 -1.546558952E-03
   235  4.009534388E-02
   236  4.701815738E-02
   237 -7.151960092E-03
   238 -7.193165495E-03
   239  1.486187923E-03
   240  4.885341123E-03
   241 -4.412094478E-03
   242  4.043041717E-02
   243  4.757564791E-02
   244 -7.321463208E-03
   245  7.451200735E-04
   246  7.346981266E-03
   247 -4.950784906E-03
   248 -4.519307766E-03
   249  2.554276078E-02
   250  3.246979559E-02
   251 -1.212890134E-04
   252 -4.674025359E-03
   253 -1.615125061E-04
   254 -3.829717591E-03
   255 -1.754790684E-02
   256 -3.588854802E-03
   257 -4.826104895E-03
   258  2.081106349E-03
   259  1.058871402E-03
   260  7.991774324E-05
   261  7.354018457E-04
   262  1.605082183E-03
   263 -5.796143746E-03
   264 -7.377038422E-03
   265  2.454072160E-03
   266  1.009018291E-03
   267  3.333041996E-04
   268  1.238719724E-03
   269  1.861646335E-03
   270  1.113862555E-03
   271  1.906372951E-03
   272 -1.656646164E-03
   273  1.943936565E-04
   274 -9.516808822E-04
   275  6.683879133E-04
   276 -1.383021211E-03
   277 -2.872267102E-02
   278 -3.649785911E-02
   279  8.715591704E-05
   280  1.678073030E-03
   281  4.946704666E-03
   282 -4.301539035E-03
   283  1.971905870E-02
   284 -3.252903874E-03
   285 -4.400721563E-03
   286  1.940124967E-03
   287 -4.209496370E-04
   288 -1.109599243E-03
   289 -6.690623214E-04
   290  1.604818277E-03
   291 -4.009492926E-02
   292 -4.701589918E-02
   293  7.137218371E-03
   294 -7.192889889E-03
   295  1.486273187E-03
   296 -4.885368181E-03
   297  4.338725319E-03
   298 -4.043065966E-02
   299 -4.757840187E-02
   300  7.353935922E-03
   301  7.453040899E-04
   302  7.347134282E-03
   303  4.950555958E-03
   304  4.610091307E-03
   305 -2.554675751E-02
   306 -3.247684760E-02
   307  1.360888073E-04
   308 -4.674923206E-03
   309 -1.614259876E-04
   310  3.830226934E-03
   311  1.744290163E-02
   312  3.581975342E-03
   313  4.823657995E-03
   314 -2.138951284E-03
   315  1.058670290E-03
   316  7.893005805E-05
   317 -7.342101703E-04
   318 -1.538340659E-03
   319  5.796100926E-03
   320  7.372552962E-03
   321 -2.405094172E-03
   322  1.009132020E-03
   323  3.330807954E-04
   324 -1.238902780E-03
   325 -1.887696513E-03
   326 -1.112939614E-03
   327 -1.908591216E-03
   328  1.699169525E-03
   329  1.946619304E-04
   330 -9.517069937E-04
   331 -6.685936891E-04
   332  1.340245615E-03
Ene=   -7.6501853316E-01
Spin= Alpha
Occup=   2.0000000
     1  4.233230208E-02
     2  6.541197746E-02
     3  8.221648812E-03
     4  1.790791717E-02
     5  1.139859913E-02
     6 -1.703041655E-01
     7  1.112028296E-02
     8  2.904026441E-02
     9  1.974221877E-02
    10 -1.009125984E-01
    11 -2.789856016E-03
    12  1.313920658E-02
    13  1.336116202E-02
    14 -9.516550418E-04
    15 -8.665401257E-04
    16 -5.397367268E-03
    17  4.576594895E-03
    18  4.596364114E-06
    19  1.678057339E-01
    20  3.280887471E-02
    21 -3.445696205E-02
    22 -4.914151816E-02
    23  6.108974734E-02
    24  9.435091606E-02
    25 -8.343838044E-03
    26 -7.600407717E-03
    27 -7.258441702E-04
    28 -2.450253641E-01
    29 -1.613053358E-02
    30 -1.406670421E-02
    31 -1.179328034E-03
    32 -1.325937044E-01
    33 -3.772573797E-03
    34 -3.485344471E-03
    35 -5.882973243E-04
    36 -1.638161641E-04
    37  2.354397516E-03
    38 -3.698751423E-03
    39  4.781354305E-04
    40  1.499009567E-04
    41 -2.407495328E-01
    42 -2.391731699E-02
    43 -1.775152511E-02
    44  5.172974159E-04
    45  6.417212260E-07
    46  9.966001779E-07
    47  2.623971855E-02
    48  2.917222163E-03
    49  1.155765340E-07
    50 -2.853114586E-06
    51  4.156563024E-02
    52  3.258457977E-03
    53  2.985281565E-07
    54  3.503223101E-06
    55  1.582471974E-02
    56 -3.208144582E-04
    57 -3.386244930E-06
    58  4.558319245E-08
    59 -8.169808525E-03
    60 -4.370180300E-04
    61  2.003210603E-08
    62  1.078170298E-07
    63  2.479559551E-05
    64 -2.883988417E-03
    65  1.098652787E-02
    66 -2.737080122E-05
    67 -3.764146629E-02
    68 -5.816324359E-02
    69  2.166469416E-02
    70  1.068545636E-03
    71  1.021295649E-02
    72  1.514098546E-01
    73  3.444346835E-02
    74 -1.216912789E-04
    75  1.768317757E-02
    76  8.990785456E-02
    77  1.293863496E-02
    78 -6.666441832E-03
    79  1.195845414E-02
    80  8.810741999E-04
    81  6.062394970E-03
    82 -1.038263394E-03
    83  3.085442263E-03
    84 -2.796677428E-03
    85 -1.477756807E-01
    86 -2.529293738E-02
    87  3.836298581E-02
    88 -4.391625695E-02
    89  3.535557825E-03
    90  5.460191409E-03
    91  1.781811806E-02
    92  1.352438119E-02
    93 -1.159024644E-02
    94 -1.416212727E-02
    95  2.741108720E-02
    96  2.107567657E-02
    97 -1.952107864E-02
    98 -7.843275405E-03
    99  9.708360611E-03
   100  7.400676512E-03
   101 -8.673581948E-03
   102 -2.726212239E-05
   103 -2.119783231E-03
   104  3.412140472E-03
   105  6.294187011E-03
   106 -2.164954363E-03
   107 -1.380675893E-02
   108  2.463786671E-03
   109  4.055846352E-03
   110  1.081320139E-02
   111 -6.333687998E-07
   112 -1.012311542E-06
   113  1.159243522E-02
   114  2.091389195E-02
   115  1.043324339E-07
   116  3.569570034E-06
   117  1.691977675E-02
   118  3.356387304E-02
   119  4.222239994E-07
   120 -9.715531848E-06
   121  4.843053024E-03
   122  1.325079954E-02
   123 -3.702608175E-06
   124 -6.616772896E-08
   125  3.110143584E-03
   126  6.663598467E-03
   127 -3.665709087E-08
   128  1.659837257E-07
   129  1.012215896E-05
   130  1.012620395E-02
   131 -6.306144385E-03
   132  2.826933282E-06
   133 -4.233147451E-02
   134 -6.541071489E-02
   135  8.221990424E-03
   136  1.790777694E-02
   137 -1.139898673E-02
   138  1.703011712E-01
   139  1.112070828E-02
   140  2.904089566E-02
   141 -1.974281708E-02
   142  1.009085844E-01
   143 -2.784926954E-03
   144  1.312716050E-02
   145 -1.336141190E-02
   146  9.517191919E-04
   147 -8.662423092E-04
   148 -5.397075806E-03
   149 -4.576704704E-03
   150 -4.462670259E-06
   151 -1.679182373E-01
   152  3.277257931E-02
   153 -3.471130113E-02
   154  4.919206455E-02
   155 -6.108976753E-02
   156 -9.435093652E-02
   157 -8.343970953E-03
   158 -7.600161942E-03
   159  7.254497020E-04
   160  2.450253182E-01
   161 -1.613080154E-02
   162 -1.406670967E-02
   163  1.178275284E-03
   164  1.325967850E-01
   165 -3.775194392E-03
   166 -3.485870427E-03
   167  5.918031485E-04
   168  1.639869083E-04
   169  2.354494040E-03
   170 -3.698982015E-03
   171 -4.780365888E-04
   172 -1.499244549E-04
   173  2.413799579E-01
   174 -2.403473028E-02
   175 -1.789774509E-02
   176 -3.839858998E-04
   177  3.764064740E-02
   178  5.816199632E-02
   179  2.166481999E-02
   180  1.068820918E-03
   181 -1.021334511E-02
   182 -1.514070053E-01
   183  3.444280909E-02
   184 -1.207543691E-04
   185 -1.768369748E-02
   186 -8.990163293E-02
   187  1.295164614E-02
   188 -6.665197904E-03
   189 -1.195768787E-02
   190 -8.811451299E-04
   191  6.062692946E-03
   192 -1.038737219E-03
   193 -3.085359355E-03
   194  2.796672789E-03
   195  1.483703971E-01
   196 -2.520384279E-02
   197  3.834246631E-02
   198  4.404627769E-02
   199 -3.535554759E-03
   200 -5.460262865E-03
   201  1.781796839E-02
   202  1.352439282E-02
   203  1.158975562E-02
   204  1.416379268E-02
   205  2.741060031E-02
   206  2.107443443E-02
   207  1.952070507E-02
   208  7.825945335E-03
   209  9.713265439E-03
   210  7.401092261E-03
   211  8.675171326E-03
   212  2.713759877E-05
   213 -2.119957461E-03
   214  3.411865063E-03
   215 -6.294347139E-03
   216  2.165008628E-03
   217  1.264166596E-02
   218  2.700946157E-03
   219  3.889415578E-03
   220 -1.088003217E-02
   221 -2.554444064E-02
   222 -3.247347716E-02
   223  1.317979814E-04
   224  1.614871901E-04
   225 -4.674504950E-03
   226 -3.829857094E-03
   227  1.745924109E-02
   228  3.585709001E-03
   229  4.826651117E-03
   230 -2.122766490E-03
   231 -7.958080501E-05
   232  1.058763766E-03
   233  7.349264134E-04
   234 -1.578353157E-03
   235  5.796371712E-03
   236  7.373498179E-03
   237 -2.410736247E-03
   238 -3.332231110E-04
   239  1.009171610E-03
   240  1.238874555E-03
   241 -1.958071222E-03
   242 -1.112814122E-03
   243 -1.913184238E-03
   244  1.735855588E-03
   245  9.515883719E-04
   246  1.945267387E-04
   247  6.686835913E-04
   248  1.412548168E-03
   249  2.872413826E-02
   250  3.650320989E-02
   251 -1.227940330E-04
   252 -4.947251588E-03
   253  1.678130218E-03
   254 -4.301799784E-03
   255 -1.964604433E-02
   256  3.255657052E-03
   257  4.403952808E-03
   258 -1.949550999E-03
   259  1.109550172E-03
   260 -4.216072638E-04
   261 -6.694395635E-04
   262 -1.574511739E-03
   263  4.009514621E-02
   264  4.701739025E-02
   265 -7.147353590E-03
   266 -1.486248550E-03
   267 -7.193246331E-03
   268 -4.885385873E-03
   269 -4.353902865E-03
   270  4.043061940E-02
   271  4.757730263E-02
   272 -7.344949575E-03
   273 -7.347175272E-03
   274  7.451528425E-04
   275  4.950824752E-03
   276 -4.555063036E-03
   277  2.554474258E-02
   278  3.247672836E-02
   279 -1.540886612E-04
   280  1.615080465E-04
   281 -4.674658639E-03
   282  3.830062471E-03
   283 -1.746355296E-02
   284 -3.584989706E-03
   285 -4.824030879E-03
   286  2.110130402E-03
   287 -7.927521983E-05
   288  1.058739203E-03
   289 -7.347059664E-04
   290  1.593559216E-03
   291 -5.796073226E-03
   292 -7.374619104E-03
   293  2.439231382E-03
   294 -3.331129223E-04
   295  1.009108618E-03
   296 -1.238820036E-03
   297  1.868752390E-03
   298  1.113266424E-03
   299  1.908571549E-03
   300 -1.678113373E-03
   301  9.517041501E-04
   302  1.944907067E-04
   303 -6.685850064E-04
   304 -1.394709975E-03
   305 -2.872460760E-02
   306 -3.650500849E-02
   307  1.255792124E-04
   308 -4.947383100E-03
   309  1.678116811E-03
   310  4.301956426E-03
   311  1.960731028E-02
   312 -3.256445460E-03
   313 -4.405581446E-03
   314  1.957512690E-03
   315  1.109587794E-03
   316 -4.217392360E-04
   317  6.695857309E-04
   318  1.600193262E-03
   319 -4.009552531E-02
   320 -4.701450582E-02
   321  7.110856706E-03
   322 -1.486344644E-03
   323 -7.193205899E-03
   324  4.885308842E-03
   325  4.355035447E-03
   326 -4.043058782E-02
   327 -4.757662880E-02
   328  7.330989044E-03
   329 -7.347248203E-03
   330  7.450936656E-04
   331 -4.950712830E-03
   332  4.644247248E-03
Ene=   -6.6382468452E-01
Spin= Alpha
Occup=   2.0000000
     1  2.504419720E-05
     2  3.932149228E-05
     3 -2.611290534E-02
     4  4.342790757E-03
     5 -3.750110393E-02
     6 -1.135969074E-04
     7 -4.137118365E-02
     8  6.867272306E-03
     9 -5.939197389E-02
    10 -4.204855651E-05
    11 -1.725589050E-02
    12  2.917942908E-03
    13 -2.483821079E-02
    14 -4.457369075E-04
    15 -6.289383032E-03
    16  1.045198280E-03
    17 -8.518457329E-03
    18  2.921796746E-03
    19  2.101703737E-04
    20  7.363754087E-04
    21 -7.051640200E-04
    22  9.107872404E-04
    23 -3.202360575E-02
    24 -4.977571266E-02
    25 -5.746957334E-03
    26 -4.120073187E-03
    27 -4.206797479E-05
    28  1.329442110E-01
    29 -6.287441118E-03
    30 -4.520677169E-03
    31 -8.091165788E-05
    32  8.191704052E-02
    33 -4.151451305E-03
    34 -2.907885711E-03
    35 -3.110417001E-05
    36 -3.099104673E-03
    37  2.082146784E-04
    38 -3.260275878E-04
    39 -7.012251160E-04
    40 -2.099479164E-03
    41 -9.010053588E-03
    42 -7.204636033E-03
    43 -4.932107414E-03
    44 -7.977461036E-04
    45  6.407800766E-02
    46  9.959942000E-02
    47  1.427096702E-07
    48  2.681194839E-08
    49 -1.416813571E-02
    50 -2.660297950E-01
    51 -7.043984332E-07
    52 -2.151063402E-07
    53 -1.552491907E-02
    54 -1.639039671E-01
    55  1.320113115E-05
    56 -2.873727403E-07
    57 -1.012529746E-02
    58  7.384072283E-04
    59 -4.594645836E-07
    60  1.176739062E-07
    61  7.215645619E-04
    62 -2.554928704E-04
    63  1.953115191E-02
    64  9.099538914E-05
    65 -3.336812405E-06
    66 -1.761996306E-02
    67  2.506073090E-05
    68  3.935833094E-05
    69  4.339047294E-03
    70  2.611350593E-02
    71  3.750110297E-02
    72 -1.142004244E-04
    73  6.861093464E-03
    74  4.137216655E-02
    75  5.939175175E-02
    76 -3.584675440E-05
    77  2.914350607E-03
    78  1.725682325E-02
    79  2.483868109E-02
    80 -4.457781568E-04
    81 -1.046344604E-03
    82 -6.289199127E-03
    83  8.518402113E-03
    84 -2.921693779E-03
    85  3.095217457E-04
    86 -7.364628709E-04
    87 -7.800077199E-04
    88 -9.209680987E-04
    89 -3.202820461E-02
    90 -4.978294275E-02
    91 -4.120669603E-03
    92  5.747711623E-03
    93  4.189642268E-05
    94  1.329655186E-01
    95 -4.521293712E-03
    96  6.288817618E-03
    97  8.189281360E-05
    98  8.190476153E-02
    99 -2.911460431E-03
   100  4.160232125E-03
   101  2.250557844E-05
   102 -3.098807350E-03
   103  3.260939213E-04
   104  2.085839824E-04
   105  7.014220270E-04
   106  2.099520183E-03
   107 -9.793798619E-03
   108 -5.039093762E-03
   109  7.334339843E-03
   110  6.843757604E-04
   111  6.407799976E-02
   112  9.959936346E-02
   113 -8.525070428E-08
   114 -6.676207332E-08
   115  1.416819821E-02
   116 -2.660285284E-01
   117  5.347705902E-07
   118  3.793005529E-07
   119  1.552472842E-02
   120 -1.639160656E-01
   121 -3.125587690E-06
   122 -8.935512860E-06
   123  1.012173664E-02
   124  7.383161779E-04
   125 -9.562361707E-08
   126 -3.291986031E-07
   127 -7.215880002E-04
   128  2.550987760E-04
   129  1.908160464E-02
   130 -6.576409654E-05
   131 -5.767473232E-05
   132  1.752449684E-02
   133  2.503061895E-05
   134  3.922553184E-05
   135  2.611297929E-02
   136 -4.342784470E-03
   137 -3.750103870E-02
   138 -1.108155866E-04
   139  4.137051922E-02
   140 -6.867022481E-03
   141 -5.939225951E-02
   142 -7.179209162E-05
   143  1.727257110E-02
   144 -2.919368597E-03
   145 -2.482481969E-02
   146 -4.457943565E-04
   147  6.289827652E-03
   148 -1.045517747E-03
   149 -8.517957746E-03
   150  2.921514500E-03
   151 -1.822265881E-03
   152 -3.614350762E-04
   153  7.118665689E-04
   154  1.143083685E-03
   155 -3.202358721E-02
   156 -4.977565563E-02
   157  5.746965866E-03
   158  4.120053392E-03
   159 -4.172971443E-05
   160  1.329432809E-01
   161  6.287643090E-03
   162  4.520647162E-03
   163 -8.278156814E-05
   164  8.192729608E-02
   165  4.154766781E-03
   166  2.895252268E-03
   167 -9.565865434E-06
   168 -3.099141075E-03
   169 -2.088048860E-04
   170  3.256321927E-04
   171 -7.016822173E-04
   172 -2.099226760E-03
   173 -8.923411432E-03
   174  7.160785460E-03
   175  4.948727524E-03
   176 -6.133082171E-04
   177  2.504109020E-05
   178  3.926130854E-05
   179 -4.339070669E-03
   180 -2.611355839E-02
   181  3.750107035E-02
   182 -1.116903464E-04
   183 -6.861354847E-03
   184 -4.137177138E-02
   185  5.939194792E-02
   186 -6.319034364E-05
   187 -2.918820117E-03
   188 -1.726668330E-02
   189  2.482878075E-02
   190 -4.458011184E-04
   191  1.046103393E-03
   192  6.289562146E-03
   193  8.517951100E-03
   194 -2.921685676E-03
   195 -1.241212128E-03
   196  6.907897314E-04
   197  4.975411111E-04
   198 -1.080589485E-03
   199 -3.202815348E-02
   200 -4.978266489E-02
   201  4.120769848E-03
   202 -5.747795895E-03
   203  4.190375141E-05
   204  1.329598050E-01
   205  4.520855907E-03
   206 -6.288543534E-03
   207  8.189439219E-05
   208  8.196496559E-02
   209  2.900281511E-03
   210 -4.140977570E-03
   211  2.349641129E-05
   212 -3.099056118E-03
   213 -3.257737496E-04
   214 -2.083376493E-04
   215  7.011952792E-04
   216  2.099185652E-03
   217 -8.042627697E-03
   218  4.853572646E-03
   219 -6.991176824E-03
   220  7.069875178E-04
   221 -2.190661469E-05
   222 -3.302481037E-05
   223  3.732461884E-05
   224 -2.130168193E-04
   225 -1.290786045E-03
   226  1.843283362E-03
   227  5.627764039E-05
   228 -5.598952657E-02
   229 -6.705319503E-02
   230 -2.032525225E-03
   231  8.737890304E-03
   232 -1.470019080E-03
   233 -5.552903343E-03
   234  3.217788010E-03
   235  2.794682201E-02
   236  3.346303480E-02
   237  1.048582264E-03
   238 -4.125185036E-03
   239  4.275019729E-04
   240  3.173131474E-03
   241 -1.355446127E-03
   242  2.802437054E-02
   243  3.356311368E-02
   244  8.747944864E-04
   245  8.939969860E-04
   246  4.082743946E-03
   247 -3.133765437E-03
   248 -1.940174926E-03
   249 -2.183910368E-05
   250 -3.355128564E-05
   251  4.375212172E-05
   252  1.290749023E-03
   253 -2.132405233E-04
   254 -1.843298540E-03
   255  1.390105564E-05
   256 -5.598971402E-02
   257 -6.705172401E-02
   258 -2.052398004E-03
   259  1.470023130E-03
   260  8.737890620E-03
   261  5.553023274E-03
   262  3.188925547E-03
   263  2.794295140E-02
   264  3.345760969E-02
   265  1.057638592E-03
   266 -4.275720063E-04
   267 -4.124651922E-03
   268 -3.172789671E-03
   269 -1.380455759E-03
   270  2.802060320E-02
   271  3.355664120E-02
   272  8.967062741E-04
   273 -4.082385820E-03
   274  8.938202078E-04
   275  3.133238711E-03
   276 -1.923150663E-03
   277 -2.219724448E-05
   278 -3.084733587E-05
   279  1.217356117E-05
   280  2.130731099E-04
   281  1.290707930E-03
   282  1.843297232E-03
   283  1.217653104E-04
   284 -5.598967960E-02
   285 -6.705160436E-02
   286 -2.048770066E-03
   287 -8.737814606E-03
   288  1.470115046E-03
   289 -5.552931542E-03
   290  3.164730138E-03
   291  2.794725222E-02
   292  3.346059304E-02
   293  1.074999830E-03
   294  4.125448189E-03
   295 -4.277040078E-04
   296  3.173170314E-03
   297 -1.342401996E-03
   298  2.802468332E-02
   299  3.356177873E-02
   300  8.934551817E-04
   301 -8.938183310E-04
   302 -4.083089599E-03
   303 -3.133846719E-03
   304 -1.961209311E-03
   305 -2.225205528E-05
   306 -2.969488018E-05
   307  9.432710601E-06
   308 -1.290602402E-03
   309  2.132236221E-04
   310 -1.843380329E-03
   311  1.206086144E-04
   312 -5.598968599E-02
   313 -6.705176503E-02
   314 -2.046565473E-03
   315 -1.470117513E-03
   316 -8.737858503E-03
   317  5.552987592E-03
   318  3.197770605E-03
   319  2.794315782E-02
   320  3.345592357E-02
   321  1.076699204E-03
   322  4.275924782E-04
   323  4.124738819E-03
   324 -3.172696244E-03
   325 -1.299805392E-03
   326  2.802036483E-02
   327  3.355925744E-02
   328  8.663749601E-04
   329  4.082371966E-03
   330 -8.938068930E-04
   331  3.133437029E-03
   332 -2.007835497E-03
Ene=   -6.6357407598E-01
Spin= Alpha
Occup=   2.0000000
     1 -1.452285851E-04
     2 -2.266039898E-04
     3  7.509251050E-03
     4  4.522602717E-02
     5 -9.636858195E-06
     6  6.062784091E-04
     7  1.192139503E-02
     8  7.164595578E-02
     9 -2.892731518E-05
    10  4.845804942E-04
    11  4.986812829E-03
    12  2.997085394E-02
    13  7.896392490E-06
    14  4.098727053E-05
    15 -1.793675708E-03
    16 -1.089593259E-02
    17 -1.045676578E-04
    18 -4.474592905E-04
    19 -1.176171288E-03
    20 -5.182331809E-04
    21 -1.053488724E-03
    22  3.016634665E-04
    23  5.548751683E-02
    24  8.624860356E-02
    25  9.990728544E-03
    26  7.255138462E-03
    27  5.256171036E-06
    28 -2.303918350E-01
    29  1.092864961E-02
    30  7.992548149E-03
    31  4.528479670E-05
    32 -1.419844137E-01
    33  7.169819507E-03
    34  5.200467573E-03
    35  1.360865423E-05
    36 -2.205535975E-03
    37 -3.852019436E-04
    38  5.506494907E-04
    39 -1.989012146E-04
    40 -4.877202287E-04
    41  1.702342116E-02
    42  1.250724113E-02
    43  9.001002440E-03
    44  5.963061126E-05
    45 -1.682164691E-04
    46 -2.619283183E-04
    47  2.848519419E-08
    48 -2.366181452E-08
    49  1.754913339E-05
    50  7.184677771E-04
    51  5.762031052E-08
    52  1.269219704E-07
    53  1.157760615E-06
    54  4.083128719E-04
    55  3.009117997E-08
    56 -4.685637105E-07
    57  6.219472759E-05
    58  2.128079749E-06
    59 -1.288936087E-08
    60  3.184924121E-08
    61 -1.393539588E-03
    62 -4.132428928E-03
    63  5.629906902E-04
    64 -1.353291575E-05
    65 -5.983936641E-06
    66 -1.010496959E-04
    67  1.452749009E-04
    68  2.266690838E-04
    69 -4.522639907E-02
    70  7.507111376E-03
    71 -1.271662623E-05
    72 -6.060513833E-04
    73 -7.164654420E-02
    74  1.191789872E-02
    75 -3.402205641E-05
    76 -4.911228581E-04
    77 -2.997120156E-02
    78  4.988270237E-03
    79  8.717295336E-06
    80 -4.093642482E-05
    81 -1.089589509E-02
    82  1.794068476E-03
    83 -1.052546870E-04
    84 -4.472083629E-04
    85  7.249304670E-04
    86  1.046941293E-03
    87 -4.208240292E-04
    88  2.955332529E-04
    89 -5.548485656E-02
    90 -8.624445227E-02
    91 -7.254811178E-03
    92  9.990292678E-03
    93  5.210789696E-06
    94  2.303803577E-01
    95 -7.992304881E-03
    96  1.092811015E-02
    97  4.553568900E-05
    98  1.419809246E-01
    99 -5.199350462E-03
   100  7.170377057E-03
   101  1.112218252E-05
   102  2.205838498E-03
   103  5.506223440E-04
   104  3.852126606E-04
   105 -1.989037485E-04
   106 -4.879520052E-04
   107 -1.702865018E-02
   108 -9.011091427E-03
   109  1.251798993E-02
   110  5.649255486E-05
   111  1.629283498E-04
   112  2.537463370E-04
   113  1.423793528E-08
   114  3.636749281E-08
   115  1.631914811E-05
   116 -6.973771887E-04
   117 -1.216078315E-07
   118 -2.750342276E-07
   119  1.876126275E-07
   120 -3.861653937E-04
   121  1.165984130E-06
   122  3.997962435E-06
   123  6.228023477E-05
   124 -2.204009817E-06
   125  1.757333015E-08
   126  1.001004356E-07
   127 -1.393585528E-03
   128 -4.132389119E-03
   129 -1.174520687E-04
   130  7.858976783E-07
   131 -5.345725553E-06
   132 -5.429913554E-06
   133 -1.452889115E-04
   134 -2.266876850E-04
   135 -7.509229079E-03
   136 -4.522601821E-02
   137 -9.635061442E-06
   138  6.062566370E-04
   139 -1.192154188E-02
   140 -7.164596213E-02
   141 -2.889078904E-05
   142  4.881246045E-04
   143 -4.985524851E-03
   144 -2.997060338E-02
   145  7.557409771E-06
   146  4.097781575E-05
   147  1.793741944E-03
   148  1.089597243E-02
   149 -1.045788463E-04
   150 -4.474215870E-04
   151 -1.103739368E-03
   152  4.937468050E-04
   153  9.898770202E-04
   154  3.199352019E-04
   155  5.548752137E-02
   156  8.624863486E-02
   157 -9.990679031E-03
   158 -7.255169464E-03
   159  5.212607316E-06
   160 -2.303923996E-01
   161 -1.092887059E-02
   162 -7.992786179E-03
   163  4.573240738E-05
   164 -1.419787559E-01
   165 -7.170877859E-03
   166 -5.200027719E-03
   167  9.184014574E-06
   168 -2.205543749E-03
   169  3.852594367E-04
   170 -5.506698168E-04
   171 -1.988030951E-04
   172 -4.876908359E-04
   173  1.736380878E-02
   174 -1.254573639E-02
   175 -9.060093681E-03
   176  4.998812689E-05
   177  1.452644321E-04
   178  2.266515445E-04
   179  4.522639434E-02
   180 -7.507067650E-03
   181 -1.269898815E-05
   182 -6.063085124E-04
   183  7.164639996E-02
   184 -1.191817976E-02
   185 -3.419344721E-05
   186 -4.849830362E-04
   187  2.997210251E-02
   188 -4.984684690E-03
   189  9.557359510E-06
   190 -4.092659096E-05
   191  1.089592081E-02
   192 -1.794111683E-03
   193 -1.052166943E-04
   194 -4.472191437E-04
   195  1.218347789E-03
   196 -1.025464135E-03
   197  5.138851955E-04
   198  4.058512020E-04
   199 -5.548487854E-02
   200 -8.624451471E-02
   201  7.254844036E-03
   202 -9.990224204E-03
   203  5.261450635E-06
   204  2.303810805E-01
   205  7.992359571E-03
   206 -1.092840069E-02
   207  4.536047398E-05
   208  1.419747961E-01
   209  5.201194113E-03
   210 -7.170023517E-03
   211  1.344635633E-05
   212  2.205853613E-03
   213 -5.507336121E-04
   214 -3.852354635E-04
   215 -1.989524530E-04
   216 -4.879132009E-04
   217 -1.745780094E-02
   218  9.065890445E-03
   219 -1.259054994E-02
   220  4.947837024E-05
   221 -1.527720727E-04
   222 -1.783829269E-04
   223  9.342842979E-06
   224  2.223510632E-03
   225 -3.943505332E-04
   226 -1.706042145E-05
   227  2.215601105E-04
   228 -1.219488414E-04
   229 -1.471511990E-04
   230 -9.950307372E-06
   231  2.250832415E-05
   232 -5.142093230E-05
   233 -1.397223051E-05
   234  8.162858906E-06
   235  4.850967450E-02
   236  5.810409488E-02
   237  1.799069827E-03
   238 -7.225005845E-03
   239  7.003023465E-04
   240  5.429581707E-03
   241 -2.838576302E-03
   242  4.852382623E-02
   243  5.811564544E-02
   244  1.756547841E-03
   245  1.612537009E-03
   246  7.108057404E-03
   247 -5.379197304E-03
   248 -2.898768278E-03
   249  1.528804642E-04
   250  1.774540365E-04
   251 -2.932135163E-06
   252 -3.944211619E-04
   253 -2.223526429E-03
   254 -1.689553003E-05
   255 -1.892486045E-04
   256  1.264692379E-04
   257  1.533659997E-04
   258 -4.925503304E-06
   259 -5.147799105E-05
   260 -2.323621228E-05
   261 -1.436138166E-05
   262  4.341887398E-06
   263 -4.851189097E-02
   264 -5.810744683E-02
   265 -1.790286480E-03
   266  7.003048029E-04
   267  7.225330776E-03
   268  5.429901379E-03
   269  2.835878812E-03
   270 -4.852613071E-02
   271 -5.811866448E-02
   272 -1.755235230E-03
   273  7.108430920E-03
   274 -1.612688674E-03
   275 -5.379457193E-03
   276  2.872105933E-03
   277 -1.528250737E-04
   278 -1.777593347E-04
   279  9.209103025E-06
   280 -2.223505512E-03
   281  3.942924296E-04
   282 -1.708717320E-05
   283  1.854256469E-04
   284 -1.219353092E-04
   285 -1.472168087E-04
   286 -8.711165914E-06
   287 -2.252802987E-05
   288  5.131782510E-05
   289 -1.397600084E-05
   290  1.116768954E-05
   291  4.850952180E-02
   292  5.810508298E-02
   293  1.787419998E-03
   294  7.224978624E-03
   295 -7.002783977E-04
   296  5.429585921E-03
   297 -2.836140600E-03
   298  4.852369281E-02
   299  5.811669923E-02
   300  1.744688128E-03
   301 -1.612592045E-03
   302 -7.108023277E-03
   303 -5.379182530E-03
   304 -2.897456288E-03
   305  1.528264189E-04
   306  1.776365963E-04
   307 -4.315593677E-07
   308  3.944601377E-04
   309  2.223485769E-03
   310 -1.692480012E-05
   311 -1.829186962E-04
   312  1.263891937E-04
   313  1.541227282E-04
   314 -8.958818430E-06
   315  5.149120456E-05
   316  2.323633549E-05
   317 -1.442510321E-05
   318 -9.590857339E-06
   319 -4.851181110E-02
   320 -5.810809490E-02
   321 -1.787978923E-03
   322 -7.003014275E-04
   323 -7.225382677E-03
   324  5.429864180E-03
   325  2.820138809E-03
   326 -4.852598543E-02
   327 -5.811965675E-02
   328 -1.743670343E-03
   329 -7.108391004E-03
   330  1.612651421E-03
   331 -5.379463478E-03
   332  2.884523540E-03
Ene=   -5.7990182661E-01
Spin= Alpha
Occup=   2.0000000
     1  3.594764731E-02
     2  5.620067497E-02
     3  4.291042947E-02
     4 -7.046110798E-03
     5  2.151975565E-02
     6 -1.547742412E-01
     7  6.244870463E-02
     8 -1.023552287E-02
     9  3.530375392E-02
    10 -9.967479406E-02
    11  3.539562574E-02
    12 -5.833391487E-03
    13  9.744632862E-03
    14  1.669927801E-04
    15  5.159821583E-03
    16 -8.764467521E-04
    17  2.340523524E-03
    18 -7.993792964E-04
    19  3.573303307E-01
    20  7.147070210E-02
    21 -1.225782510E-02
    22 -8.536835430E-02
    23  5.835860436E-05
    24  9.187391645E-05
    25  2.993563675E-02
    26 -4.182668570E-02
    27 -2.001134597E-02
    28 -2.818074431E-04
    29  4.513208505E-02
    30 -6.310736602E-02
    31 -3.195254447E-02
    32 -4.427894001E-05
    33  2.527362540E-02
    34 -3.505134697E-02
    35 -1.245604972E-02
    36  4.093525478E-05
    37 -3.854042064E-03
    38 -2.753894446E-03
    39  6.518374616E-03
    40 -2.229527152E-03
    41  8.472305111E-04
    42  2.366876450E-02
    43 -3.239999789E-02
    44  7.682541799E-03
    45 -4.111932566E-02
    46 -6.414883189E-02
    47 -6.810016216E-06
    48  4.619731258E-06
    49  2.904932691E-02
    50  1.742598689E-01
    51 -9.136786794E-06
    52  6.606907693E-06
    53  4.198868543E-02
    54  1.049924800E-01
    55 -1.730969196E-05
    56  4.464241641E-06
    57  2.612310252E-02
    58  7.870873500E-04
    59  1.549804750E-06
    60 -4.797539225E-07
    61 -7.418854684E-03
    62  2.553209420E-03
    63 -2.431177725E-01
    64 -1.048384467E-04
    65  1.299262156E-05
    66  8.542363072E-02
    67 -3.594730216E-02
    68 -5.620006461E-02
    69  7.056954070E-03
    70  4.290837024E-02
    71  2.152015701E-02
    72  1.547711631E-01
    73  1.025272419E-02
    74  6.244749511E-02
    75  3.530351882E-02
    76  9.968235118E-02
    77  5.839108807E-03
    78  3.537999073E-02
    79  9.746693732E-03
    80 -1.671239002E-04
    81 -8.750082257E-04
    82 -5.160525529E-03
    83  2.340044957E-03
    84 -7.993523831E-04
    85 -3.582936036E-01
    86  1.222976245E-02
    87  7.138960429E-02
    88 -8.552298115E-02
    89 -5.235301201E-05
    90 -8.225497545E-05
    91  4.182656729E-02
    92  2.993060471E-02
    93 -2.000314753E-02
    94  2.498549211E-04
    95  6.310712550E-02
    96  4.512355263E-02
    97 -3.194208642E-02
    98  9.449961777E-05
    99  3.505277842E-02
   100  2.525457924E-02
   101 -1.243133136E-02
   102 -4.110106003E-05
   103 -2.754083659E-03
   104  3.851973538E-03
   105  6.517272809E-03
   106 -2.229217951E-03
   107  9.926742028E-04
   108  3.268739541E-02
   109  2.343157193E-02
   110  7.812095023E-03
   111  4.111935663E-02
   112  6.414899667E-02
   113  1.987031599E-06
   114 -8.378521608E-06
   115  2.904926502E-02
   116 -1.742629725E-01
   117  1.835535787E-06
   118 -1.167890132E-05
   119  4.198907827E-02
   120 -1.049669924E-01
   121  3.651886269E-06
   122 -2.280860441E-05
   123  2.612265846E-02
   124 -7.869494730E-04
   125 -1.231481725E-08
   126 -1.850455701E-06
   127 -7.418630760E-03
   128  2.553171516E-03
   129  2.434977277E-01
   130  1.037940934E-04
   131 -2.088217970E-04
   132  8.543326680E-02
   133  3.595806855E-02
   134  5.621700249E-02
   135 -4.291041015E-02
   136  7.057651995E-03
   137  2.151085260E-02
   138 -1.548206979E-01
   139 -6.244799860E-02
   140  1.025356445E-02
   141  3.529113784E-02
   142 -9.968107674E-02
   143 -3.540450567E-02
   144  5.845035376E-03
   145  9.725096098E-03
   146  1.671270715E-04
   147 -5.160804117E-03
   148  8.749565623E-04
   149  2.338902893E-03
   150 -7.989989695E-04
   151  3.596502827E-01
   152 -7.180851366E-02
   153  1.236977895E-02
   154 -8.563224117E-02
   155  4.601589633E-05
   156  7.240637745E-05
   157 -2.992864807E-02
   158  4.183165884E-02
   159 -2.001066427E-02
   160 -2.231578614E-04
   161 -4.512094689E-02
   162  6.311405094E-02
   163 -3.195262190E-02
   164 -8.762265543E-05
   165 -2.524745143E-02
   166  3.507448527E-02
   167 -1.244617539E-02
   168  4.112446934E-05
   169  3.852236479E-03
   170  2.755955251E-03
   171  6.518164739E-03
   172 -2.229670870E-03
   173 -1.130529733E-03
   174 -2.338826450E-02
   175  3.282563200E-02
   176  7.713441583E-03
   177 -3.595840902E-02
   178 -5.621752470E-02
   179 -7.046730148E-03
   180 -4.291223602E-02
   181  2.151056720E-02
   182  1.548223940E-01
   183 -1.023681805E-02
   184 -6.245137211E-02
   185  3.529014951E-02
   186  9.967754882E-02
   187 -5.834042886E-03
   188 -3.540523721E-02
   189  9.721872993E-03
   190 -1.670832789E-04
   191  8.766410354E-04
   192  5.161123607E-03
   193  2.338310951E-03
   194 -7.986599294E-04
   195 -3.609672965E-01
   196 -1.246451230E-02
   197 -7.195939869E-02
   198 -8.569470901E-02
   199 -5.196144356E-05
   200 -8.159871715E-05
   201 -4.183165145E-02
   202 -2.993388122E-02
   203 -2.001888747E-02
   204  2.467986366E-04
   205 -6.311484216E-02
   206 -4.512866885E-02
   207 -3.196307133E-02
   208  1.065272761E-04
   209 -3.507555789E-02
   210 -2.526192835E-02
   211 -1.246885358E-02
   212 -4.119177749E-05
   213  2.755775253E-03
   214 -3.854266021E-03
   215  6.519198203E-03
   216 -2.230031741E-03
   217  1.240728165E-03
   218 -3.272968177E-02
   219 -2.339001009E-02
   220  7.542260355E-03
   221  4.731065127E-02
   222  5.790235779E-02
   223  8.542093526E-03
   224  7.305763742E-04
   225  4.299516085E-03
   226  5.814623958E-03
   227 -3.105443269E-02
   228 -4.868738597E-02
   229 -6.222608333E-02
   230 -3.637169628E-03
   231  6.175870449E-03
   232 -1.038811052E-03
   233 -3.518424178E-03
   234  1.265670870E-02
   235 -1.262170390E-02
   236 -1.394545135E-02
   237  5.437548052E-03
   238 -4.184317173E-04
   239 -1.919295207E-03
   240 -2.129147089E-03
   241  7.948317108E-03
   242  1.266464361E-02
   243  1.400706777E-02
   244 -5.608171680E-03
   245 -1.964756610E-03
   246  2.474316362E-04
   247 -2.137390412E-03
   248 -8.067040404E-03
   249 -4.730978853E-02
   250 -5.790594863E-02
   251 -8.498772320E-03
   252  4.299742998E-03
   253 -7.301244894E-04
   254  5.814791510E-03
   255  3.112355406E-02
   256  4.869089313E-02
   257  6.223139749E-02
   258  3.617800071E-03
   259 -1.038787775E-03
   260 -6.175786884E-03
   261 -3.518843812E-03
   262 -1.277106254E-02
   263  1.263041545E-02
   264  1.395889285E-02
   265 -5.480395520E-03
   266 -1.919311637E-03
   267  4.173418151E-04
   268 -2.129537443E-03
   269 -8.069364743E-03
   270 -1.265948817E-02
   271 -1.400121573E-02
   272  5.612378823E-03
   273  2.470243813E-04
   274  1.964696535E-03
   275 -2.136728274E-03
   276  8.103953913E-03
   277  4.729554063E-02
   278  5.788926455E-02
   279  8.494275048E-03
   280 -7.297570674E-04
   281 -4.297830654E-03
   282  5.813771849E-03
   283 -3.089732567E-02
   284 -4.869074394E-02
   285 -6.223285765E-02
   286 -3.601961854E-03
   287 -6.176230829E-03
   288  1.038176620E-03
   289 -3.518756932E-03
   290  1.279424578E-02
   291 -1.262485739E-02
   292 -1.395047934E-02
   293  5.456471731E-03
   294  4.178467702E-04
   295  1.919139939E-03
   296 -2.128802424E-03
   297  8.008394396E-03
   298  1.266861820E-02
   299  1.401449070E-02
   300 -5.633152364E-03
   301  1.964561227E-03
   302 -2.482816348E-04
   303 -2.137156691E-03
   304 -8.143067093E-03
   305 -4.729558561E-02
   306 -5.789384701E-02
   307 -8.444441914E-03
   308 -4.298108314E-03
   309  7.303484527E-04
   310  5.813915734E-03
   311  3.101980100E-02
   312  4.868700397E-02
   313  6.222695112E-02
   314  3.614730257E-03
   315  1.038090327E-03
   316  6.175735611E-03
   317 -3.518386857E-03
   318 -1.279231111E-02
   319  1.261555264E-02
   320  1.394011149E-02
   321 -5.468687118E-03
   322  1.919198199E-03
   323 -4.192525824E-04
   324 -2.128029822E-03
   325 -7.964916863E-03
   326 -1.267436642E-02
   327 -1.401770266E-02
   328  5.574005370E-03
   329 -2.490561333E-04
   330 -1.964443491E-03
   331 -2.138151964E-03
   332  8.036700455E-03
Ene=   -5.7983614294E-01
Spin= Alpha
Occup=   2.0000000
     1  2.820283444E-02
     2  4.409295736E-02
     3  1.215241740E-02
     4  4.194676167E-02
     5 -2.428824418E-02
     6 -1.214427527E-01
     7  1.604875450E-02
     8  6.467053252E-02
     9 -3.533762064E-02
    10 -7.825780753E-02
    11  1.340593865E-02
    12  2.722913139E-02
    13 -2.001302866E-02
    14 -3.244183456E-05
    15 -1.726143403E-04
    16 -5.197499256E-03
    17 -2.780912864E-03
    18  7.779655306E-04
    19  2.795708286E-01
    20  7.006498150E-02
    21 -4.076976499E-02
    22 -4.003277874E-02
    23  8.034866985E-03
    24  1.253439940E-02
    25  1.594473843E-02
    26 -1.260808569E-02
    27 -5.043366198E-02
    28 -3.404149924E-02
    29  2.476660310E-02
    30 -2.062150486E-02
    31 -7.607610500E-02
    32 -2.055508310E-02
    33  1.107304147E-02
    34 -6.908559443E-03
    35 -4.241959169E-02
    36  9.535150808E-05
    37 -6.406734463E-03
    38 -2.670527882E-03
    39  4.319924552E-03
    40 -1.607617444E-03
    41  4.909110362E-02
    42  9.208178076E-03
    43  1.592778898E-02
    44 -3.971474149E-02
    45  1.382245831E-06
    46  2.157599988E-06
    47  4.350193733E-02
    48  1.917648152E-02
    49 -8.929090631E-07
    50 -5.438391704E-06
    51  6.635333545E-02
    52  2.732307428E-02
    53 -2.042637955E-06
    54 -9.457471585E-06
    55  3.471819250E-02
    56  2.002608092E-02
    57  4.766332622E-06
    58 -2.003322732E-07
    59 -6.689138229E-03
    60 -7.134218963E-04
    61  4.569954358E-07
    62 -1.891235162E-07
    63  7.355642481E-04
    64  2.427494489E-02
    65  3.624389013E-02
    66 -1.621320477E-04
    67  4.234921385E-02
    68  6.620903637E-02
    69 -2.993444971E-02
    70 -2.910112760E-03
    71  3.609687633E-02
    72 -1.823238617E-01
    73 -4.521537399E-02
    74 -6.075286712E-04
    75  5.251924727E-02
    76 -1.176714695E-01
    77 -2.135660966E-02
    78 -9.623960686E-03
    79  2.969553118E-02
    80 -1.221010405E-04
    81 -3.239719437E-03
    82  1.566772552E-03
    83  4.104099865E-03
    84 -1.520277368E-03
    85  4.242160022E-01
    86  2.815306882E-04
    87 -1.156592838E-01
    88  6.080786864E-02
    89 -4.032759641E-02
    90 -6.291199286E-02
    91 -1.988170217E-02
    92  2.079593054E-02
    93  9.906517604E-03
    94  1.708581253E-01
    95 -2.923765167E-02
    96  2.973340530E-02
    97  1.497012196E-02
    98  1.033373323E-01
    99 -1.695156798E-02
   100  1.914720756E-02
   101  8.264567968E-03
   102 -4.057471234E-04
   103  7.057366308E-03
   104  3.385978062E-03
   105 -1.121544780E-03
   106 -3.189813585E-04
   107 -2.375288920E-01
   108 -4.760525532E-02
   109  6.868685381E-02
   110  7.869192165E-03
   111 -1.397859165E-06
   112 -2.110267553E-06
   113 -2.703501892E-02
   114 -5.568210809E-02
   115 -1.056708146E-06
   116  3.972345295E-06
   117 -4.006017658E-02
   118 -8.558662042E-02
   119 -1.368981854E-06
   120  2.597501418E-05
   121 -2.450551385E-02
   122 -4.280897154E-02
   123  7.518562052E-06
   124  6.676201850E-08
   125 -2.810084443E-03
   126 -9.334910292E-03
   127  7.634037315E-08
   128 -1.163452510E-07
   129  8.427616883E-04
   130 -3.098744071E-02
   131 -2.228729677E-02
   132  2.307268543E-04
   133 -2.820527636E-02
   134 -4.409672712E-02
   135  1.215542435E-02
   136  4.194630858E-02
   137  2.428669187E-02
   138  1.214520114E-01
   139  1.605248152E-02
   140  6.466978381E-02
   141  3.533625293E-02
   142  7.827471003E-02
   143  1.340922533E-02
   144  2.723151467E-02
   145  1.999605891E-02
   146  3.246675071E-05
   147 -1.723706770E-04
   148 -5.197641742E-03
   149  2.780285483E-03
   150 -7.777225918E-04
   151 -2.790435525E-01
   152  7.020011642E-02
   153 -4.076030217E-02
   154  3.968140502E-02
   155 -8.034877779E-03
   156 -1.253445404E-02
   157  1.594664314E-02
   158 -1.261080077E-02
   159  5.043510554E-02
   160  3.404259295E-02
   161  2.477078533E-02
   162 -2.062648274E-02
   163  7.607762679E-02
   164  2.054165191E-02
   165  1.107449363E-02
   166 -6.902158093E-03
   167  4.242107074E-02
   168 -9.518182280E-05
   169 -6.407151260E-03
   170 -2.670384550E-03
   171 -4.319996962E-03
   172  1.607840836E-03
   173 -5.029639056E-02
   174  9.369226167E-03
   175  1.623916443E-02
   176  3.977877100E-02
   177 -4.234677228E-02
   178 -6.620522549E-02
   179 -2.993405534E-02
   180 -2.907319223E-03
   181 -3.609822850E-02
   182  1.823137588E-01
   183 -4.521402660E-02
   184 -6.025559781E-04
   185 -5.252233556E-02
   186  1.176613830E-01
   187 -2.136857144E-02
   188 -9.638649382E-03
   189 -2.968368513E-02
   190  1.222232192E-04
   191 -3.239906289E-03
   192  1.566992668E-03
   193 -4.103969531E-03
   194  1.520154169E-03
   195 -4.248779734E-01
   196  8.390653302E-05
   197 -1.158159326E-01
   198 -6.075917514E-02
   199  4.032762743E-02
   200  6.291203124E-02
   201 -1.987887399E-02
   202  2.079797523E-02
   203 -9.905204548E-03
   204 -1.708580367E-01
   205 -2.923349594E-02
   206  2.973625211E-02
   207 -1.496773614E-02
   208 -1.033412327E-01
   209 -1.694871804E-02
   210  1.914653055E-02
   211 -8.273350786E-03
   212  4.060666422E-04
   213  7.057205012E-03
   214  3.385987372E-03
   215  1.121229109E-03
   216  3.188885201E-04
   217  2.373392610E-01
   218 -4.763368038E-02
   219  6.860037838E-02
   220 -8.005156528E-03
   221  5.571337616E-02
   222  6.819790166E-02
   223  1.015300561E-02
   224 -2.756403670E-04
   225  7.560413839E-03
   226  3.627631328E-03
   227 -3.657380138E-02
   228 -9.876682872E-03
   229 -1.094457662E-02
   230  4.340825330E-03
   231 -1.299793086E-04
   232 -3.000528777E-03
   233 -1.045097706E-03
   234  6.368744738E-03
   235 -4.533730562E-02
   236 -5.828812676E-02
   237 -4.646676213E-03
   238  5.035588861E-03
   239 -2.765873712E-04
   240 -4.628737825E-03
   241  1.093530875E-02
   242 -5.014249616E-02
   243 -6.366205386E-02
   244 -2.522469281E-03
   245 -1.699886191E-03
   246 -5.797597838E-03
   247  4.023894290E-03
   248  1.405758494E-02
   249  3.710818605E-02
   250  4.539979358E-02
   251  6.521338395E-03
   252 -4.498292013E-03
   253  3.061170484E-03
   254 -2.402742445E-03
   255 -2.427785813E-02
   256  1.479227444E-02
   257  1.636417283E-02
   258 -6.481553401E-03
   259  1.881096431E-03
   260 -8.824427329E-04
   261 -1.557878117E-03
   262 -9.406019004E-03
   263  2.190284702E-02
   264  2.582596935E-02
   265 -4.700037631E-03
   266  1.147092907E-04
   267 -3.554198430E-03
   268  5.620184895E-04
   269 -1.052918451E-02
   270 -2.744452451E-03
   271 -1.379626274E-03
   272  6.238872383E-03
   273  1.191084759E-03
   274 -6.304588841E-04
   275  2.307974795E-03
   276  5.510992715E-03
   277 -5.571645383E-02
   278 -6.820368107E-02
   279 -1.014195850E-02
   280 -2.756986523E-04
   281  7.560704442E-03
   282 -3.628279128E-03
   283  3.653247404E-02
   284  9.879727678E-03
   285  1.095063638E-02
   286 -4.382962525E-03
   287 -1.295913721E-04
   288 -3.000626327E-03
   289  1.045046150E-03
   290 -6.287303822E-03
   291  4.533812440E-02
   292  5.828868847E-02
   293  4.643121917E-03
   294  5.035483979E-03
   295 -2.767540024E-04
   296  4.628877405E-03
   297 -1.099589806E-02
   298  5.014168197E-02
   299  6.366085416E-02
   300  2.536814528E-03
   301 -1.699936875E-03
   302 -5.797592280E-03
   303 -4.023809139E-03
   304 -1.402520476E-02
   305 -3.710523549E-02
   306 -4.539286390E-02
   307 -6.541700151E-03
   308 -4.497987195E-03
   309  3.061031398E-03
   310  2.402238699E-03
   311  2.431387016E-02
   312 -1.479621596E-02
   313 -1.636191811E-02
   314  6.399974825E-03
   315  1.881031227E-03
   316 -8.826550491E-04
   317  1.558088220E-03
   318  9.453955256E-03
   319 -2.190358174E-02
   320 -2.582756133E-02
   321  4.718102162E-03
   322  1.146393139E-04
   323 -3.554164251E-03
   324 -5.620152242E-04
   325  1.038949057E-02
   326  2.745799879E-03
   327  1.376222909E-03
   328 -6.172538422E-03
   329  1.191218940E-03
   330 -6.301017871E-04
   331 -2.308029303E-03
   332 -5.495771457E-03
Ene=   -5.7983608392E-01
Spin= Alpha
Occup=   2.0000000
     1 -4.235323739E-02
     2 -6.621524122E-02
     3 -2.914913401E-03
     4  2.993525405E-02
     5  3.609436521E-02
     6  1.823377104E-01
     7 -6.148676322E-04
     8  4.521662239E-02
     9  5.251609386E-02
    10  1.177263537E-01
    11 -9.614568353E-03
    12  2.134976087E-02
    13  2.967515072E-02
    14  1.221538744E-04
    15 -1.566825458E-03
    16 -3.239294107E-03
    17  4.103081317E-03
    18 -1.520033606E-03
    19 -4.213634557E-01
    20 -1.153113371E-01
    21 -3.883261014E-04
    22  6.027970298E-02
    23  4.032757405E-02
    24  6.291170156E-02
    25  2.079277455E-02
    26  1.988646925E-02
    27  9.908656213E-03
    28 -1.708510309E-01
    29  2.972720451E-02
    30  2.924426383E-02
    31  1.497432050E-02
    32 -1.034158967E-01
    33  1.912363445E-02
    34  1.693865878E-02
    35  8.260170423E-03
    36  4.060807947E-04
    37 -3.385232011E-03
    38  7.056955744E-03
    39 -1.122298624E-03
    40 -3.190777358E-04
    41  2.343133697E-01
    42  6.809901522E-02
    43  4.715481158E-02
    44  7.859756707E-03
    45  5.985226356E-06
    46  9.274525223E-06
    47 -5.568179995E-02
    48  2.703476347E-02
    49 -4.223707721E-06
    50 -2.307584555E-05
    51 -8.558841739E-02
    52  4.006178658E-02
    53 -6.404861359E-06
    54 -4.316084955E-05
    55 -4.277781495E-02
    56  2.449401911E-02
    57  7.722962695E-06
    58 -2.782423589E-07
    59  9.333938680E-03
    60 -2.809937015E-03
    61  1.037569279E-06
    62 -5.318292079E-07
    63 -2.411785134E-05
    64 -2.216605682E-02
    65  3.085804821E-02
    66  3.575998100E-05
    67  2.820929099E-02
    68  4.410292090E-02
    69  4.194558404E-02
    70 -1.216014461E-02
    71  2.428432815E-02
    72 -1.214662731E-01
    73  6.466794201E-02
    74 -1.606007268E-02
    75  3.533203663E-02
    76 -7.831846394E-02
    77  2.724143506E-02
    78 -1.339186315E-02
    79  1.998825933E-02
    80 -3.245151681E-05
    81  5.197472595E-03
    82 -1.725904796E-04
    83  2.779677297E-03
    84 -7.773936610E-04
    85  2.765883748E-01
    86 -4.076104038E-02
    87 -6.976078127E-02
    88  3.949107546E-02
    89  8.034852060E-03
    90  1.253440130E-02
    91 -1.261545762E-02
    92 -1.595001095E-02
    93  5.043691077E-02
    94 -3.404246793E-02
    95 -2.063366131E-02
    96 -2.477538911E-02
    97  7.608412734E-02
    98 -2.054027422E-02
    99 -6.890831570E-03
   100 -1.106956395E-02
   101  4.238897340E-02
   102  9.535838314E-05
   103  2.670249709E-03
   104 -6.406662916E-03
   105 -4.320152022E-03
   106  1.607784691E-03
   107  4.969828839E-02
   108  1.618203359E-02
   109 -9.281718908E-03
   110  3.949369825E-02
   111 -5.984351514E-06
   112 -9.271038279E-06
   113  1.917631224E-02
   114 -4.350164926E-02
   115 -4.202347431E-06
   116  2.293554092E-05
   117  2.732425145E-02
   118 -6.635494424E-02
   119 -6.713049201E-06
   120  4.543451827E-05
   121  2.002296740E-02
   122 -3.469228244E-02
   123  9.951989026E-06
   124  2.851625756E-07
   125  7.134855226E-04
   126 -6.688224762E-03
   127  1.018510585E-06
   128 -5.485913385E-07
   129  1.432337607E-05
   130  3.619140164E-02
   131 -2.405390254E-02
   132  2.850439037E-05
   133  4.234276135E-02
   134  6.619891902E-02
   135 -2.902355238E-03
   136  2.993329472E-02
   137 -3.610057705E-02
   138 -1.822942828E-01
   139 -5.968717873E-04
   140  4.521249783E-02
   141 -5.252645149E-02
   142 -1.176829044E-01
   143 -9.616492364E-03
   144  2.136675237E-02
   145 -2.967939469E-02
   146 -1.222966731E-04
   147 -1.566070657E-03
   148 -3.239911688E-03
   149 -4.103920477E-03
   150  1.520241231E-03
   151  4.225941104E-01
   152 -1.152335086E-01
   153 -7.532369988E-05
   154 -6.057988961E-02
   155 -4.032758278E-02
   156 -6.291176412E-02
   157  2.080137624E-02
   158  1.987432206E-02
   159 -9.902902321E-03
   160  1.708520995E-01
   161  2.974132125E-02
   162  2.922597738E-02
   163 -1.496474676E-02
   164  1.034036355E-01
   165  1.912918361E-02
   166  1.693516022E-02
   167 -8.267278051E-03
   168 -4.063072533E-04
   169 -3.386173443E-03
   170  7.056786339E-03
   171  1.120687955E-03
   172  3.196357452E-04
   173 -2.356871449E-01
   174  6.823523910E-02
   175  4.756426521E-02
   176 -8.055951972E-03
   177 -2.819879535E-02
   178 -4.408658311E-02
   179  4.194750797E-02
   180 -1.214759265E-02
   181 -2.429055126E-02
   182  1.214229105E-01
   183  6.467203153E-02
   184 -1.604225442E-02
   185 -3.534242995E-02
   186  7.827359442E-02
   187  2.722255197E-02
   188 -1.339373719E-02
   189 -1.999179907E-02
   190  3.262353699E-05
   191  5.196891508E-03
   192 -1.732495801E-04
   193 -2.780534933E-03
   194  7.776135391E-04
   195 -2.778591310E-01
   196 -4.097146339E-02
   197 -6.969293858E-02
   198 -3.979451788E-02
   199 -8.034870311E-03
   200 -1.253438573E-02
   201 -1.260330463E-02
   202 -1.594145654E-02
   203 -5.043110403E-02
   204  3.404153682E-02
   205 -2.061482748E-02
   206 -2.476113272E-02
   207 -7.607471882E-02
   208  2.055449002E-02
   209 -6.890063157E-03
   210 -1.106366610E-02
   211 -4.239694117E-02
   212 -9.513593148E-05
   213  2.669949080E-03
   214 -6.405585353E-03
   215  4.318747338E-03
   216 -1.607309878E-03
   217 -4.830598092E-02
   218  1.574064643E-02
   219 -9.155694613E-03
   220 -3.956207824E-02
   221  3.709972206E-02
   222  4.538855332E-02
   223  6.519597364E-03
   224  3.060983707E-03
   225  4.497702329E-03
   226  2.401473251E-03
   227 -2.420385782E-02
   228  1.480171303E-02
   229  1.636824704E-02
   230 -6.402932252E-03
   231 -8.832834404E-04
   232 -1.880994423E-03
   233  1.558290691E-03
   234 -9.374488879E-03
   235  2.190500349E-02
   236  2.582905969E-02
   237 -4.721764332E-03
   238 -3.554193681E-03
   239 -1.145393341E-04
   240 -5.619110128E-04
   241 -1.029736898E-02
   242 -2.747797194E-03
   243 -1.371612620E-03
   244  6.118182167E-03
   245 -6.299452741E-04
   246 -1.191212283E-03
   247 -2.308082927E-03
   248  5.401187814E-03
   249 -5.570807136E-02
   250 -6.819119092E-02
   251 -1.014018794E-02
   252  7.559947294E-03
   253  2.757970939E-04
   254  3.627008069E-03
   255  3.645369520E-02
   256  9.871093282E-03
   257  1.093962844E-02
   258 -4.360995744E-03
   259 -3.000657858E-03
   260  1.306706070E-04
   261 -1.044769944E-03
   262 -6.292341487E-03
   263  4.533555743E-02
   264  5.828776453E-02
   265  4.628916160E-03
   266 -2.761816350E-04
   267 -5.035154964E-03
   268 -4.628459108E-03
   269 -1.100933093E-02
   270  5.014367608E-02
   271  6.366470584E-02
   272  2.526764110E-03
   273 -5.797406376E-03
   274  1.699771396E-03
   275  4.023937541E-03
   276 -1.404046337E-02
   277 -3.711288728E-02
   278 -4.541211808E-02
   279 -6.466214487E-03
   280  3.061122093E-03
   281  4.498957692E-03
   282 -2.403532776E-03
   283  2.416555603E-02
   284 -1.478720145E-02
   285 -1.635426320E-02
   286  6.440593602E-03
   287 -8.817748807E-04
   288 -1.881306915E-03
   289 -1.557540592E-03
   290  9.375943894E-03
   291 -2.190152987E-02
   292 -2.582363297E-02
   293  4.686081429E-03
   294 -3.554308443E-03
   295 -1.150285444E-04
   296  5.624720587E-04
   297  1.042114100E-02
   298  2.743664979E-03
   299  1.372592567E-03
   300 -6.178238710E-03
   301 -6.306577883E-04
   302 -1.191072463E-03
   303  2.308449269E-03
   304 -5.386748109E-03
   305  5.572133391E-02
   306  6.821383299E-02
   307  1.009648225E-02
   308  7.561221439E-03
   309  2.756214842E-04
   310 -3.629056793E-03
   311 -3.640331055E-02
   312 -9.885532731E-03
   313 -1.095395642E-02
   314  4.328961228E-03
   315 -3.001006033E-03
   316  1.291424255E-04
   317  1.045592196E-03
   318  6.281162948E-03
   319 -4.533873737E-02
   320 -5.829592756E-02
   321 -4.571739655E-03
   322 -2.767091261E-04
   323 -5.035150908E-03
   324  4.629078553E-03
   325  1.095910256E-02
   326 -5.013961688E-02
   327 -6.366386960E-02
   328 -2.475639583E-03
   329 -5.797128170E-03
   330  1.700471347E-03
   331 -4.023543797E-03
   332  1.396450084E-02
Ene=   -5.2049785857E-01
Spin= Alpha
Occup=   2.0000000
     1  1.180431603E-02
     2  1.831886460E-02
     3 -4.650407822E-02
     4  7.735958093E-03
     5  3.327321142E-02
     6 -4.754878164E-02
     7 -6.583005416E-02
     8  1.094843983E-02
     9  4.710165429E-02
    10 -7.874463286E-02
    11 -6.237214053E-02
    12  1.041071002E-02
    13  4.461760871E-02
    14 -9.189851504E-06
    15  4.064304273E-03
    16 -6.877653004E-04
    17 -2.761474985E-03
    18  9.601465498E-04
    19 -6.943148801E-02
    20 -2.496176107E-02
    21  3.981384836E-03
    22  1.800572091E-02
    23 -1.331564662E-02
    24 -2.073825070E-02
    25 -5.432939216E-02
    26 -3.886122569E-02
    27  1.597252440E-04
    28  5.219778844E-02
    29 -7.747335296E-02
    30 -5.541643905E-02
    31  2.419155990E-04
    32  1.006831300E-01
    33 -2.097200722E-02
    34 -1.490480319E-02
    35  1.526772551E-05
    36  3.122009820E-03
    37  2.745612031E-03
    38 -3.778786059E-03
    39 -1.738907278E-03
    40 -5.175740620E-03
    41  4.625777260E-02
    42  9.056714003E-03
    43  6.655926964E-03
    44 -3.195184195E-04
    45 -1.329216954E-02
    46 -2.070098099E-02
    47 -3.593703717E-08
    48 -1.868315307E-08
    49  6.679074866E-02
    50  5.207543492E-02
    51  1.767235002E-07
    52 -1.229157459E-07
    53  9.525816750E-02
    54  1.007597102E-01
    55 -2.705342881E-06
    56 -1.450068318E-07
    57  2.562645619E-02
    58 -6.292612784E-03
    59  7.350047355E-08
    60 -1.326532427E-08
    61 -4.410776559E-03
    62  1.537011226E-03
    63  4.502430080E-02
    64 -1.527042783E-05
    65  9.696684719E-06
    66 -1.092897469E-02
    67  1.180430366E-02
    68  1.831886510E-02
    69  7.736007579E-03
    70  4.650410319E-02
    71 -3.327323528E-02
    72 -4.754942777E-02
    73  1.094856038E-02
    74  6.583008172E-02
    75 -4.710165817E-02
    76 -7.873560594E-02
    77  1.040795368E-02
    78  6.236867402E-02
    79 -4.461517470E-02
    80 -9.197061968E-06
    81  6.877686267E-04
    82  4.064504485E-03
    83  2.761603297E-03
    84 -9.602109209E-04
    85 -6.874669386E-02
    86  4.053320407E-03
    87  2.484221055E-02
    88 -1.794155460E-02
    89 -1.331562509E-02
    90 -2.073823996E-02
    91 -3.886127283E-02
    92  5.432941022E-02
    93 -1.596519326E-04
    94  5.219843253E-02
    95 -5.541634243E-02
    96  7.747347569E-02
    97 -2.424136938E-04
    98  1.006743623E-01
    99 -1.490954470E-02
   100  2.097277214E-02
   101 -8.934455775E-06
   102  3.122037699E-03
   103  3.778908076E-03
   104  2.745455677E-03
   105  1.738836750E-03
   106  5.175819900E-03
   107  4.622440144E-02
   108  6.659571055E-03
   109 -9.034796623E-03
   110  3.368341319E-04
   111 -1.329216367E-02
   112 -2.070098858E-02
   113 -5.650427920E-09
   114  4.660316760E-09
   115 -6.679077328E-02
   116  5.207600455E-02
   117  1.041649426E-07
   118  8.330812276E-08
   119 -9.525819822E-02
   120  1.007522623E-01
   121  7.669565282E-07
   122 -2.465517409E-06
   123 -2.562872073E-02
   124 -6.292645966E-03
   125 -7.899315003E-08
   126 -8.444990285E-08
   127  4.410789562E-03
   128 -1.537017786E-03
   129  4.488251665E-02
   130 -2.438998638E-05
   131 -3.421364601E-05
   132  1.089730097E-02
   133  1.180430850E-02
   134  1.831886394E-02
   135  4.650406359E-02
   136 -7.736004820E-03
   137  3.327318522E-02
   138 -4.754935504E-02
   139  6.583011149E-02
   140 -1.094854326E-02
   141  4.710184573E-02
   142 -7.873509938E-02
   143  6.237132899E-02
   144 -1.040852301E-02
   145  4.461527319E-02
   146 -9.188681840E-06
   147 -4.064310331E-03
   148  6.876930957E-04
   149 -2.761551519E-03
   150  9.601512056E-04
   151 -6.896364531E-02
   152  2.485679038E-02
   153 -4.015085438E-03
   154  1.795497113E-02
   155 -1.331563476E-02
   156 -2.073827366E-02
   157  5.432938661E-02
   158  3.886119103E-02
   159  1.596426220E-04
   160  5.219885986E-02
   161  7.747357978E-02
   162  5.541652467E-02
   163  2.419978723E-04
   164  1.006707523E-01
   165  2.097467410E-02
   166  1.490784989E-02
   167  1.223621423E-05
   168  3.122080865E-03
   169 -2.745648413E-03
   170  3.778901652E-03
   171 -1.738915484E-03
   172 -5.175798991E-03
   173  4.577065604E-02
   174 -8.941744004E-03
   175 -6.641210367E-03
   176 -2.761476821E-04
   177  1.180431542E-02
   178  1.831886352E-02
   179 -7.736026649E-03
   180 -4.650407554E-02
   181 -3.327320482E-02
   182 -4.754889796E-02
   183 -1.094843273E-02
   184 -6.583002300E-02
   185 -4.710159195E-02
   186 -7.874068452E-02
   187 -1.041147368E-02
   188 -6.237143845E-02
   189 -4.461816376E-02
   190 -9.203688010E-06
   191 -6.877365448E-04
   192 -4.064352543E-03
   193  2.761489131E-03
   194 -9.601199257E-04
   195 -6.917238595E-02
   196 -3.952181658E-03
   197 -2.494042638E-02
   198 -1.795232787E-02
   199 -1.331562377E-02
   200 -2.073824078E-02
   201  3.886123146E-02
   202 -5.432936368E-02
   203 -1.597063974E-04
   204  5.219813060E-02
   205  5.541645583E-02
   206 -7.747378269E-02
   207 -2.417089151E-04
   208  1.006794003E-01
   209  1.490508104E-02
   210 -2.097225320E-02
   211 -1.552348267E-05
   212  3.122055309E-03
   213 -3.778888017E-03
   214 -2.745705748E-03
   215  1.738905763E-03
   216  5.175744481E-03
   217  4.587503317E-02
   218 -6.595455406E-03
   219  9.020619824E-03
   220  2.910257244E-04
   221  2.915721957E-02
   222  3.474359762E-02
   223 -6.114991618E-03
   224  4.749572454E-04
   225  2.806140338E-03
   226  2.012656676E-03
   227 -7.682367164E-03
   228  4.237346456E-02
   229  5.416566549E-02
   230  2.016412268E-02
   231 -5.275786197E-03
   232  8.808967134E-04
   233  7.120125312E-04
   234  1.059445585E-03
   235  4.229156506E-02
   236  5.410843505E-02
   237  2.017238698E-02
   238 -3.473136264E-03
   239 -1.646416363E-03
   240  3.768932752E-03
   241  1.272991726E-03
   242  4.249757516E-02
   243  5.432305380E-02
   244  2.005559123E-02
   245  2.648044084E-03
   246  2.821400862E-03
   247 -3.787909913E-03
   248  9.767831411E-04
   249  2.915726468E-02
   250  3.474305441E-02
   251 -6.114360971E-03
   252 -2.806127031E-03
   253  4.748638441E-04
   254 -2.012594792E-03
   255 -7.670627379E-03
   256  4.237339905E-02
   257  5.416609703E-02
   258  2.016190478E-02
   259 -8.808650369E-04
   260 -5.275801983E-03
   261 -7.119957813E-04
   262  1.057281421E-03
   263  4.229156886E-02
   264  5.410830412E-02
   265  2.017580745E-02
   266  1.646446850E-03
   267 -3.473242050E-03
   268 -3.768896600E-03
   269  1.293343655E-03
   270  4.249750411E-02
   271  5.432418324E-02
   272  2.004694703E-02
   273 -2.821451514E-03
   274  2.647983871E-03
   275  3.788009156E-03
   276  9.416785781E-04
   277  2.915711807E-02
   278  3.474518826E-02
   279 -6.127117635E-03
   280 -4.748553706E-04
   281 -2.806238052E-03
   282  2.012684519E-03
   283 -7.660450348E-03
   284  4.237342098E-02
   285  5.416650795E-02
   286  2.016127937E-02
   287  5.275864345E-03
   288 -8.809134413E-04
   289  7.120438476E-04
   290  1.053012819E-03
   291  4.229151923E-02
   292  5.410941259E-02
   293  2.016550038E-02
   294  3.473214120E-03
   295  1.646456656E-03
   296  3.768926804E-03
   297  1.298229184E-03
   298  4.249728877E-02
   299  5.432586900E-02
   300  2.003021739E-02
   301 -2.648051706E-03
   302 -2.821456465E-03
   303 -3.788046370E-03
   304  9.324543304E-04
   305  2.915724828E-02
   306  3.474350015E-02
   307 -6.111138949E-03
   308  2.806169891E-03
   309 -4.749377932E-04
   310 -2.012615557E-03
   311 -7.682332019E-03
   312  4.237343561E-02
   313  5.416601128E-02
   314  2.016165665E-02
   315  8.809263246E-04
   316  5.275767041E-03
   317 -7.120009815E-04
   318  1.052565934E-03
   319  4.229145933E-02
   320  5.410950822E-02
   321  2.016403494E-02
   322 -1.646426000E-03
   323  3.473156143E-03
   324 -3.768952516E-03
   325  1.279557850E-03
   326  4.249737162E-02
   327  5.432488911E-02
   328  2.003964512E-02
   329  2.821412523E-03
   330 -2.648088513E-03
   331  3.787965893E-03
   332  9.528289574E-04
Ene=   -4.5728648633E-01
Spin= Alpha
Occup=   2.0000000
     1 -3.036488881E-02
     2 -4.768441262E-02
     3 -5.976657405E-02
     4  1.033005159E-02
     5  4.286511167E-02
     6  1.309897981E-01
     7 -8.288514783E-02
     8  1.436282978E-02
     9  5.945781807E-02
    10  1.394852714E-01
    11 -5.361523942E-02
    12  9.202124254E-03
    13  3.841216164E-02
    14 -1.856804127E-05
    15 -9.507073880E-03
    16  1.600495868E-03
    17  6.464318036E-03
    18 -2.211274801E-03
    19 -6.824196639E-02
    20 -3.155937131E-02
    21  5.150180717E-03
    22  2.274679779E-02
    23  1.879271046E-02
    24  2.946728481E-02
    25  1.314417004E-02
    26  9.615753190E-03
    27 -5.276689857E-04
    28 -8.069549292E-02
    29  1.835525547E-02
    30  1.341614048E-02
    31 -7.655662081E-04
    32 -6.555000810E-02
    33  1.072835200E-02
    34  8.003169597E-03
    35 -5.776530226E-04
    36  3.556575145E-03
    37 -6.822696564E-03
    38  9.563674396E-03
    39 -1.955689714E-03
    40 -5.796021355E-03
    41  4.526693146E-02
    42  1.189048431E-02
    43  8.675546148E-03
    44 -2.394288271E-04
    45  1.880168846E-02
    46  2.948179902E-02
    47 -1.422097092E-08
    48  9.225971719E-08
    49 -1.641115675E-02
    50 -8.073709492E-02
    51  1.093683041E-07
    52  8.020421435E-07
    53 -2.291225855E-02
    54 -6.555033789E-02
    55 -1.079514448E-06
    56 -2.797186523E-06
    57 -1.350961119E-02
    58 -7.085645650E-03
    59  3.512453475E-08
    60  3.860920523E-08
    61  1.109449328E-02
    62 -3.879669848E-03
    63  4.426740653E-02
    64 -2.530422081E-05
    65 -5.925191279E-05
    66 -1.454658943E-02
    67 -3.036488031E-02
    68 -4.768443962E-02
    69  1.032992070E-02
    70  5.976662406E-02
    71 -4.286514574E-02
    72  1.309913521E-01
    73  1.436269903E-02
    74  8.288497729E-02
    75 -5.945753663E-02
    76  1.394657776E-01
    77  9.204260780E-03
    78  5.362095171E-02
    79 -3.841899040E-02
    80 -1.852096016E-05
    81 -1.600467767E-03
    82 -9.507314648E-03
    83 -6.464456478E-03
    84  2.211338709E-03
    85 -6.935149629E-02
    86  5.089588579E-03
    87  3.179214577E-02
    88 -2.285482169E-02
    89  1.879274388E-02
    90  2.946738523E-02
    91  9.615922697E-03
    92 -1.314432243E-02
    93  5.276574665E-04
    94 -8.069728847E-02
    95  1.341583239E-02
    96 -1.835572707E-02
    97  7.657811268E-04
    98 -6.553199581E-02
    99  8.013093995E-03
   100 -1.073014985E-02
   101  5.722555627E-04
   102  3.556496337E-03
   103 -9.563809505E-03
   104 -6.822582898E-03
   105  1.955799078E-03
   106  5.795884194E-03
   107  4.557207308E-02
   108  8.716685980E-03
   109 -1.195779938E-02
   110  2.762129495E-04
   111  1.880167710E-02
   112  2.948184167E-02
   113 -6.314202523E-08
   114  1.189165588E-07
   115  1.641099262E-02
   116 -8.073854737E-02
   117 -1.279974469E-07
   118 -1.408433166E-07
   119  2.291249414E-02
   120 -6.553405083E-02
   121 -1.047726150E-06
   122  5.401169203E-06
   123  1.351417546E-02
   124 -7.085533795E-03
   125  1.123369496E-07
   126  1.955531893E-07
   127 -1.109468284E-02
   128  3.879732887E-03
   129  4.509257593E-02
   130  2.601640125E-05
   131  3.317466224E-05
   132  1.471253555E-02
   133 -3.036486223E-02
   134 -4.768436846E-02
   135  5.976665696E-02
   136 -1.032987481E-02
   137  4.286516649E-02
   138  1.309898272E-01
   139  8.288527276E-02
   140 -1.436280225E-02
   141  5.945778322E-02
   142  1.394810493E-01
   143  5.361345274E-02
   144 -9.202318748E-03
   145  3.841241713E-02
   146 -1.858874016E-05
   147  9.507011672E-03
   148 -1.600340628E-03
   149  6.464290159E-03
   150 -2.211273319E-03
   151 -6.826916310E-02
   152  3.156891870E-02
   153 -5.093677315E-03
   154  2.276610654E-02
   155  1.879272976E-02
   156  2.946736742E-02
   157 -1.314431726E-02
   158 -9.615667464E-03
   159 -5.275194653E-04
   160 -8.069703396E-02
   161 -1.835548250E-02
   162 -1.341639595E-02
   163 -7.652638408E-04
   164 -6.553545910E-02
   165 -1.073572831E-02
   166 -8.001716988E-03
   167 -5.801656119E-04
   168  3.556486755E-03
   169  6.822875854E-03
   170 -9.563736287E-03
   171 -1.955468546E-03
   172 -5.796022997E-03
   173  4.588179917E-02
   174 -1.204362839E-02
   175 -8.682320353E-03
   176 -3.087600728E-04
   177 -3.036484224E-02
   178 -4.768433257E-02
   179 -1.032997793E-02
   180 -5.976671820E-02
   181 -4.286517584E-02
   182  1.309896138E-01
   183 -1.436287478E-02
   184 -8.288534466E-02
   185 -5.945786194E-02
   186  1.394813278E-01
   187 -9.201185966E-03
   188 -5.361548589E-02
   189 -3.841050904E-02
   190 -1.850505349E-05
   191  1.600432718E-03
   192  9.507132471E-03
   193 -6.464184008E-03
   194  2.211226774E-03
   195 -6.841135089E-02
   196 -5.181809499E-03
   197 -3.162363045E-02
   198 -2.273160287E-02
   199  1.879268474E-02
   200  2.946724722E-02
   201 -9.615716665E-03
   202  1.314405041E-02
   203  5.276293037E-04
   204 -8.069528216E-02
   205 -1.341572164E-02
   206  1.835563083E-02
   207  7.653147962E-04
   208 -6.555276238E-02
   209 -8.003505246E-03
   210  1.072556432E-02
   211  5.779394047E-04
   212  3.556566795E-03
   213  9.563716835E-03
   214  6.822746359E-03
   215  1.955723026E-03
   216  5.796038581E-03
   217  4.547556298E-02
   218 -8.690545498E-03
   219  1.191355857E-02
   220  2.986274737E-04
   221  9.002978070E-02
   222  1.189308751E-01
   223  3.716168453E-02
   224  1.292308742E-03
   225  7.805671015E-03
   226  5.582466790E-03
   227 -1.433566653E-02
   228 -2.886725941E-02
   229 -3.971173886E-02
   230 -1.120031129E-02
   231  2.660050272E-03
   232 -4.409029272E-04
   233 -1.505052993E-03
   234  9.108718761E-04
   235 -2.907310687E-02
   236 -3.992602598E-02
   237 -1.124134809E-02
   238  2.446337008E-03
   239 -1.118504560E-04
   240 -1.893861700E-03
   241  1.006881720E-03
   242 -2.852659120E-02
   243 -3.929743200E-02
   244 -1.117939849E-02
   245 -6.632431128E-04
   246 -2.313928087E-03
   247  1.888239287E-03
   248  8.219189606E-04
   249  9.002973402E-02
   250  1.189310031E-01
   251  3.716060565E-02
   252 -7.805694594E-03
   253  1.292368538E-03
   254 -5.582507470E-03
   255 -1.432765313E-02
   256 -2.886684576E-02
   257 -3.971456047E-02
   258 -1.117063511E-02
   259  4.408863872E-04
   260  2.660140958E-03
   261  1.504943162E-03
   262  9.487695588E-04
   263 -2.907329497E-02
   264 -3.992504528E-02
   265 -1.125409411E-02
   266  1.118792872E-04
   267  2.446381681E-03
   268  1.893901898E-03
   269  9.730472641E-04
   270 -2.852673838E-02
   271 -3.929878452E-02
   272 -1.117211239E-02
   273  2.314132981E-03
   274 -6.632028835E-04
   275 -1.888275782E-03
   276  8.688227952E-04
   277  9.002988358E-02
   278  1.189291631E-01
   279  3.717956723E-02
   280 -1.292404697E-03
   281 -7.805576386E-03
   282  5.582528226E-03
   283 -1.438844246E-02
   284 -2.886710202E-02
   285 -3.971271358E-02
   286 -1.119819976E-02
   287 -2.660130931E-03
   288  4.408977360E-04
   289 -1.505094293E-03
   290  9.160340045E-04
   291 -2.907329988E-02
   292 -3.992733692E-02
   293 -1.123229884E-02
   294 -2.446523696E-03
   295  1.118159728E-04
   296 -1.893910867E-03
   297  1.008708263E-03
   298 -2.852659867E-02
   299 -3.929978958E-02
   300 -1.116413061E-02
   301  6.631960966E-04
   302  2.314085701E-03
   303  1.888421152E-03
   304  8.438198594E-04
   305  9.002977181E-02
   306  1.189299374E-01
   307  3.716577212E-02
   308  7.805632562E-03
   309 -1.292322923E-03
   310 -5.582474403E-03
   311 -1.434542414E-02
   312 -2.886719976E-02
   313 -3.971367312E-02
   314 -1.119014314E-02
   315 -4.409129611E-04
   316 -2.660067009E-03
   317  1.505042595E-03
   318  8.868619969E-04
   319 -2.907320379E-02
   320 -3.992635581E-02
   321 -1.123751996E-02
   322 -1.118287620E-04
   323 -2.446337210E-03
   324  1.893914475E-03
   325  9.931708681E-04
   326 -2.852645508E-02
   327 -3.929914178E-02
   328 -1.116183467E-02
   329 -2.313963280E-03
   330  6.632948507E-04
   331 -1.888272430E-03
   332  8.507966646E-04
Ene=   -4.4888235478E-01
Spin= Alpha
Occup=   2.0000000
     1  9.468128747E-03
     2  1.491240404E-02
     3 -3.903871787E-02
     4  6.423957898E-03
     5 -1.443593345E-02
     6 -4.345790301E-02
     7 -5.674545319E-02
     8  9.327923275E-03
     9 -2.031512379E-02
    10 -1.092834129E-02
    11 -4.015587186E-02
    12  6.594330535E-03
    13 -1.037194569E-02
    14  1.157769866E-02
    15  2.311606785E-03
    16 -3.534745994E-04
    17  1.222304047E-03
    18 -3.792962123E-04
    19 -7.776382828E-02
    20 -1.734808921E-02
    21  3.085024139E-03
    22  1.233838206E-02
    23 -1.694251097E-05
    24 -2.659743124E-05
    25 -3.037784353E-02
    26  4.201398600E-02
    27 -5.039835104E-02
    28  7.890582193E-05
    29 -4.309445453E-02
    30  5.964778918E-02
    31 -7.226014622E-02
    32  4.910026435E-07
    33 -2.625654502E-02
    34  3.624097429E-02
    35 -5.231014437E-02
    36 -2.446505822E-05
    37  2.447646124E-04
    38  2.228537960E-04
    39  3.187171395E-03
    40 -1.051567922E-03
    41  4.085534785E-04
    42 -8.842047436E-03
    43  1.235257022E-02
    44 -1.988462745E-02
    45 -1.537139377E-02
    46 -2.429532017E-02
    47 -6.012407059E-07
    48 -3.920268371E-06
    49  9.353666143E-02
    50  6.944010828E-02
    51 -9.833017417E-07
    52 -5.294246969E-06
    53  1.308765902E-01
    54  5.550782985E-02
    55  3.104317614E-07
    56 -3.914769065E-06
    57  9.886999357E-02
    58 -1.086116685E-03
    59 -1.006467361E-08
    60 -8.879209980E-08
    61 -8.132886356E-03
    62  2.802814847E-03
    63  1.610926806E-01
    64  1.663407615E-05
    65 -4.626791664E-05
    66 -5.299108196E-02
    67 -9.467876773E-03
    68 -1.491202870E-02
    69 -6.426270174E-03
    70 -3.903801727E-02
    71 -1.443689462E-02
    72  4.345714874E-02
    73 -9.331350143E-03
    74 -5.674465137E-02
    75 -2.031623655E-02
    76  1.092603082E-02
    77 -6.596618044E-03
    78 -4.015372935E-02
    79 -1.037710092E-02
    80 -1.157787721E-02
    81 -3.533411385E-04
    82 -2.311476408E-03
    83  1.222595826E-03
    84 -3.785157168E-04
    85  7.797806917E-02
    86 -3.039802623E-03
    87 -1.738938592E-02
    88  1.231524427E-02
    89  1.735164095E-05
    90  2.719472584E-05
    91 -4.201490077E-02
    92 -3.038151935E-02
    93 -5.040126370E-02
    94 -7.959058032E-05
    95 -5.964924974E-02
    96 -4.309934921E-02
    97 -7.226404896E-02
    98 -1.238765416E-05
    99 -3.624093069E-02
   100 -2.625948676E-02
   101 -5.231560960E-02
   102  2.444545751E-05
   103  2.227573891E-04
   104 -2.449878359E-04
   105  3.187295617E-03
   106 -1.051567606E-03
   107 -6.657086437E-04
   108 -1.234485037E-02
   109 -8.805427669E-03
   110 -1.994747693E-02
   111  1.537138915E-02
   112  2.429525544E-02
   113 -1.829148301E-06
   114  4.501440076E-07
   115  9.353676687E-02
   116 -6.943868041E-02
   117 -2.509683745E-06
   118  4.350614985E-07
   119  1.308763254E-01
   120 -5.552039024E-02
   121 -2.200326212E-06
   122  3.522813283E-06
   123  9.887006663E-02
   124  1.086103200E-03
   125  8.169764529E-08
   126  2.531584530E-09
   127 -8.132867535E-03
   128  2.802779067E-03
   129 -1.616328540E-01
   130 -7.700188189E-06
   131  5.670201407E-05
   132 -5.309662632E-02
   133  9.468612494E-03
   134  1.491315882E-02
   135  3.903862213E-02
   136 -6.427243793E-03
   137 -1.443446910E-02
   138 -4.345980962E-02
   139  5.674557231E-02
   140 -9.332662942E-03
   141 -2.031307257E-02
   142 -1.093317910E-02
   143  4.015549813E-02
   144 -6.599846589E-03
   145 -1.036822924E-02
   146  1.157737047E-02
   147 -2.311594967E-03
   148  3.533341763E-04
   149  1.222695358E-03
   150 -3.782197783E-04
   151 -7.809599404E-02
   152  1.740827757E-02
   153 -2.990105605E-03
   154  1.235340196E-02
   155 -1.818932188E-05
   156 -2.852810208E-05
   157  3.038488060E-02
   158 -4.201086381E-02
   159 -5.039988601E-02
   160  8.332410166E-05
   161  4.310440587E-02
   162 -5.964341833E-02
   163 -7.226226701E-02
   164  1.931429420E-05
   165  2.625879941E-02
   166 -3.624106353E-02
   167 -5.231227731E-02
   168 -2.445945188E-05
   169 -2.451897450E-04
   170 -2.224269300E-04
   171  3.187253679E-03
   172 -1.051601291E-03
   173  6.354564979E-04
   174  8.775215392E-03
   175 -1.235997714E-02
   176 -1.992576168E-02
   177 -9.468921939E-03
   178 -1.491365158E-02
   179  6.424913701E-03
   180  3.903918769E-02
   181 -1.443372751E-02
   182  4.346121234E-02
   183  9.329444410E-03
   184  5.674651430E-02
   185 -2.031149767E-02
   186  1.093433837E-02
   187  6.595659891E-03
   188  4.015899112E-02
   189 -1.037096626E-02
   190 -1.157721246E-02
   191  3.533690287E-04
   192  2.311332862E-03
   193  1.222421334E-03
   194 -3.790154623E-04
   195  7.859816128E-02
   196  3.060044778E-03
   197  1.746992221E-02
   198  1.233314612E-02
   199  1.780854691E-05
   200  2.790318296E-05
   201  4.200993613E-02
   202  3.038128648E-02
   203 -5.039704406E-02
   204 -8.112154546E-05
   205  5.964195976E-02
   206  4.309913327E-02
   207 -7.225829094E-02
   208 -2.034797130E-05
   209  3.624044844E-02
   210  2.625782875E-02
   211 -5.230916284E-02
   212  2.441436605E-05
   213 -2.224066615E-04
   214  2.450014257E-04
   215  3.187151075E-03
   216 -1.051475892E-03
   217 -5.999233622E-04
   218  1.238065050E-02
   219  8.831617546E-03
   220 -1.987094330E-02
   221 -9.440192109E-03
   222 -6.625874347E-03
   223  5.633572354E-03
   224  1.905900927E-04
   225  1.208515495E-03
   226 -1.190586825E-03
   227  4.805646221E-03
   228 -5.814328379E-02
   229 -8.020880089E-02
   230 -1.109230635E-02
   231  8.280434957E-03
   232 -1.394402916E-03
   233 -7.479646740E-04
   234 -1.415724187E-02
   235  4.641201948E-02
   236  6.178240497E-02
   237  1.557168546E-02
   238 -3.516099686E-03
   239  3.437950343E-03
   240  1.970441919E-03
   241 -3.616167165E-03
   242 -4.636945033E-02
   243 -6.179733341E-02
   244 -1.546807878E-02
   245  2.153394099E-03
   246 -4.464136320E-03
   247  1.915312999E-03
   248  3.674276088E-03
   249  9.439857064E-03
   250  6.627600152E-03
   251 -5.651423604E-03
   252  1.208438488E-03
   253 -1.906383565E-04
   254 -1.190705958E-03
   255 -4.827160653E-03
   256  5.813974105E-02
   257  8.020222210E-02
   258  1.111757247E-02
   259 -1.394424479E-03
   260 -8.280323334E-03
   261 -7.476438738E-04
   262  1.418848760E-02
   263 -4.641318176E-02
   264 -6.178335648E-02
   265 -1.557474196E-02
   266  3.438187486E-03
   267  3.516176220E-03
   268  1.970269395E-03
   269  3.627460472E-03
   270  4.637355411E-02
   271  6.180273268E-02
   272  1.547064681E-02
   273 -4.464527805E-03
   274 -2.153269021E-03
   275  1.915524623E-03
   276 -3.647737455E-03
   277 -9.438958892E-03
   278 -6.627528194E-03
   279  5.654849171E-03
   280 -1.906664878E-04
   281 -1.208467531E-03
   282 -1.190721135E-03
   283  4.788221754E-03
   284 -5.814091741E-02
   285 -8.020557310E-02
   286 -1.109553177E-02
   287 -8.280330330E-03
   288  1.394482355E-03
   289 -7.477485790E-04
   290 -1.417939587E-02
   291  4.641760259E-02
   292  6.178895992E-02
   293  1.558154248E-02
   294  3.516570852E-03
   295 -3.438054404E-03
   296  1.970653263E-03
   297 -3.615075001E-03
   298 -4.637145894E-02
   299 -6.180087838E-02
   300 -1.545950503E-02
   301 -2.153607283E-03
   302  4.464452591E-03
   303  1.915225454E-03
   304  3.680331619E-03
   305  9.439292467E-03
   306  6.628014713E-03
   307 -5.659806005E-03
   308 -1.208424370E-03
   309  1.905506486E-04
   310 -1.190747272E-03
   311 -4.824131465E-03
   312  5.814470813E-02
   313  8.021008849E-02
   314  1.111029129E-02
   315  1.394503422E-03
   316  8.280599683E-03
   317 -7.481788409E-04
   318  1.415183666E-02
   319 -4.641639040E-02
   320 -6.178824006E-02
   321 -1.557594690E-02
   322 -3.437878755E-03
   323 -3.516438893E-03
   324  1.970718823E-03
   325  3.631825926E-03
   326  4.636744493E-02
   327  6.179458960E-02
   328  1.546926840E-02
   329  4.464118647E-03
   330  2.153669454E-03
   331  1.915051356E-03
   332 -3.645894553E-03
Ene=   -4.4857363048E-01
Spin= Alpha
Occup=   2.0000000
     1 -6.335567341E-03
     2 -9.979706155E-03
     3  1.211032629E-02
     4  3.573386506E-02
     5 -1.903695727E-02
     6  2.910697515E-02
     7  1.783628419E-02
     8  5.130782123E-02
     9 -2.769138804E-02
    10  7.307608313E-03
    11  1.386138754E-02
    12  3.242402704E-02
    13 -1.938103366E-02
    14  3.901768982E-03
    15  2.356652974E-04
    16  2.628264335E-03
    17  5.113238876E-03
    18  1.144437139E-02
    19  4.911819115E-02
    20  1.109665133E-02
    21 -2.457799692E-03
    22 -7.401156060E-03
    23 -4.429923831E-03
    24 -7.003328707E-03
    25 -5.019627571E-02
    26  2.395244715E-02
    27 -4.971728013E-02
    28  2.007965108E-02
    29 -7.117949394E-02
    30  3.490023397E-02
    31 -7.057124447E-02
    32  1.557708764E-02
    33 -5.274815875E-02
    34  2.451298849E-02
    35 -4.292707287E-02
    36  8.460558954E-05
    37  4.029156410E-03
    38 -6.552768927E-05
    39  2.886859280E-04
    40 -3.545529232E-04
    41  4.377681433E-02
    42  4.154875585E-04
    43  2.403175002E-02
    44 -1.458427035E-02
    45 -4.162404279E-07
    46 -6.129597935E-07
    47  1.596876009E-02
    48  8.874610775E-02
    49  2.556171312E-06
    50  8.373666516E-07
    51  2.244492683E-02
    52  1.266500908E-01
    53  3.016424421E-06
    54  1.339121673E-05
    55  1.093983671E-02
    56  8.505497286E-02
    57 -2.786439800E-08
    58 -1.489432776E-08
    59  1.899445342E-03
    60  3.008948693E-03
    61 -1.657393857E-08
    62 -7.680786184E-08
    63  9.636751732E-04
    64  3.059846073E-03
    65  3.090481927E-02
    66 -2.141768126E-04
    67 -1.172933474E-02
    68 -1.847554046E-02
    69 -2.190118098E-02
    70 -8.340233855E-03
    71  3.459820995E-02
    72  5.390319347E-02
    73 -3.162505903E-02
    74 -1.276551833E-02
    75  5.030090986E-02
    76  1.283090396E-02
    77 -2.112433212E-02
    78 -1.257134250E-02
    79  3.540533605E-02
    80  7.211534922E-03
    81  1.315260397E-03
    82 -5.252080603E-04
    83  2.405516976E-04
    84  7.051693100E-03
    85  9.512338043E-02
    86 -3.724351307E-03
    87 -2.087089098E-02
    88  1.473637011E-02
    89  1.472233192E-02
    90  2.327122010E-02
    91  6.352141251E-02
    92 -6.452354600E-02
    93  1.468334958E-02
    94 -6.656880797E-02
    95  8.926586881E-02
    96 -8.999152207E-02
    97  2.085177178E-02
    98 -5.266167974E-02
    99  6.692162459E-02
   100 -6.877258561E-02
   101  1.240659630E-02
   102 -5.086374857E-04
   103 -7.222568762E-03
   104 -4.083919885E-03
   105 -2.987149574E-04
   106 -8.383852418E-04
   107 -1.503710305E-01
   108 -2.531690505E-02
   109  4.334725295E-02
   110  4.073127010E-03
   111  3.514245188E-07
   112  5.440448833E-07
   113 -4.804454532E-02
   114  6.939093110E-03
   115  2.346711479E-06
   116 -1.280484210E-06
   117 -6.844042517E-02
   118  1.053394935E-02
   119  3.291408237E-06
   120 -4.080344608E-06
   121 -4.387844276E-02
   122  1.436911644E-02
   123  1.843532527E-06
   124 -3.671727250E-08
   125  2.146227975E-03
   126  2.311516252E-03
   127 -2.185797895E-07
   128 -1.889212515E-08
   129 -9.870215788E-06
   130 -1.496820541E-02
   131  6.170665035E-03
   132  2.206319561E-05
   133  6.336168243E-03
   134  9.980638115E-03
   135  1.211225522E-02
   136  3.573358377E-02
   137  1.903599686E-02
   138 -2.910907688E-02
   139  1.783853219E-02
   140  5.130695703E-02
   141  2.769067055E-02
   142 -7.318785124E-03
   143  1.387293130E-02
   144  3.243031712E-02
   145  1.937374052E-02
   146 -3.901070217E-03
   147  2.357920788E-04
   148  2.628019195E-03
   149 -5.113441928E-03
   150 -1.144432687E-02
   151 -4.984793813E-02
   152  1.136195339E-02
   153 -2.376683995E-03
   154  7.301878823E-03
   155  4.429852018E-03
   156  7.003173002E-03
   157 -5.019465326E-02
   158  2.395027660E-02
   159  4.971475192E-02
   160 -2.007828053E-02
   161 -7.117708195E-02
   162  3.489800132E-02
   163  7.056733124E-02
   164 -1.558943633E-02
   165 -5.273953920E-02
   166  2.450762382E-02
   167  4.293006844E-02
   168 -8.458644154E-05
   169  4.028789518E-03
   170 -6.532100594E-05
   171 -2.886535849E-04
   172  3.546644729E-04
   173 -4.498220956E-02
   174  6.800945346E-04
   175  2.418842977E-02
   176  1.460367188E-02
   177  1.172895141E-02
   178  1.847494096E-02
   179 -2.190090833E-02
   180 -8.338043078E-03
   181 -3.459871065E-02
   182 -5.390198645E-02
   183 -3.162394599E-02
   184 -1.276218178E-02
   185 -5.030228205E-02
   186 -1.282067570E-02
   187 -2.113453544E-02
   188 -1.257035042E-02
   189 -3.539496890E-02
   190 -7.212136636E-03
   191  1.315004261E-03
   192 -5.250954532E-04
   193 -2.402561195E-04
   194 -7.051847986E-03
   195 -9.442899372E-02
   196 -3.879061074E-03
   197 -2.077489626E-02
   198 -1.457296238E-02
   199 -1.472239535E-02
   200 -2.327131345E-02
   201  6.352370992E-02
   202 -6.452197093E-02
   203 -1.468589048E-02
   204  6.656888480E-02
   205  8.926815006E-02
   206 -8.998988377E-02
   207 -2.085542871E-02
   208  5.266399379E-02
   209  6.693078725E-02
   210 -6.876567741E-02
   211 -1.240677702E-02
   212  5.088557073E-04
   213 -7.222640281E-03
   214 -4.083815878E-03
   215  2.986368327E-04
   216  8.382740217E-04
   217  1.506574116E-01
   218 -2.530986316E-02
   219  4.343956674E-02
   220 -4.122665144E-03
   221  1.163684154E-02
   222  8.104001441E-03
   223 -6.851309057E-03
   224 -9.241378685E-04
   225  4.245160641E-04
   226 -1.082242507E-03
   227 -5.772451775E-03
   228 -3.111200328E-02
   229 -4.155801865E-02
   230 -1.069690557E-02
   231  1.160526196E-03
   232 -1.166703457E-03
   233 -3.269100803E-03
   234  1.899334023E-03
   235  6.842002195E-02
   236  9.398068418E-02
   237  1.507982820E-02
   238 -6.273636957E-03
   239 -1.984047043E-03
   240  5.921372318E-03
   241  1.296227940E-02
   242  4.289885845E-02
   243  5.966883071E-02
   244  6.186288694E-03
   245  4.539524827E-03
   246  2.503884767E-03
   247 -5.441680758E-03
   248  1.424538668E-02
   249  6.201887668E-03
   250  4.302889068E-03
   251 -3.819161449E-03
   252  1.415242813E-04
   253  1.806849327E-03
   254  6.140183580E-04
   255 -2.889428154E-03
   256  5.787531016E-02
   257  7.711114244E-02
   258  1.943005164E-02
   259  1.274187449E-04
   260 -2.515656008E-03
   261 -6.068181029E-03
   262 -4.623669886E-03
   263  2.819937793E-02
   264  3.667290333E-02
   265  1.191938486E-02
   266 -3.515455646E-03
   267 -2.745041085E-03
   268  8.693846217E-04
   269 -7.415115917E-03
   270 -6.128817267E-02
   271 -8.244498171E-02
   272 -1.818714097E-02
   273  6.075757782E-03
   274 -2.966964445E-05
   275 -2.502988699E-03
   276 -5.057913194E-04
   277 -1.163769501E-02
   278 -8.104568222E-03
   279  6.843263184E-03
   280 -9.242051201E-04
   281  4.244481253E-04
   282  1.082080924E-03
   283  5.798620076E-03
   284  3.110917538E-02
   285  4.155395817E-02
   286  1.068538978E-02
   287  1.160150598E-03
   288 -1.166678881E-03
   289  3.269068731E-03
   290 -1.852148694E-03
   291 -6.841774356E-02
   292 -9.397594938E-02
   293 -1.510221954E-02
   294 -6.273451053E-03
   295 -1.984183773E-03
   296 -5.921278090E-03
   297 -1.300240105E-02
   298 -4.290104242E-02
   299 -5.967219770E-02
   300 -6.184600395E-03
   301  4.539476696E-03
   302  2.504194963E-03
   303  5.441696087E-03
   304 -1.418058575E-02
   305 -6.201587615E-03
   306 -4.303511154E-03
   307  3.830437888E-03
   308  1.414331689E-04
   309  1.806863717E-03
   310 -6.140859425E-04
   311  2.872935231E-03
   312 -5.787273556E-02
   313 -7.710193530E-02
   314 -1.949095705E-02
   315  1.274768802E-04
   316 -2.515134550E-03
   317  6.068273744E-03
   318  4.655267984E-03
   319 -2.820124030E-02
   320 -3.667898194E-02
   321 -1.187438992E-02
   322 -3.515512939E-03
   323 -2.745266486E-03
   324 -8.693245666E-04
   325  7.366340853E-03
   326  6.129094628E-02
   327  8.244566707E-02
   328  1.823125262E-02
   329  6.076126258E-03
   330 -2.946784715E-05
   331  2.502972980E-03
   332  4.429780722E-04
Ene=   -4.4857359821E-01
Spin= Alpha
Occup=   2.0000000
     1 -1.172947147E-02
     2 -1.847576067E-02
     3  8.340466938E-03
     4 -2.190121817E-02
     5 -3.459791136E-02
     6  5.390457805E-02
     7  1.276602289E-02
     8 -3.162503062E-02
     9 -5.030120733E-02
    10  1.281904101E-02
    11  1.256919409E-02
    12 -2.112317814E-02
    13 -3.539552738E-02
    14  7.211403142E-03
    15 -5.253156852E-04
    16 -1.315304988E-03
    17 -2.402731523E-04
    18 -7.051753181E-03
    19  9.412614799E-02
    20  2.074596653E-02
    21 -3.791657879E-03
    22 -1.448042085E-02
    23  1.472239830E-02
    24  2.327138977E-02
    25  6.452373857E-02
    26  6.352104105E-02
    27 -1.468284225E-02
    28 -6.657096514E-02
    29  8.999217558E-02
    30  8.926514716E-02
    31 -2.085125815E-02
    32 -5.264053294E-02
    33  6.877738456E-02
    34  6.692829636E-02
    35 -1.240209304E-02
    36 -5.087916507E-04
    37 -4.083961641E-03
    38  7.222745109E-03
    39  2.986043991E-04
    40  8.384650383E-04
    41 -1.496042816E-01
    42 -4.320049850E-02
    43 -2.520041020E-02
    44 -4.103096578E-03
    45  5.265457832E-07
    46  8.258333625E-07
    47 -6.939175708E-03
    48 -4.804453838E-02
    49 -3.279897860E-06
    50 -2.337796706E-06
    51 -1.053338425E-02
    52 -6.844063514E-02
    53 -4.414319133E-06
    54 -1.739067131E-06
    55 -1.437815933E-02
    56 -4.387858103E-02
    57 -4.238935217E-06
    58  7.639729610E-08
    59  2.311747618E-03
    60 -2.146242268E-03
    61  1.955931077E-07
    62 -4.203533751E-09
    63 -3.337524125E-04
    64 -6.166270941E-03
    65 -1.494661347E-02
    66  6.875783019E-05
    67  6.336195973E-03
    68  9.980710443E-03
    69 -3.573352823E-02
    70  1.211263795E-02
    71 -1.903595312E-02
    72 -2.911021891E-02
    73 -5.130676733E-02
    74  1.783957919E-02
    75 -2.769028793E-02
    76 -7.308955514E-03
    77 -3.243260835E-02
    78  1.386217851E-02
    79 -1.937457714E-02
    80 -3.901021793E-03
    81  2.628143185E-03
    82 -2.354388666E-04
    83  5.113412277E-03
    84  1.144429184E-02
    85 -4.902203235E-02
    86  2.436740651E-03
    87  1.113342265E-02
    88 -7.331825616E-03
    89  4.429878487E-03
    90  7.003233348E-03
    91 -2.394994354E-02
    92 -5.019443126E-02
    93 -4.971422185E-02
    94 -2.007853899E-02
    95 -3.489690211E-02
    96 -7.117708150E-02
    97 -7.056741377E-02
    98 -1.558932111E-02
    99 -2.451382840E-02
   100 -5.274201953E-02
   101 -4.292036347E-02
   102 -8.466161195E-05
   103 -6.537278706E-05
   104 -4.029165215E-03
   105  2.884392130E-04
   106 -3.544904750E-04
   107 -4.412754711E-02
   108 -2.410601395E-02
   109  5.194969798E-04
   110 -1.453609173E-02
   111 -5.257022529E-07
   112 -8.345610482E-07
   113 -8.874606190E-02
   114  1.596866991E-02
   115 -3.267057015E-06
   116  2.659689570E-06
   117 -1.266506059E-01
   118  2.244520770E-02
   119 -4.324269063E-06
   120 -2.314319335E-06
   121 -8.505260696E-02
   122  1.093308159E-02
   123 -6.396416222E-06
   124 -5.451103508E-08
   125  3.008986495E-03
   126 -1.899676171E-03
   127  2.909352295E-07
   128 -1.381098891E-08
   129  8.756668981E-05
   130 -3.087728503E-02
   131  2.957115905E-03
   132  1.970722272E-06
   133  1.172880895E-02
   134  1.847472525E-02
   135  8.337718529E-03
   136 -2.190082377E-02
   137  3.459894697E-02
   138 -5.390179619E-02
   139  1.276220759E-02
   140 -3.162402376E-02
   141  5.030236366E-02
   142 -1.281338535E-02
   143  1.256488435E-02
   144 -2.112942447E-02
   145  3.539938386E-02
   146 -7.212236646E-03
   147 -5.251405221E-04
   148 -1.315138450E-03
   149  2.403397143E-04
   150  7.051782341E-03
   151 -9.408488128E-02
   152  2.064262033E-02
   153 -3.932423446E-03
   154  1.457007562E-02
   155 -1.472237220E-02
   156 -2.327131176E-02
   157  6.452166650E-02
   158  6.352403389E-02
   159  1.468635235E-02
   160  6.656998297E-02
   161  8.998926342E-02
   162  8.926870062E-02
   163  2.085608907E-02
   164  5.264914121E-02
   165  6.877211305E-02
   166  6.693314495E-02
   167  1.240690205E-02
   168  5.088200570E-04
   169 -4.083871743E-03
   170  7.222604254E-03
   171 -2.987910447E-04
   172 -8.384423841E-04
   173  1.503487427E-01
   174 -4.334217064E-02
   175 -2.531834859E-02
   176  4.183717527E-03
   177 -6.335542215E-03
   178 -9.979668881E-03
   179 -3.573387593E-02
   180  1.210993367E-02
   181  1.903693960E-02
   182  2.910699166E-02
   183 -5.130780763E-02
   184  1.783553170E-02
   185  2.769164433E-02
   186  7.307464025E-03
   187 -3.242490686E-02
   188  1.386315726E-02
   189  1.937265493E-02
   190  3.901803299E-03
   191  2.628312505E-03
   192 -2.357173059E-04
   193 -5.113560104E-03
   194 -1.144422908E-02
   195  4.886883626E-02
   196  2.491200619E-03
   197  1.108673917E-02
   198  7.334354986E-03
   199 -4.429882973E-03
   200 -7.003245434E-03
   201 -2.395287245E-02
   202 -5.019648912E-02
   203  4.971764644E-02
   204  2.007870694E-02
   205 -3.490091894E-02
   206 -7.118015592E-02
   207  7.057249301E-02
   208  1.558599315E-02
   209 -2.451630972E-02
   210 -5.274550857E-02
   211  4.292366977E-02
   212  8.453372893E-05
   213 -6.545487144E-05
   214 -4.029254483E-03
   215 -2.886702453E-04
   216  3.546039510E-04
   217  4.375657272E-02
   218 -2.402632920E-02
   219  4.561702132E-04
   220  1.450999342E-02
   221 -6.201264430E-03
   222 -4.304369867E-03
   223  3.838770171E-03
   224 -1.806831308E-03
   225  1.413250064E-04
   226  6.141189482E-04
   227  2.849531534E-03
   228 -5.787219362E-02
   229 -7.710219787E-02
   230 -1.947470075E-02
   231  2.515059632E-03
   232  1.274737480E-04
   233 -6.068133794E-03
   234  4.597408960E-03
   235 -2.820177636E-02
   236 -3.667964052E-02
   237 -1.188250700E-02
   238  2.745346162E-03
   239 -3.515580679E-03
   240  8.692945637E-04
   241  7.354438223E-03
   242  6.129147336E-02
   243  8.244422198E-02
   244  1.824431434E-02
   245  2.942569762E-05
   246  6.076089411E-03
   247 -2.502897920E-03
   248  4.993905764E-04
   249  1.163696246E-02
   250  8.103417070E-03
   251 -6.849637429E-03
   252 -4.244828062E-04
   253 -9.242431597E-04
   254  1.082228511E-03
   255 -5.753627683E-03
   256 -3.111251807E-02
   257 -4.155974883E-02
   258 -1.067779938E-02
   259  1.166823812E-03
   260  1.160620051E-03
   261  3.269113625E-03
   262  1.879186229E-03
   263  6.842038947E-02
   264  9.398135280E-02
   265  1.507702751E-02
   266  1.984032959E-03
   267 -6.273794705E-03
   268 -5.921368003E-03
   269  1.297287984E-02
   270  4.289833664E-02
   271  5.966859242E-02
   272  6.178375471E-03
   273 -2.503906952E-03
   274  4.539477637E-03
   275  5.441696202E-03
   276  1.423713812E-02
   277  6.201888017E-03
   278  4.305516477E-03
   279 -3.840049859E-03
   280 -1.806786313E-03
   281  1.414628153E-04
   282 -6.139520551E-04
   283 -2.838907274E-03
   284  5.787606571E-02
   285  7.710926253E-02
   286  1.946516016E-02
   287  2.515677965E-03
   288  1.273916709E-04
   289  6.068265673E-03
   290 -4.618931125E-03
   291  2.819865497E-02
   292  3.667485312E-02
   293  1.189133075E-02
   294  2.745084558E-03
   295 -3.515359721E-03
   296 -8.694033449E-04
   297 -7.387285596E-03
   298 -6.128819580E-02
   299 -8.244121673E-02
   300 -1.822604180E-02
   301  2.962172096E-05
   302  6.075721536E-03
   303  2.502863277E-03
   304 -5.086294217E-04
   305 -1.163758274E-02
   306 -8.104665642E-03
   307  6.851046895E-03
   308 -4.244438762E-04
   309 -9.242789732E-04
   310 -1.082065230E-03
   311  5.745659612E-03
   312  3.110868718E-02
   313  4.155198183E-02
   314  1.070472644E-02
   315  1.166739250E-03
   316  1.159981746E-03
   317 -3.269111552E-03
   318 -1.886775843E-03
   319 -6.841748409E-02
   320 -9.397471532E-02
   321 -1.511275552E-02
   322  1.984197825E-03
   323 -6.273533879E-03
   324  5.921264428E-03
   325 -1.297873154E-02
   326 -4.290167239E-02
   327 -5.967175191E-02
   328 -6.199360003E-03
   329 -2.504315799E-03
   330  4.539314796E-03
   331 -5.441769799E-03
   332 -1.417292175E-02
Ene=   -4.0412195276E-01
Spin= Alpha
Occup=   2.0000000
     1  4.901890915E-05
     2  7.615836928E-05
     3 -3.371115832E-02
     4  4.147414464E-02
     5 -5.620585990E-02
     6 -2.155649863E-04
     7 -5.013643614E-02
     8  6.171019467E-02
     9 -8.365712860E-02
    10 -9.361793833E-05
    11 -3.520827790E-02
    12  4.322643660E-02
    13 -5.844269367E-02
    14  4.346090171E-04
    15 -1.134044323E-03
    16 -6.397118609E-04
    17 -1.250103012E-03
    18  6.440595539E-04
    19  1.114030831E-03
    20  1.240917384E-02
    21 -1.587661740E-02
    22  2.139940632E-02
    23 -4.801765787E-05
    24 -7.636710038E-05
    25 -3.060922784E-03
    26  4.726926771E-03
    27 -4.394319700E-04
    28  2.347833482E-04
    29 -4.509498128E-03
    30  6.946784811E-03
    31 -5.287016004E-04
    32 -1.097484056E-04
    33 -3.205216507E-03
    34  4.682519561E-03
    35 -1.414231731E-03
    36 -8.424491308E-03
    37  4.143439333E-04
    38  3.006166045E-04
    39 -1.453926670E-03
    40 -4.591334111E-03
    41 -1.551436027E-03
    42 -1.347118123E-03
    43  1.284812150E-03
    44 -5.739791317E-04
    46  2.657835402E-08
    47  8.175995490E-02
    48  5.796719183E-02
    49 -4.378740340E-08
    50 -6.293435412E-07
    51  1.212805329E-01
    52  8.391812453E-02
    53 -2.533084505E-07
    54  5.771087602E-06
    55  6.970424572E-02
    56  7.063586594E-02
    57 -1.489541990E-06
    58  4.977061560E-08
    59 -5.675273762E-03
    60  7.925638307E-03
    61  1.026711023E-08
    62 -1.779699934E-07
    63  3.916207425E-04
    64  2.714418336E-02
    65  2.466237686E-02
    66 -7.875276659E-05
    67  2.701901535E-05
    68  3.988362444E-05
    69  3.391848181E-02
    70 -4.109373795E-02
    71 -5.102210921E-02
    72 -7.387626668E-05
    73  5.047067366E-02
    74 -6.120802917E-02
    75 -7.588580324E-02
    76 -2.514303098E-04
    77  3.534964605E-02
    78 -4.246432054E-02
    79 -5.336181858E-02
    80 -3.793138043E-04
    81  1.164075142E-03
    82  6.983093295E-04
    83 -1.416742268E-03
    84  1.721925107E-04
    85 -3.089433003E-03
    86 -1.213315585E-02
    87  1.687392221E-02
    88  1.788855179E-02
    89  4.980292171E-05
    90  7.731772073E-05
    91 -8.200012421E-02
    92 -5.781679951E-02
    93 -4.985358715E-03
    94 -2.246878623E-04
    95 -1.205519241E-01
    96 -8.506777025E-02
    97 -5.677234541E-03
    98  9.666198885E-05
    99 -8.058969824E-02
   100 -5.697079786E-02
   101 -2.219617944E-02
   102 -3.698961760E-04
   103  5.708732624E-03
   104 -7.865852197E-03
   105  5.966607128E-04
   106  1.945569827E-04
   107  1.663478656E-03
   108 -2.898480565E-02
   109 -2.153100302E-02
   110 -6.490210700E-03
   111 -1.656722088E-08
   112 -3.648682466E-08
   113  8.876714891E-02
   114  4.941306144E-02
   115 -4.982666367E-08
   116  3.082140673E-07
   117  1.294960040E-01
   118  7.400521725E-02
   119 -2.003629644E-07
   120 -2.218472428E-06
   121  9.813483463E-02
   122  3.522096115E-02
   123 -1.251242936E-06
   124 -5.103072120E-08
   125 -6.536546362E-03
   126  7.250315471E-03
   127  7.253227085E-08
   128  4.001483538E-08
   129 -2.571185234E-04
   130  3.444482970E-02
   131  1.426032356E-02
   132 -5.193100942E-05
   133 -4.902158814E-05
   134 -7.616924102E-05
   135 -3.371156029E-02
   136  4.147226116E-02
   137  5.620587342E-02
   138  2.160444287E-04
   139 -5.013722737E-02
   140  6.170712629E-02
   141  8.365686805E-02
   142  8.690169893E-05
   143 -3.520575327E-02
   144  4.322851511E-02
   145  5.844506056E-02
   146 -4.346003091E-04
   147 -1.133960837E-03
   148 -6.397962388E-04
   149  1.250092389E-03
   150 -6.440778426E-04
   151 -1.570550283E-03
   152  1.256757801E-02
   153 -1.581635624E-02
   154 -2.140264591E-02
   155  4.801117091E-05
   156  7.634909096E-05
   157 -3.060903867E-03
   158  4.726877539E-03
   159  4.369275144E-04
   160 -2.345644724E-04
   161 -4.509682868E-03
   162  6.947145296E-03
   163  5.248894758E-04
   164  1.068333389E-04
   165 -3.200103921E-03
   166  4.678260879E-03
   167  1.415036486E-03
   168  8.424446375E-03
   169  4.141879933E-04
   170  3.006278222E-04
   171  1.454058610E-03
   172  4.591307277E-03
   173  1.177259753E-03
   174 -1.268728115E-03
   175  1.353719138E-03
   176  5.450935993E-04
   177 -2.697964785E-05
   178 -3.980636186E-05
   179  3.391646609E-02
   180 -4.109343283E-02
   181  5.102217163E-02
   182  7.321345300E-05
   183  5.046809636E-02
   184 -6.120780653E-02
   185  7.588547428E-02
   186  2.575515027E-04
   187  3.534201626E-02
   188 -4.246160411E-02
   189  5.336654301E-02
   190  3.793231808E-04
   191  1.163871762E-03
   192  6.983116067E-04
   193  1.416763503E-03
   194 -1.722339462E-04
   195  3.381968549E-03
   196 -1.218143575E-02
   197  1.700301867E-02
   198 -1.788097880E-02
   199 -4.981776384E-05
   200 -7.731693863E-05
   201 -8.200007885E-02
   202 -5.781685461E-02
   203  4.987943654E-03
   204  2.242082435E-04
   205 -1.205523446E-01
   206 -8.506790102E-02
   207  5.680919396E-03
   208 -9.097175199E-05
   209 -8.058547941E-02
   210 -5.696710805E-02
   211  2.220075256E-02
   212  3.699691023E-04
   213  5.708707303E-03
   214 -7.865692884E-03
   215 -5.969939144E-04
   216 -1.944798886E-04
   217 -1.245103515E-03
   218 -2.904426941E-02
   219 -2.144990660E-02
   220  6.471774453E-03
   221 -7.546748651E-04
   222 -9.648489711E-04
   223 -2.098441303E-04
   224  1.994203252E-03
   225 -2.515766509E-03
   226  2.951133768E-03
   227  6.238208317E-04
   228  5.426557671E-02
   229  6.862173541E-02
   230  2.281500849E-02
   231 -1.050519517E-03
   232  4.262556028E-03
   233  3.810840509E-03
   234 -2.717281796E-03
   235 -5.141936825E-02
   236 -6.501985546E-02
   237 -2.160164300E-02
   238  5.636498631E-04
   239 -3.955453647E-03
   240 -4.279318607E-03
   241  2.534916156E-03
   242  5.062676928E-02
   243  6.389213128E-02
   244  2.112064119E-02
   245 -3.613484584E-03
   246  1.841776951E-03
   247 -4.076020945E-03
   248 -3.045684432E-03
   249 -2.467436737E-04
   250 -2.875439699E-04
   251  5.836809695E-05
   252 -1.966133386E-03
   253  2.455154786E-03
   254  3.344405025E-03
   255  7.571385409E-05
   256  4.841771159E-02
   257  6.120141231E-02
   258  2.025484986E-02
   259  4.180279115E-03
   260 -2.263848087E-03
   261 -3.398275779E-03
   262 -2.995502687E-03
   263  3.043281739E-03
   264  3.836804258E-03
   265  1.387417502E-03
   266  1.718221062E-04
   267 -5.855388357E-04
   268  4.309519265E-04
   269 -1.988176585E-04
   270 -2.896828357E-03
   271 -3.641262568E-03
   272 -1.132115437E-03
   273 -2.717895830E-04
   274  7.573462108E-04
   275 -8.734938136E-04
   276  2.657193916E-04
   277  7.546888799E-04
   278  9.645677514E-04
   279  2.115349679E-04
   280  1.994273868E-03
   281 -2.515811304E-03
   282 -2.951204138E-03
   283 -5.939894481E-04
   284 -5.426538005E-02
   285 -6.862272420E-02
   286 -2.280693044E-02
   287 -1.050554066E-03
   288  4.262520179E-03
   289 -3.810807461E-03
   290  2.713969660E-03
   291  5.141799925E-02
   292  6.501909522E-02
   293  2.158113753E-02
   294  5.634871312E-04
   295 -3.955378979E-03
   296  4.279313204E-03
   297 -2.536083523E-03
   298 -5.062557037E-02
   299 -6.388968435E-02
   300 -2.113103148E-02
   301 -3.613487785E-03
   302  1.841678693E-03
   303  4.076011926E-03
   304  3.075079658E-03
   305  2.466653633E-04
   306  2.876596617E-04
   307 -5.644657941E-05
   308 -1.966129376E-03
   309  2.455283335E-03
   310 -3.344455554E-03
   311 -9.369095550E-05
   312 -4.841794693E-02
   313 -6.119999227E-02
   314 -2.027353747E-02
   315  4.180286628E-03
   316 -2.263851083E-03
   317  3.398359804E-03
   318  2.997806701E-03
   319 -3.044382813E-03
   320 -3.839283712E-03
   321 -1.370903977E-03
   322  1.718843718E-04
   323 -5.856970919E-04
   324 -4.310421665E-04
   325  1.858241894E-04
   326  2.898100616E-03
   327  3.642254355E-03
   328  1.141918919E-03
   329 -2.716062167E-04
   330  7.573117835E-04
   331  8.733509487E-04
   332 -3.016698159E-04
Ene=   -4.0412193524E-01
Spin= Alpha
Occup=   2.0000000
     1  2.699870625E-05
     2  3.984259424E-05
     3  4.109360434E-02
     4  3.391711234E-02
     5  5.102208726E-02
     6 -7.330385962E-05
     7  6.120822423E-02
     8  5.046848504E-02
     9  7.588551481E-02
    10 -2.579621586E-04
    11  4.245806970E-02
    12  3.535137834E-02
    13  5.336541980E-02
    14 -3.793033531E-04
    15  6.980698537E-04
    16 -1.164015297E-03
    17  1.416819942E-03
    18 -1.722405998E-04
    19 -3.858244178E-03
    20 -1.706102895E-02
    21 -1.213998597E-02
    22 -1.780777167E-02
    23  4.980353008E-05
    24  7.733490407E-05
    25  5.781680370E-02
    26 -8.200005297E-02
    27  4.987192669E-03
    28 -2.252512767E-04
    29  8.506819321E-02
    30 -1.205524985E-01
    31  5.679806050E-03
    32  1.036966965E-04
    33  5.696860793E-02
    34 -8.058169652E-02
    35  2.220243519E-02
    36 -3.698839781E-04
    37 -7.865703588E-03
    38 -5.708665098E-03
    39 -5.970191952E-04
    40 -1.943657939E-04
    41  1.746955655E-03
    42  2.153379232E-02
    43 -2.894124170E-02
    44  6.456297549E-03
    45 -3.468328988E-09
    46  3.777437893E-08
    47 -4.941312420E-02
    48  8.876715335E-02
    49 -3.893494538E-08
    50 -1.086215375E-06
    51 -7.400497066E-02
    52  1.294960129E-01
    53 -2.062498040E-07
    54  1.181708069E-05
    55 -3.522505270E-02
    56  9.813378753E-02
    57 -3.868837121E-06
    58  5.512521946E-08
    59  7.250431991E-03
    60  6.536491423E-03
    61  1.232278765E-07
    62  8.968653664E-08
    63  4.392822729E-04
    64 -1.426312440E-02
    65  3.444731765E-02
    66 -9.971684515E-05
    67 -4.899879375E-05
    68 -7.612757324E-05
    69 -4.147366120E-02
    70 -3.371130485E-02
    71 -5.620583920E-02
    72  2.157327636E-04
    73 -6.170903494E-02
    74 -5.013673531E-02
    75 -8.365716837E-02
    76  8.859788803E-05
    77 -4.323183215E-02
    78 -3.520792471E-02
    79 -5.844117852E-02
    80 -4.346188393E-04
    81 -6.398447191E-04
    82  1.134047127E-03
    83 -1.250088757E-03
    84  6.440895643E-04
    85 -1.361539965E-03
    86  1.576768693E-02
    87  1.250726737E-02
    88  2.142355541E-02
    89  4.800748387E-05
    90  7.636987832E-05
    91 -4.726877515E-03
    92 -3.060948101E-03
    93 -4.386567147E-04
    94 -2.352284726E-04
    95 -6.946751407E-03
    96 -4.509647118E-03
    97 -5.276690233E-04
    98  1.134618610E-04
    99 -4.681295549E-03
   100 -3.204010094E-03
   101 -1.413193972E-03
   102  8.424414500E-03
   103  3.006917177E-04
   104 -4.142839853E-04
   105 -1.454045642E-03
   106 -4.591382418E-03
   107  1.346046782E-03
   108 -1.360677610E-03
   109 -1.302198405E-03
   110 -5.141861266E-04
   111 -1.176345180E-08
   112 -2.049952411E-08
   113 -5.796710768E-02
   114  8.175996062E-02
   115 -3.332315427E-08
   116  2.081805954E-07
   117 -8.391819170E-02
   118  1.212803925E-01
   119  6.790000675E-08
   120 -2.536007063E-06
   121 -7.063545100E-02
   122  6.970679734E-02
   123 -2.278230242E-06
   124 -4.727449650E-08
   125  7.925676462E-03
   126  5.675333707E-03
   127  2.039825151E-08
   128  2.431746689E-08
   129  3.645153468E-05
   130 -2.464120525E-02
   131  2.713944340E-02
   132  6.913913253E-06
   133 -2.698249083E-05
   134 -3.981397149E-05
   135  4.109361386E-02
   136  3.391780341E-02
   137 -5.102212867E-02
   138  7.342132156E-05
   139  6.120826546E-02
   140  5.047003734E-02
   141 -7.588537804E-02
   142  2.540029294E-04
   143  4.246167816E-02
   144  3.534368222E-02
   145 -5.336701952E-02
   146  3.793468354E-04
   147  6.984058888E-04
   148 -1.163871685E-03
   149 -1.416786867E-03
   150  1.722424450E-04
   151  3.190907364E-03
   152 -1.694703060E-02
   153 -1.223133969E-02
   154  1.783907437E-02
   155 -4.981199276E-05
   156 -7.729846542E-05
   157  5.781692578E-02
   158 -8.200008446E-02
   159 -4.986214076E-03
   160  2.240328837E-04
   161  8.506770321E-02
   162 -1.205519690E-01
   163 -5.678140158E-03
   164 -9.163867830E-05
   165  5.697042955E-02
   166 -8.058817544E-02
   167 -2.220002217E-02
   168  3.700057854E-04
   169 -7.865728320E-03
   170 -5.708788039E-03
   171  5.967847593E-04
   172  1.945161891E-04
   173 -1.155619306E-03
   174  2.146581370E-02
   175 -2.908048283E-02
   176 -6.514522673E-03
   177  4.903155681E-05
   178  7.620200193E-05
   179 -4.147281067E-02
   180 -3.371145591E-02
   181  5.620585430E-02
   182 -2.165849132E-04
   183 -6.170833659E-02
   184 -5.013694622E-02
   185  8.365676696E-02
   186 -8.169595612E-05
   187 -4.322196366E-02
   188 -3.520665648E-02
   189  5.844642881E-02
   190  4.346129349E-04
   191 -6.396067092E-04
   192  1.133995196E-03
   193  1.250137225E-03
   194 -6.440287015E-04
   195  1.640092548E-03
   196  1.594294379E-02
   197  1.249931174E-02
   198 -2.132499920E-02
   199 -4.801081822E-05
   200 -7.637616555E-05
   201 -4.726888677E-03
   202 -3.060896691E-03
   203  4.377084158E-04
   204  2.351997206E-04
   205 -6.946726908E-03
   206 -4.509898829E-03
   207  5.260030862E-04
   208 -1.152445116E-04
   209 -4.678117687E-03
   210 -3.203686825E-03
   211  1.417073113E-03
   212 -8.424473165E-03
   213  3.004290018E-04
   214 -4.143117558E-04
   215  1.454011539E-03
   216  4.591331703E-03
   217 -2.012811227E-03
   218 -1.227849642E-03
   219 -1.430164930E-03
   220  5.883462665E-04
   221  2.467079733E-04
   222  2.875379031E-04
   223 -6.116976586E-05
   224 -2.455249662E-03
   225 -1.966183899E-03
   226  3.344410187E-03
   227 -7.094348401E-05
   228 -4.841784791E-02
   229 -6.119976132E-02
   230 -2.027339299E-02
   231  2.263827766E-03
   232  4.180215842E-03
   233 -3.398275142E-03
   234  2.990262183E-03
   235 -3.043377464E-03
   236 -3.839410574E-03
   237 -1.355439248E-03
   238  5.855552940E-04
   239  1.719043460E-04
   240  4.309299607E-04
   241  1.888466636E-04
   242  2.897393547E-03
   243  3.640040474E-03
   244  1.155244012E-03
   245 -7.574274717E-04
   246 -2.717097715E-04
   247 -8.734251382E-04
   248 -3.199774043E-04
   249 -7.546420678E-04
   250 -9.648943588E-04
   251 -2.037803138E-04
   252  2.515775852E-03
   253  1.994223005E-03
   254 -2.951172021E-03
   255  6.290554203E-04
   256  5.426534509E-02
   257  6.862316306E-02
   258  2.280234352E-02
   259 -4.262534605E-03
   260 -1.050546009E-03
   261 -3.810796461E-03
   262 -2.705977866E-03
   263 -5.141847805E-02
   264 -6.501873268E-02
   265 -2.159791541E-02
   266  3.955410565E-03
   267  5.635373626E-04
   268  4.279326209E-03
   269  2.566831313E-03
   270  5.062584044E-02
   271  6.389197584E-02
   272  2.110403484E-02
   273 -1.841640099E-03
   274 -3.613486041E-03
   275  4.076053730E-03
   276 -3.089439481E-03
   277 -2.467671742E-04
   278 -2.869325831E-04
   279  5.868735596E-05
   280 -2.455241422E-03
   281 -1.966175459E-03
   282 -3.344404420E-03
   283  1.047756036E-04
   284  4.841779544E-02
   285  6.120048776E-02
   286  2.026087084E-02
   287  2.263825098E-03
   288  4.180258741E-03
   289  3.398309168E-03
   290 -2.982107497E-03
   291  3.044048048E-03
   292  3.838170312E-03
   293  1.386877280E-03
   294  5.856269192E-04
   295  1.717970931E-04
   296 -4.310189147E-04
   297 -2.091646530E-04
   298 -2.897723872E-03
   299 -3.642230926E-03
   300 -1.132497127E-03
   301 -7.573177005E-04
   302 -2.716578984E-04
   303  8.734637221E-04
   304  2.564921980E-04
   305  7.546553384E-04
   306  9.634954084E-04
   307  2.183111456E-04
   308  2.515696429E-03
   309  1.994170815E-03
   310  2.951245377E-03
   311 -6.443052515E-04
   312 -5.426559180E-02
   313 -6.862187772E-02
   314 -2.282024073E-02
   315 -4.262528290E-03
   316 -1.050580134E-03
   317  3.810881581E-03
   318  2.716582411E-03
   319  5.141896039E-02
   320  6.501936179E-02
   321  2.159279476E-02
   322  3.955445086E-03
   323  5.635119011E-04
   324 -4.279285430E-03
   325 -2.500277440E-03
   326 -5.062653962E-02
   327 -6.389051591E-02
   328 -2.113748162E-02
   329 -1.841782627E-03
   330 -3.613527633E-03
   331 -4.076027607E-03
   332  3.052237892E-03
Ene=   -4.0383388251E-01
Spin= Alpha
Occup=   2.0000000
     1  1.151289954E-04
     2  1.821522996E-04
     3  1.269988696E-02
     4  7.464451649E-02
     5 -4.698720432E-04
     6 -5.375522580E-04
     7  1.887354217E-02
     8  1.111196207E-01
     9 -6.596579531E-04
    10 -8.532137181E-05
    11  1.337673532E-02
    12  7.771783969E-02
    13 -6.548392307E-04
    14  3.487553293E-05
    15 -2.672365678E-04
    16 -1.942393293E-03
    17  1.303846366E-04
    18  4.674041677E-04
    19 -5.523995482E-04
    20 -4.982205505E-03
    21 -2.771665196E-02
    22 -3.714801608E-04
    23 -9.020624528E-05
    24 -1.422543322E-04
    25 -3.361866278E-03
    26  4.263690393E-03
    27 -1.006279461E-01
    28  4.082478411E-04
    29 -3.965381093E-03
    30  4.919432924E-03
    31 -1.479863550E-01
    32  1.210830411E-04
    33 -1.346428609E-02
    34  1.820203300E-02
    35 -9.905950865E-02
    36 -6.511718158E-05
    37  4.186923017E-04
    38  3.072785600E-04
    39  9.247820091E-03
    40 -3.055817237E-03
    41 -1.788552608E-03
    42 -4.289097855E-03
    43  4.940770570E-03
    44 -3.606757423E-02
    45 -1.650685683E-04
    46 -2.607865791E-04
    47 -1.242374531E-06
    48 -3.305554191E-07
    49  3.763632787E-04
    50  7.539316968E-04
    51 -1.769952209E-06
    52 -4.128837708E-07
    53  5.134615935E-04
    54  5.999558403E-04
    55 -9.129322313E-07
    56 -1.045943853E-06
    57  5.322486548E-04
    58  6.220005762E-05
    59  9.940758814E-08
    60 -7.328749915E-08
    61 -3.228422965E-03
    62 -9.162419302E-03
    63  4.256706821E-03
    64  2.123024563E-05
    65 -1.311308299E-05
    66 -1.110171697E-03
    67  1.151209961E-04
    68  1.821649798E-04
    69  7.464419692E-02
    70 -1.269890946E-02
    71  4.711198979E-04
    72 -5.385933718E-04
    73  1.111193750E-01
    74 -1.887190846E-02
    75  6.612857487E-04
    76 -7.238997293E-05
    77  7.771352111E-02
    78 -1.338133297E-02
    79  6.600456618E-04
    80  3.482936876E-05
    81  1.942322672E-03
    82 -2.669903940E-04
    83 -1.302978171E-04
    84 -4.674020478E-04
    85  3.343704895E-04
    86 -2.777546229E-02
    87  4.860094462E-03
    88  5.025341636E-04
    89 -9.021591965E-05
    90 -1.422834641E-04
    91  4.265073941E-03
    92  3.362817225E-03
    93  1.006280872E-01
    94  4.087191691E-04
    95  4.922180630E-03
    96  3.967434936E-03
    97  1.479865984E-01
    98  1.163773697E-04
    99  1.819493344E-02
   100  1.346078156E-02
   101  9.906481004E-02
   102 -6.519464315E-05
   103 -3.072278140E-04
   104  4.187237301E-04
   105 -9.248070711E-03
   106  3.055951971E-03
   107 -2.038839155E-03
   108  4.818304311E-03
   109  4.272629608E-03
   110  3.605623979E-02
   111 -1.650685998E-04
   112 -2.608519973E-04
   113 -1.370960143E-06
   114 -2.075422894E-07
   115 -3.763132476E-04
   116  7.559047668E-04
   117 -2.295155183E-06
   118 -2.635782488E-07
   119 -5.135494527E-04
   120  5.770794568E-04
   121 -1.486027047E-07
   122 -9.834558355E-07
   123 -5.409976466E-04
   124  6.205159930E-05
   125  1.614423030E-07
   126 -9.170123906E-08
   127  3.228606420E-03
   128  9.162411756E-03
   129  3.517469856E-03
   130  2.613591178E-05
   131 -1.250871110E-05
   132  9.429838935E-04
   133  1.151228489E-04
   134  1.821366783E-04
   135 -1.269864879E-02
   136 -7.464524939E-02
   137 -4.717203901E-04
   138 -5.375821777E-04
   139 -1.887145569E-02
   140 -1.111207061E-01
   141 -6.620712758E-04
   142 -8.458919595E-05
   143 -1.337568523E-02
   144 -7.771833060E-02
   145 -6.593159224E-04
   146  3.490537411E-05
   147  2.673386733E-04
   148  1.942375644E-03
   149  1.303522489E-04
   150  4.674066720E-04
   151 -5.417421388E-04
   152  4.971607006E-03
   153  2.773579289E-02
   154 -4.290313371E-04
   155 -9.020258929E-05
   156 -1.422619164E-04
   157  3.362569475E-03
   158 -4.264602079E-03
   159 -1.006280419E-01
   160  4.086409345E-04
   161  3.966519064E-03
   162 -4.920695127E-03
   163 -1.479866223E-01
   164  1.168842556E-04
   165  1.346494637E-02
   166 -1.820179275E-02
   167 -9.905871629E-02
   168 -6.528973115E-05
   169 -4.187912930E-04
   170 -3.073574620E-04
   171  9.247768400E-03
   172 -3.055944921E-03
   173 -1.927392903E-03
   174  4.304101865E-03
   175 -4.909000611E-03
   176 -3.603858485E-02
   177  1.151158065E-04
   178  1.821504932E-04
   179 -7.464550441E-02
   180  1.269959332E-02
   181  4.704090452E-04
   182 -5.383606039E-04
   183 -1.111212318E-01
   184  1.887298777E-02
   185  6.602630710E-04
   186 -7.419830646E-05
   187 -7.771538731E-02
   188  1.338094305E-02
   189  6.586087516E-04
   190  3.483404366E-05
   191 -1.942379522E-03
   192  2.670177670E-04
   193 -1.303681207E-04
   194 -4.674145365E-04
   195  2.496530884E-04
   196  2.779224626E-02
   197 -4.882714692E-03
   198  5.009729762E-04
   199 -9.020155376E-05
   200 -1.422590580E-04
   201 -4.263014086E-03
   202 -3.361414755E-03
   203  1.006279087E-01
   204  4.086291798E-04
   205 -4.919080243E-03
   206 -3.965361051E-03
   207  1.479863204E-01
   208  1.167760401E-04
   209 -1.819438968E-02
   210 -1.345961671E-02
   211  9.906371476E-02
   212 -6.526828660E-05
   213  3.071105255E-04
   214 -4.185027501E-04
   215 -9.247978878E-03
   216  3.055966894E-03
   217 -2.080039749E-03
   218 -4.809104401E-03
   219 -4.288093229E-03
   220  3.608066802E-02
   221 -4.652607177E-04
   222 -6.248934147E-04
   223 -1.426031607E-04
   224 -4.424066846E-03
   225  6.934650265E-04
   226 -1.605613754E-05
   227 -6.653988076E-05
   228  3.339424328E-04
   229  4.895614066E-04
   230  2.190254577E-05
   231  1.017981346E-04
   232  9.342973397E-04
   233  1.074257071E-05
   234  2.523828975E-04
   235 -5.122562056E-02
   236 -6.471936462E-02
   237 -2.139192167E-02
   238  5.491220214E-03
   239 -4.637793894E-04
   240  1.854575496E-03
   241  2.613562504E-03
   242  5.125564362E-02
   243  6.481746369E-02
   244  2.168824248E-02
   245  1.290432699E-03
   246  5.352283175E-03
   247  1.891247994E-03
   248 -2.806178643E-03
   249 -4.650632881E-04
   250 -6.269420350E-04
   251 -1.204033705E-04
   252 -6.933683544E-04
   253 -4.424050902E-03
   254  1.603758315E-05
   255 -8.284344488E-05
   256  3.344483741E-04
   257  4.906956412E-04
   258  1.946562175E-05
   259 -9.344009066E-04
   260  1.018275378E-04
   261 -1.067878242E-05
   262  2.758423452E-04
   263 -5.122657329E-02
   264 -6.472084299E-02
   265 -2.139380417E-02
   266  4.638556025E-04
   267  5.491287182E-03
   268 -1.854513860E-03
   269  2.636621837E-03
   270  5.125654332E-02
   271  6.481963667E-02
   272  2.167690353E-02
   273 -5.352340814E-03
   274  1.290394703E-03
   275 -1.891163293E-03
   276 -2.806587423E-03
   277 -4.653173900E-04
   278 -6.246341633E-04
   279 -1.447412023E-04
   280  4.423994621E-03
   281 -6.934266310E-04
   282 -1.600722228E-05
   283 -6.482029023E-05
   284  3.358958431E-04
   285  4.910016815E-04
   286  3.413856666E-05
   287 -1.017819478E-04
   288 -9.343533882E-04
   289  1.088632796E-05
   290  2.916709096E-04
   291 -5.122696056E-02
   292 -6.472100652E-02
   293 -2.139607641E-02
   294 -5.491227485E-03
   295  4.639000411E-04
   296  1.854437070E-03
   297  2.608393371E-03
   298  5.125695922E-02
   299  6.481877009E-02
   300  2.168970199E-02
   301 -1.290333242E-03
   302 -5.352294219E-03
   303  1.891179184E-03
   304 -2.786021935E-03
   305 -4.652308285E-04
   306 -6.259293624E-04
   307 -1.297234248E-04
   308  6.934599265E-04
   309  4.423990586E-03
   310  1.608254485E-05
   311 -1.035283522E-04
   312  3.351518117E-04
   313  4.916547468E-04
   314  1.680942260E-05
   315  9.342620824E-04
   316 -1.017834544E-04
   317 -1.070799781E-05
   318  2.665905469E-04
   319 -5.122598717E-02
   320 -6.472011357E-02
   321 -2.139268528E-02
   322 -4.638001114E-04
   323 -5.491282022E-03
   324 -1.854531202E-03
   325  2.662851345E-03
   326  5.125586614E-02
   327  6.481873992E-02
   328  2.167004453E-02
   329  5.352261256E-03
   330 -1.290480861E-03
   331 -1.891276361E-03
   332 -2.824773205E-03
Ene=   -3.8971831768E-01
Spin= Alpha
Occup=   2.0000000
     1 -6.369945877E-03
     2 -9.935277173E-03
     3  7.091978714E-02
     4 -1.211319017E-02
     5 -3.759052229E-02
     6  2.612528122E-02
     7  1.019166928E-01
     8 -1.740657013E-02
     9 -5.310479623E-02
    10  4.313324032E-02
    11  9.689912995E-02
    12 -1.636850390E-02
    13 -6.422378746E-02
    14  3.991917334E-04
    15  1.266585742E-02
    16 -2.069917853E-03
    17  4.635975796E-03
    18 -1.595563892E-03
    19  2.008343455E-01
    20  1.030709494E-01
    21 -1.758950764E-02
    22 -5.661283119E-02
    23 -5.424475081E-06
    24 -7.941781558E-06
    25 -2.776554824E-02
    26  3.907660722E-02
    27 -2.898810526E-02
    28 -3.358679251E-06
    29 -3.867167853E-02
    30  5.441508377E-02
    31 -4.186244944E-02
    32  2.285637422E-04
    33 -2.558020864E-02
    34  3.605229436E-02
    35 -4.482937623E-02
    36 -3.825603130E-05
    37  9.885665454E-03
    38  7.147940105E-03
    39  2.567048928E-04
    40 -1.388326737E-05
    41 -1.359410272E-03
    42 -1.238429185E-02
    43  1.640287845E-02
    44 -8.138585137E-03
    45 -1.688329201E-02
    46 -2.671442974E-02
    47  7.583664951E-07
    48 -3.317323152E-06
    49 -7.869599008E-02
    50  7.831889225E-02
    51  1.720391319E-06
    52 -4.622603086E-06
    53 -1.143807685E-01
    54  4.198719900E-02
    55 -8.082763413E-06
    56 -3.200994873E-06
    57 -6.320066821E-02
    58  8.195911370E-03
    59 -7.241926696E-07
    60 -3.625361387E-07
    61  2.495590214E-03
    62 -8.460379036E-04
    63 -1.402052779E-01
    64 -4.371074183E-05
    65 -1.488337904E-05
    66  4.507553878E-02
    67  6.370245068E-03
    68  9.935778610E-03
    69  1.211507548E-02
    70  7.092225990E-02
    71 -3.759264581E-02
    72 -2.612731588E-02
    73  1.740961384E-02
    74  1.019210666E-01
    75 -5.310854186E-02
    76 -4.313276993E-02
    77  1.636862624E-02
    78  9.690017136E-02
    79 -6.422345857E-02
    80 -3.992539982E-04
    81 -2.068380438E-03
    82 -1.266665861E-02
    83  4.635355530E-03
    84 -1.595361140E-03
    85 -2.019507675E-01
    86  1.757146356E-02
    87  1.031314825E-01
    88 -5.675915564E-02
    89  7.165331559E-06
    90  1.080548096E-05
    91 -3.908258051E-02
    92 -2.775978898E-02
    93 -2.899085754E-02
    94 -7.480200382E-06
    95 -5.442383771E-02
    96 -3.866414721E-02
    97 -4.186671603E-02
    98 -2.057398778E-04
    99 -3.605683963E-02
   100 -2.557921330E-02
   101 -4.482586007E-02
   102  3.864352793E-05
   103  7.148137615E-03
   104 -9.885718770E-03
   105  2.574707877E-04
   106 -1.346083306E-05
   107  2.361293227E-03
   108 -1.625354310E-02
   109 -1.249106866E-02
   110 -8.093276799E-03
   111  1.688331075E-02
   112  2.671452603E-02
   113 -5.180141880E-06
   114  1.590706248E-06
   115 -7.869604582E-02
   116 -7.832077955E-02
   117 -8.052564334E-06
   118  2.203646955E-06
   119 -1.143803427E-01
   120 -4.197071895E-02
   121 -3.114757778E-06
   122 -3.463032158E-06
   123 -6.320167344E-02
   124 -8.195880379E-03
   125  9.655412020E-07
   126  1.741905087E-07
   127  2.495634353E-03
   128 -8.460464633E-04
   129  1.407454395E-01
   130  7.255111564E-05
   131 -9.226422032E-05
   132  4.516028845E-02
   133 -6.371268372E-03
   134 -9.937321851E-03
   135 -7.093225088E-02
   136  1.211622230E-02
   137 -3.760090127E-02
   138  2.612991417E-02
   139 -1.019348962E-01
   140  1.741134799E-02
   141 -5.311977342E-02
   142  4.315620242E-02
   143 -9.692023183E-02
   144  1.637232048E-02
   145 -6.424117898E-02
   146  3.992616504E-04
   147 -1.266686629E-02
   148  2.068882920E-03
   149  4.633967064E-03
   150 -1.594893047E-03
   151  2.021855098E-01
   152 -1.032280101E-01
   153  1.760702674E-02
   154 -5.680056999E-02
   155 -8.119521511E-06
   156 -1.226925366E-05
   157  2.775433518E-02
   158 -3.908267018E-02
   159 -2.898595435E-02
   160  1.124457959E-05
   161  3.865593084E-02
   162 -5.442464731E-02
   163 -4.185946581E-02
   164  2.116005346E-04
   165  2.557517526E-02
   166 -3.604703722E-02
   167 -4.482631689E-02
   168 -3.882278627E-05
   169 -9.885502490E-03
   170 -7.148112865E-03
   171  2.565392526E-04
   172 -1.271826984E-05
   173 -1.998559841E-03
   174  1.244026337E-02
   175 -1.621501073E-02
   176 -8.157064455E-03
   177  6.370974632E-03
   178  9.936851623E-03
   179 -1.211432641E-02
   180 -7.092960619E-02
   181 -3.759862883E-02
   182 -2.612821174E-02
   183 -1.740847005E-02
   184 -1.019314244E-01
   185 -5.311703071E-02
   186 -4.315586492E-02
   187 -1.637084541E-02
   188 -9.691435913E-02
   189 -6.423500883E-02
   190 -3.992025051E-04
   191  2.070539133E-03
   192  1.266664180E-02
   193  4.634248187E-03
   194 -1.594979727E-03
   195 -2.023767479E-01
   196 -1.765046647E-02
   197 -1.032635445E-01
   198 -5.668828775E-02
   199  6.400446481E-06
   200  9.578472387E-06
   201  3.907679940E-02
   202  2.776004458E-02
   203 -2.898324173E-02
   204 -4.042988344E-06
   205  5.441580342E-02
   206  3.866420285E-02
   207 -4.185538785E-02
   208 -2.048037425E-04
   209  3.604295628E-02
   210  2.557460949E-02
   211 -4.482914342E-02
   212  3.844420947E-05
   213 -7.148016178E-03
   214  9.885492217E-03
   215  2.557979864E-04
   216 -1.323706539E-05
   217  1.807634461E-03
   218  1.629139642E-02
   219  1.239442828E-02
   220 -8.194864555E-03
   221  6.423336952E-02
   222  8.316450082E-02
   223  2.105177494E-02
   224  5.471513556E-04
   225  3.364040833E-03
   226  2.302394603E-03
   227 -4.443412860E-02
   228  2.441729130E-02
   229  3.562470024E-02
   230  2.772057948E-02
   231 -2.316847149E-03
   232  3.826491050E-04
   233 -1.983871188E-03
   234  1.915474221E-02
   235  4.116185907E-02
   236  5.681329630E-02
   237  2.385817400E-02
   238 -2.263090716E-03
   239  2.733799035E-03
   240  7.381186114E-04
   241 -1.296168583E-02
   242 -4.074706543E-02
   243 -5.613599899E-02
   244 -2.367790302E-02
   245  1.903096842E-03
   246 -2.995245775E-03
   247  6.654533131E-04
   248  1.319091813E-02
   249 -6.423617785E-02
   250 -8.316900400E-02
   251 -2.103761445E-02
   252  3.364179327E-03
   253 -5.471756188E-04
   254  2.302523735E-03
   255  4.450159948E-02
   256 -2.442394034E-02
   257 -3.563272722E-02
   258 -2.774912283E-02
   259  3.827209075E-04
   260  2.317073360E-03
   261 -1.983251133E-03
   262 -1.920874623E-02
   263 -4.116659027E-02
   264 -5.682101994E-02
   265 -2.386986331E-02
   266  2.733659193E-03
   267  2.263433094E-03
   268  7.383531980E-04
   269  1.291977638E-02
   270  4.074681052E-02
   271  5.613481852E-02
   272  2.368088426E-02
   273 -2.995509584E-03
   274 -1.903516987E-03
   275  6.651540231E-04
   276 -1.320131184E-02
   277  6.422593140E-02
   278  8.315470213E-02
   279  2.103571445E-02
   280 -5.470031401E-04
   281 -3.363492432E-03
   282  2.302007446E-03
   283 -4.441127042E-02
   284  2.442569916E-02
   285  3.563449930E-02
   286  2.774831739E-02
   287  2.316950769E-03
   288 -3.825342581E-04
   289 -1.983128137E-03
   290  1.925087150E-02
   291  4.116928316E-02
   292  5.682618012E-02
   293  2.385279370E-02
   294  2.263712569E-03
   295 -2.734124136E-03
   296  7.382229590E-04
   297 -1.295701906E-02
   298 -4.075272502E-02
   299 -5.614079630E-02
   300 -2.370202872E-02
   301 -1.903377548E-03
   302  2.995761545E-03
   303  6.652786197E-04
   304  1.316597503E-02
   305 -6.422275110E-02
   306 -8.315436625E-02
   307 -2.099877770E-02
   308 -3.363582903E-03
   309  5.470204725E-04
   310  2.302067977E-03
   311  4.446170654E-02
   312 -2.441933074E-02
   313 -3.562545313E-02
   314 -2.775334226E-02
   315 -3.825454597E-04
   316 -2.317030316E-03
   317 -1.983682426E-03
   318 -1.923774121E-02
   319 -4.116465680E-02
   320 -5.681799752E-02
   321 -2.386025687E-02
   322 -2.734194049E-03
   323 -2.263564530E-03
   324  7.381783093E-04
   325  1.295718078E-02
   326  4.075258165E-02
   327  5.614364470E-02
   328  2.366955257E-02
   329  2.995372252E-03
   330  1.903053799E-03
   331  6.654377570E-04
   332 -1.323177075E-02
Ene=   -3.8960271324E-01
Spin= Alpha
Occup=   2.0000000
     1 -3.847441794E-03
     2 -6.001295868E-03
     3  3.895721594E-02
     4  6.010369242E-03
     5 -3.080532488E-02
     6  1.579075309E-02
     7  5.572373236E-02
     8  9.524167375E-03
     9 -4.430165054E-02
    10  2.586854360E-02
    11  5.682921536E-02
    12 -4.421478392E-03
    13 -4.187303666E-02
    14 -8.422422858E-05
    15 -3.311082269E-04
    16 -1.277228738E-02
    17 -5.292697922E-03
    18  1.395709826E-03
    19  1.165802780E-01
    20  5.698272017E-02
    21  6.042930020E-03
    22 -4.357476946E-02
    23  5.731515485E-03
    24  9.069013497E-03
    25 -5.847008841E-03
    26 -3.787679217E-02
    27  4.513195776E-02
    28 -2.655150725E-02
    29 -8.667989831E-03
    30 -5.484052031E-02
    31  6.288651139E-02
    32 -1.476814731E-02
    33  6.783908898E-03
    34 -4.695271700E-02
    35  4.159370748E-02
    36  1.375541900E-03
    37  4.154108026E-04
    38 -9.200865072E-04
    39 -1.169565312E-02
    40  1.380339084E-03
    41  4.874168657E-02
    42  1.717519667E-02
    43  2.999907143E-03
    44  1.931439009E-02
    45  1.015511365E-07
    46  1.871317929E-07
    47 -1.896866268E-02
    48 -6.643059009E-02
    49  5.627748230E-07
    50 -7.426966624E-07
    51 -2.596045297E-02
    52 -9.390491021E-02
    53  6.328248614E-08
    54  9.722122712E-07
    55 -1.258601374E-02
    56 -7.845056365E-02
    57  3.897272233E-06
    58 -1.671174774E-07
    59  3.139731132E-03
    60 -1.183125259E-02
    61  2.006788044E-07
    62 -4.813726529E-08
    63  9.392146608E-04
    64 -9.147681473E-03
    65 -2.451303615E-02
    66 -2.033044856E-04
    67 -8.272824948E-03
    68 -1.290920166E-02
    69 -1.850958905E-02
    70 -7.838250708E-02
    71  6.480524816E-02
    72  3.407828380E-02
    73 -2.683601609E-02
    74 -1.118140696E-01
    75  9.313802119E-02
    76  5.510758344E-02
    77 -2.178566845E-02
    78 -1.191791139E-01
    79  8.836696668E-02
    80 -2.129661076E-04
    81 -5.214200727E-03
    82  4.681425384E-03
    83  1.092473242E-02
    84 -3.947409465E-03
    85  2.507221657E-01
    86 -2.592552607E-02
    87 -1.139742000E-01
    88  9.358382432E-02
    89 -1.587405763E-02
    90 -2.511623421E-02
    91  3.474084735E-02
    92 -6.647936884E-02
    93 -1.601632020E-02
    94  7.356151223E-02
    95  5.057669662E-02
    96 -9.656962778E-02
    97 -2.228585765E-02
    98  4.028839280E-02
    99  2.206076682E-02
   100 -5.809696662E-02
   101 -1.495722185E-02
   102 -3.808006291E-03
   103 -1.928396573E-03
   104 -1.599438688E-03
   105  1.823024665E-03
   106 -7.666583919E-03
   107 -1.247135544E-01
   108 -2.625995520E-02
   109  3.153869548E-02
   110 -7.455353967E-03
   111 -9.287840372E-08
   112 -6.926386207E-08
   113  3.564617599E-02
   114  1.178643100E-02
   115  4.117005065E-07
   116 -1.766896492E-06
   117  5.010105578E-02
   118  1.506266241E-02
   119  7.825964219E-07
   120  2.392615545E-05
   121  3.779568280E-02
   122 -6.444164604E-03
   123  7.555193323E-06
   124  7.468568105E-08
   125 -3.479822768E-03
   126  1.164485053E-02
   127 -1.415129102E-07
   128  5.402536280E-08
   129  9.195651545E-04
   130  1.442634049E-02
   131  9.457320607E-03
   132  2.370937466E-04
   133  3.847529890E-03
   134  6.001485065E-03
   135  3.895808011E-02
   136  6.010155254E-03
   137  3.080559414E-02
   138 -1.579248596E-02
   139  5.572458917E-02
   140  9.524155724E-03
   141  4.430331980E-02
   142 -2.585911627E-02
   143  5.683236176E-02
   144 -4.425074587E-03
   145  4.185642986E-02
   146  8.427341195E-05
   147 -3.307955196E-04
   148 -1.277225988E-02
   149  5.292315772E-03
   150 -1.395526093E-03
   151 -1.164863024E-01
   152  5.715337178E-02
   153  5.939763733E-03
   154  4.324799455E-02
   155 -5.731514533E-03
   156 -9.068997052E-03
   157 -5.847312370E-03
   158 -3.787623106E-02
   159 -4.513154600E-02
   160  2.655126394E-02
   161 -8.668021221E-03
   162 -5.484017183E-02
   163 -6.288618396E-02
   164  1.476847252E-02
   165  6.782793161E-03
   166 -4.694653345E-02
   167 -4.159522895E-02
   168 -1.375313588E-03
   169  4.155343162E-04
   170 -9.197612531E-04
   171  1.169587273E-02
   172 -1.380204202E-03
   173 -4.910570000E-02
   174  1.720839456E-02
   175  3.168030904E-03
   176 -1.930173155E-02
   177  8.272753513E-03
   178  1.290908080E-02
   179 -1.850932429E-02
   180 -7.838173872E-02
   181 -6.480468344E-02
   182 -3.407754176E-02
   183 -2.683570912E-02
   184 -1.118124489E-01
   185 -9.313822404E-02
   186 -5.511066214E-02
   187 -2.178680350E-02
   188 -1.191925303E-01
   189 -8.835194832E-02
   190  2.130630551E-04
   191 -5.214073008E-03
   192  4.681849395E-03
   193 -1.092454052E-02
   194  3.947339004E-03
   195 -2.515333169E-01
   196 -2.596228141E-02
   197 -1.141600164E-01
   198 -9.351280774E-02
   199  1.587405657E-02
   200  2.511623613E-02
   201  3.474030723E-02
   202 -6.647958717E-02
   203  1.601661280E-02
   204 -7.356163734E-02
   205  5.057600632E-02
   206 -9.657024484E-02
   207  2.228643265E-02
   208 -4.029031986E-02
   209  2.206103806E-02
   210 -5.810110754E-02
   211  1.495134772E-02
   212  3.808194903E-03
   213 -1.928457443E-03
   214 -1.599874866E-03
   215 -1.822959221E-03
   216  7.666337898E-03
   217  1.239973889E-01
   218 -2.620063123E-02
   219  3.132206370E-02
   220  7.360182902E-03
   221  8.214048802E-02
   222  1.063254763E-01
   223  2.681259165E-02
   224  7.650199902E-04
   225  4.164047247E-03
   226  3.079026056E-03
   227 -5.631445164E-02
   228  2.496917544E-02
   229  3.443708891E-02
   230  1.448235526E-02
   231 -3.167875943E-04
   232  5.203122662E-04
   233  2.150486138E-03
   234 -8.128714737E-03
   235  8.790005082E-03
   236  1.407095316E-02
   237  1.809996438E-02
   238  7.197989249E-04
   239 -3.288651615E-03
   240  1.443935370E-03
   241  2.274637632E-02
   242  3.734432750E-02
   243  5.331027919E-02
   244  3.438329296E-02
   245  1.826059049E-03
   246  5.378207561E-04
   247 -1.685829639E-03
   248  1.346663896E-02
   249  3.859119861E-02
   250  4.996075659E-02
   251  1.260664466E-02
   252 -1.990297854E-03
   253  2.713015472E-04
   254 -1.423724341E-03
   255 -2.668624465E-02
   256 -5.173362490E-02
   257 -7.139476534E-02
   258 -3.006230564E-02
   259 -5.375032670E-05
   260  8.340463021E-04
   261  4.478613055E-03
   262  1.671766254E-02
   263 -4.701386883E-02
   264 -6.558322166E-02
   265 -3.172941362E-02
   266  1.436892072E-03
   267  2.545671241E-03
   268  7.891758955E-04
   269  5.703411851E-03
   270  3.005549206E-02
   271  4.074743081E-02
   272  1.314993845E-02
   273 -3.284749442E-03
   274 -2.269193698E-03
   275 -3.991084786E-04
   276 -1.893872248E-02
   277 -8.214108257E-02
   278 -1.063285106E-01
   279 -2.678983928E-02
   280  7.649871671E-04
   281  4.164082452E-03
   282 -3.079270100E-03
   283  5.630765950E-02
   284 -2.496977289E-02
   285 -3.443572251E-02
   286 -1.453281643E-02
   287 -3.169414581E-04
   288  5.203445874E-04
   289 -2.150768623E-03
   290  8.199874255E-03
   291 -8.790408019E-03
   292 -1.407338627E-02
   293 -1.807813854E-02
   294  7.196965915E-04
   295 -3.288770275E-03
   296 -1.444041172E-03
   297 -2.282910744E-02
   298 -3.734367695E-02
   299 -5.331176112E-02
   300 -3.435097706E-02
   301  1.826230099E-03
   302  5.378106419E-04
   303  1.685865161E-03
   304 -1.350159489E-02
   305 -3.859059758E-02
   306 -4.995872670E-02
   307 -1.261348294E-02
   308 -1.990321621E-03
   309  2.712691529E-04
   310  1.423705461E-03
   311  2.673777020E-02
   312  5.173324174E-02
   313  7.140160016E-02
   314  2.997581343E-02
   315 -5.371676006E-05
   316  8.342076571E-04
   317 -4.478564969E-03
   318 -1.667310088E-02
   319  4.701439832E-02
   320  6.558396960E-02
   321  3.173166183E-02
   322  1.436949802E-03
   323  2.545623080E-03
   324 -7.892190247E-04
   325 -5.786657191E-03
   326 -3.005584794E-02
   327 -4.074918534E-02
   328 -1.312540041E-02
   329 -3.284719117E-03
   330 -2.269046852E-03
   331  3.990387237E-04
   332  1.893183526E-02
Ene=   -3.8960269752E-01
Spin= Alpha
Occup=   2.0000000
     1 -8.273314577E-03
     2 -1.290998392E-02
     3  7.838788983E-02
     4 -1.851049220E-02
     5 -6.480810739E-02
     6  3.408114167E-02
     7  1.118220861E-01
     8 -2.683758911E-02
     9 -9.314264641E-02
    10  5.509985147E-02
    11  1.191821781E-01
    12 -2.178082442E-02
    13 -8.836438094E-02
    14 -2.129657025E-04
    15  4.682383785E-03
    16  5.213763526E-03
    17 -1.092417552E-02
    18  3.947309051E-03
    19  2.500704484E-01
    20  1.138834715E-01
    21 -2.586290389E-02
    22 -9.342248544E-02
    23 -1.587403494E-02
    24 -2.511611831E-02
    25  6.647708017E-02
    26  3.474384090E-02
    27  1.601409718E-02
    28  7.355897641E-02
    29  9.656664616E-02
    30  5.058107410E-02
    31  2.228275846E-02
    32  4.031985477E-02
    33  5.810884861E-02
    34  2.206888145E-02
    35  1.495209221E-02
    36 -3.808131840E-03
    37 -1.598951081E-03
    38  1.929188898E-03
    39 -1.822890773E-03
    40  7.666677367E-03
    41 -1.233053553E-01
    42 -3.123964558E-02
    43 -2.604506594E-02
    44  7.428786915E-03
    45 -1.399544221E-06
    46 -2.196340034E-06
    47 -1.178649311E-02
    48  3.564613630E-02
    49 -6.526357645E-06
    50  5.573765931E-06
    51 -1.506185348E-02
    52  5.010035296E-02
    53 -9.275600823E-06
    54  1.688098305E-05
    55  6.431838049E-03
    56  3.779802027E-02
    57 -1.215932449E-05
    58  7.087815935E-07
    59  1.164518001E-02
    60  3.479802598E-03
    61  2.344612436E-07
    62 -1.549102541E-08
    63  7.963627302E-05
    64 -9.544411800E-03
    65  1.446628076E-02
    66 -6.916941307E-05
    67  3.848018996E-03
    68  6.002264626E-03
    69 -6.009405552E-03
    70  3.896363454E-02
    71 -3.080846295E-02
    72 -1.579534701E-02
    73 -9.522581287E-03
    74  5.573268076E-02
    75 -4.430715939E-02
    76 -2.585268582E-02
    77  4.418907305E-03
    78  5.683100909E-02
    79 -4.185809694E-02
    80  8.424229956E-05
    81 -1.277239522E-02
    82  3.302941420E-04
    83 -5.291652610E-03
    84  1.395267303E-03
    85 -1.149858160E-01
    86 -6.002325060E-03
    87  5.689850664E-02
    88 -4.317984947E-02
    89 -5.731528589E-03
    90 -9.069068130E-03
    91  3.787341929E-02
    92 -5.849491207E-03
    93  4.512952051E-02
    94  2.655277708E-02
    95  5.483591454E-02
    96 -8.671042573E-03
    97  6.288154578E-02
    98  1.475212745E-02
    99  4.693779772E-02
   100  6.781370320E-03
   101  4.160645944E-02
   102 -1.375369375E-03
   103 -9.190497023E-04
   104 -4.165708562E-04
   105 -1.169605047E-02
   106  1.380387444E-03
   107 -4.942204406E-02
   108 -3.180396060E-03
   109  1.729535450E-02
   110  1.946271230E-02
   111  1.399548569E-06
   112  2.198205722E-06
   113  6.643053449E-02
   114 -1.896889455E-02
   115 -6.600518397E-06
   116 -5.558604565E-06
   117  9.390470697E-02
   118 -2.595977544E-02
   119 -8.805807946E-06
   120 -1.474363182E-05
   121  7.844908779E-02
   122 -1.259948069E-02
   123 -1.153937331E-05
   124 -7.899922383E-07
   125 -1.183130172E-02
   126 -3.140180717E-03
   127  5.127245349E-08
   128  5.300956187E-08
   129  6.720867713E-04
   130  2.449291559E-02
   131 -9.331180485E-03
   132  1.472705892E-04
   133  8.272261640E-03
   134  1.290832241E-02
   135  7.837622123E-02
   136 -1.850847558E-02
   137  6.480184658E-02
   138 -3.407637124E-02
   139  1.118047770E-01
   140 -2.683404842E-02
   141  9.313418623E-02
   142 -5.509278312E-02
   143  1.191789171E-01
   144 -2.178638220E-02
   145  8.834626443E-02
   146  2.130745672E-04
   147  4.680589098E-03
   148  5.214238859E-03
   149  1.092475471E-02
   150 -3.947460571E-03
   151 -2.501284494E-01
   152  1.138133882E-01
   153 -2.602814827E-02
   154  9.345752499E-02
   155  1.587403638E-02
   156  2.511610346E-02
   157  6.648182150E-02
   158  3.473732270E-02
   159 -1.601885898E-02
   160 -7.355826602E-02
   161  9.657329344E-02
   162  5.057174228E-02
   163 -2.228963119E-02
   164 -4.032602781E-02
   165  5.811205996E-02
   166  2.206430964E-02
   167 -1.495675899E-02
   168  3.808337335E-03
   169 -1.600665842E-03
   170  1.927799913E-03
   171  1.822931369E-03
   172 -7.666580744E-03
   173  1.233788514E-01
   174 -3.119004822E-02
   175 -2.617034351E-02
   176 -7.298146077E-03
   177 -3.846959713E-03
   178 -6.000586696E-03
   179 -6.011125594E-03
   180  3.895176981E-02
   181  3.080233942E-02
   182  1.579032086E-02
   183 -9.525597708E-03
   184  5.571640794E-02
   185  4.429800292E-02
   186  2.584864456E-02
   187  4.425197399E-03
   188  5.681461016E-02
   189  4.185422053E-02
   190 -8.430763651E-05
   191 -1.277186923E-02
   192  3.321250670E-04
   193  5.292760483E-03
   194 -1.395609819E-03
   195  1.155084205E-01
   196 -5.944806428E-03
   197  5.668738581E-02
   198  4.348232177E-02
   199  5.731521535E-03
   200  9.069007863E-03
   201  3.787964470E-02
   202 -5.844808172E-03
   203 -4.513442004E-02
   204 -2.655151748E-02
   205  5.484498517E-02
   206 -8.665330641E-03
   207 -6.288849581E-02
   208 -1.476737318E-02
   209  4.694471166E-02
   210  6.783544298E-03
   211 -4.160933928E-02
   212  1.375418493E-03
   213 -9.204795962E-04
   214 -4.150912399E-04
   215  1.169586310E-02
   216 -1.380414234E-03
   217  4.813951427E-02
   218 -2.874308305E-03
   219  1.713615697E-02
   220 -1.943622941E-02
   221 -3.858554321E-02
   222 -4.995384616E-02
   223 -1.259794317E-02
   224 -2.712483714E-04
   225 -1.990175512E-03
   226 -1.423442896E-03
   227  2.663119963E-02
   228  5.173510717E-02
   229  7.140447625E-02
   230  2.998497770E-02
   231 -8.344608202E-04
   232 -5.369579086E-05
   233  4.478497647E-03
   234 -1.667757197E-02
   235  4.701759692E-02
   236  6.558803336E-02
   237  3.174300502E-02
   238 -2.545761358E-03
   239  1.437180012E-03
   240  7.893729937E-04
   241 -5.846628711E-03
   242 -3.005855557E-02
   243 -4.075834093E-02
   244 -1.308082309E-02
   245  2.269217046E-03
   246 -3.284999293E-03
   247 -3.988088128E-04
   248  1.900448512E-02
   249  8.213548290E-02
   250  1.063195791E-01
   251  2.679171833E-02
   252 -4.163833627E-03
   253  7.648872352E-04
   254 -3.078863565E-03
   255 -5.627461249E-02
   256  2.496743076E-02
   257  3.443244101E-02
   258  1.450599977E-02
   259 -5.202150155E-04
   260 -3.166714578E-04
   261 -2.150669092E-03
   262 -8.125604158E-03
   263  8.786827394E-03
   264  1.406824002E-02
   265  1.808853971E-02
   266  3.288853509E-03
   267  7.196341219E-04
   268 -1.443994035E-03
   269  2.276713598E-02
   270  3.734757464E-02
   271  5.331528987E-02
   272  3.437572029E-02
   273 -5.381766864E-04
   274  1.825933207E-03
   275  1.686098593E-03
   276  1.349205895E-02
   277  3.859580932E-02
   278  4.997131027E-02
   279  1.256923678E-02
   280 -2.713192482E-04
   281 -1.990711798E-03
   282  1.424023948E-03
   283 -2.664066084E-02
   284 -5.173158691E-02
   285 -7.139278126E-02
   286 -3.004692078E-02
   287 -8.338109393E-04
   288 -5.377945627E-05
   289 -4.478742917E-03
   290  1.672639081E-02
   291 -4.701058922E-02
   292 -6.558031131E-02
   293 -3.170123090E-02
   294 -2.545389713E-03
   295  1.436657449E-03
   296 -7.891477865E-04
   297  5.772705946E-03
   298  3.005221442E-02
   299  4.074485796E-02
   300  1.312880708E-02
   301  2.268983692E-03
   302 -3.284551930E-03
   303  3.990680519E-04
   304 -1.902006873E-02
   305 -8.214597219E-02
   306 -1.063350980E-01
   307 -2.678747230E-02
   308 -4.164292759E-03
   309  7.649806968E-04
   310  3.079466618E-03
   311  5.623171834E-02
   312 -2.497133291E-02
   313 -3.444040273E-02
   314 -1.450354303E-02
   315 -5.202326046E-04
   316 -3.171691358E-04
   317  2.150490731E-03
   318  8.190142339E-03
   319 -8.793810941E-03
   320 -1.407595320E-02
   321 -1.810319880E-02
   322  3.288433143E-03
   323  7.194483505E-04
   324  1.444101680E-03
   325 -2.277897755E-02
   326 -3.734072729E-02
   327 -5.330529392E-02
   328 -3.437314823E-02
   329 -5.377374920E-04
   330  1.826228512E-03
   331 -1.685729404E-03
   332 -1.344993169E-02
Ene=   -3.2827196885E-01
Spin= Alpha
Occup=   2.0000000
     1 -2.878979021E-06
     2 -5.072466958E-06
     3  4.752920370E-02
     4 -1.083822352E-02
     5  6.875856880E-02
     6  3.034464245E-05
     7  6.969677422E-02
     8 -1.597238644E-02
     9  1.008458933E-01
    10 -2.110844018E-04
    11  4.492862429E-02
    12 -1.073539432E-02
    13  6.522391020E-02
    14 -9.066679740E-03
    15  6.927420048E-03
    16 -6.823494779E-04
    17  9.347272948E-03
    18 -2.832155127E-03
    19  1.174989686E-04
    20  1.205699210E-02
    21 -2.867717766E-03
    22  1.778925683E-02
    23  6.152004065E-03
    24  9.769866017E-03
    25 -5.345744685E-02
    26 -3.236434115E-02
    27  1.465943071E-04
    28 -2.831050038E-02
    29 -7.766556623E-02
    30 -4.703790714E-02
    31  3.645719112E-04
    32 -3.586845140E-02
    33 -6.674467700E-02
    34 -4.076726096E-02
    35 -4.184364827E-04
    36  6.354532676E-03
    37  5.011900936E-03
    38 -5.882516859E-03
    39  2.080093352E-03
    40  4.983802773E-03
    41  3.104056246E-02
    42  4.559735918E-03
    43  4.589476606E-03
    44 -1.047579297E-03
    45 -1.233824576E-02
    46 -1.959351038E-02
    47  1.086858044E-07
    48  5.604308956E-07
    49 -1.245838126E-01
    50  5.677181759E-02
    51  7.959404977E-07
    52  5.950018697E-07
    53 -1.810342939E-01
    54  7.212368458E-02
    55 -1.052014979E-05
    56  2.487542591E-06
    57 -1.561591858E-01
    58 -2.968308476E-03
    59  3.610001399E-07
    60  2.086531616E-08
    61  1.461733954E-02
    62 -4.727765800E-03
    63 -6.463184546E-02
    64 -8.293367693E-05
    65  4.263409877E-05
    66  1.312967092E-02
    67 -2.869101068E-06
    68 -5.046357419E-06
    69 -1.083576279E-02
    70 -4.752944551E-02
    71 -6.875821942E-02
    72  2.971713310E-05
    73 -1.596941243E-02
    74 -6.969674883E-02
    75 -1.008454612E-01
    76 -2.019983914E-04
    77 -1.071995302E-02
    78 -4.493342393E-02
    79 -6.521814814E-02
    80 -9.066644257E-03
    81  6.831781177E-04
    82  6.927328103E-03
    83 -9.347204296E-03
    84  2.831798042E-03
    85  8.659215009E-04
    86 -2.671596668E-03
    87 -1.229942768E-02
    88 -1.776646716E-02
    89  6.152278172E-03
    90  9.770359707E-03
    91 -3.236595352E-02
    92  5.345958260E-02
    93 -1.463330579E-04
    94 -2.831325863E-02
    95 -4.703960446E-02
    96  7.766837557E-02
    97 -3.650547234E-04
    98 -3.585445334E-02
    99 -4.077480053E-02
   100  6.673876667E-02
   101  4.268930159E-04
   102  6.354452965E-03
   103  5.882653838E-03
   104  5.011690611E-03
   105 -2.080298749E-03
   106 -4.983712139E-03
   107  3.236779187E-02
   108  4.814192151E-03
   109 -4.788086604E-03
   110  1.106291603E-03
   111 -1.233826276E-02
   112 -1.959353316E-02
   113 -1.270342241E-07
   114 -5.329664724E-07
   115  1.245838065E-01
   116  5.677129234E-02
   117 -7.955847076E-07
   118 -7.694222415E-07
   119  1.810338810E-01
   120  7.213312431E-02
   121  2.522959065E-06
   122  5.305162575E-07
   123  1.561642279E-01
   124 -2.968264676E-03
   125  5.490842001E-08
   126  4.743801658E-09
   127 -1.461722539E-02
   128  4.727729640E-03
   129 -6.512919028E-02
   130  6.753236441E-05
   131  1.874440279E-05
   132 -1.321227060E-02
   133 -2.878853698E-06
   134 -5.013774733E-06
   135 -4.752937739E-02
   136  1.083766866E-02
   137  6.875872165E-02
   138  2.812515013E-05
   139 -6.969659939E-02
   140  1.597150220E-02
   141  1.008463363E-01
   142 -1.857852319E-04
   143 -4.494078789E-02
   144  1.073658554E-02
   145  6.521321085E-02
   146 -9.066587199E-03
   147 -6.927759072E-03
   148  6.825693973E-04
   149  9.346879238E-03
   150 -2.832049306E-03
   151  2.055604013E-03
   152 -1.239490584E-02
   153  2.812528019E-03
   154  1.757741101E-02
   155  6.152002024E-03
   156  9.769798500E-03
   157  5.345737542E-02
   158  3.236443790E-02
   159  1.454434506E-04
   160 -2.830852951E-02
   161  7.766518363E-02
   162  4.703814579E-02
   163  3.643452515E-04
   164 -3.589225867E-02
   165  6.674968891E-02
   166  4.077907382E-02
   167 -4.334412318E-04
   168  6.354563065E-03
   169 -5.011667802E-03
   170  5.882803434E-03
   171  2.080378884E-03
   172  4.983518712E-03
   173  3.053381936E-02
   174 -4.426730360E-03
   175 -4.565222184E-03
   176 -1.170098960E-03
   177 -2.876126038E-06
   178 -5.039061782E-06
   179  1.083595318E-02
   180  4.752984925E-02
   181 -6.875897346E-02
   182  2.900198497E-05
   183  1.596990410E-02
   184  6.969733438E-02
   185 -1.008467507E-01
   186 -1.921497926E-04
   187  1.072204959E-02
   188  4.493435810E-02
   189 -6.521668503E-02
   190 -9.066587805E-03
   191 -6.829363884E-04
   192 -6.927411805E-03
   193 -9.347189261E-03
   194  2.831909432E-03
   195  1.264817720E-03
   196  2.667165140E-03
   197  1.240015034E-02
   198 -1.776405696E-02
   199  6.152268327E-03
   200  9.770238735E-03
   201  3.236590890E-02
   202 -5.345952378E-02
   203 -1.457436285E-04
   204 -2.831020148E-02
   205  4.704011602E-02
   206 -7.766831207E-02
   207 -3.639098410E-04
   208 -3.588787345E-02
   209  4.077607381E-02
   210 -6.675277282E-02
   211  4.226057943E-04
   212  6.354646801E-03
   213 -5.882750061E-03
   214 -5.012047737E-03
   215 -2.080142795E-03
   216 -4.983619117E-03
   217  3.113950056E-02
   218 -4.732146408E-03
   219  4.525503226E-03
   220  1.010946467E-03
   221 -9.060447620E-05
   222 -1.179228181E-04
   223 -1.206374828E-04
   224  5.933986116E-04
   225  2.500435056E-03
   226 -3.635934320E-03
   227 -1.321189383E-04
   228 -5.685115780E-02
   229 -8.593934923E-02
   230 -4.252410655E-02
   231  6.220538852E-03
   232 -1.019719490E-03
   233  2.931643761E-03
   234 -1.726955471E-02
   235  2.562113876E-02
   236  3.902537383E-02
   237  1.921547455E-02
   238 -9.650879403E-04
   239 -2.739724013E-03
   240  1.957334997E-03
   241  9.308595128E-03
   242  3.125875285E-02
   243  4.696427189E-02
   244  2.349195313E-02
   245  2.539208509E-03
   246  2.679413262E-04
   247 -2.356960717E-03
   248  8.151574990E-03
   249 -9.087421439E-05
   250 -1.145796642E-04
   251 -1.464307452E-04
   252 -2.500482726E-03
   253  5.934166292E-04
   254  3.635769204E-03
   255 -8.656364550E-05
   256 -5.685079006E-02
   257 -8.593696813E-02
   258 -4.253748994E-02
   259  1.019740507E-03
   260  6.220450093E-03
   261 -2.931728325E-03
   262 -1.724978970E-02
   263  2.562013091E-02
   264  3.902153153E-02
   265  1.924972975E-02
   266  2.739568290E-03
   267 -9.650464914E-04
   268 -1.957214776E-03
   269  9.303572692E-03
   270  3.125764101E-02
   271  4.696253323E-02
   272  2.350135291E-02
   273 -2.680071486E-04
   274  2.539075413E-03
   275  2.356820826E-03
   276  8.057356126E-03
   277 -9.069955051E-05
   278 -1.176716865E-04
   279 -1.181941931E-04
   280 -5.934097298E-04
   281 -2.500446698E-03
   282 -3.635867305E-03
   283 -1.351007506E-04
   284 -5.685086171E-02
   285 -8.594047233E-02
   286 -4.250515632E-02
   287 -6.220611926E-03
   288  1.019605333E-03
   289  2.931707852E-03
   290 -1.720601544E-02
   291  2.562120074E-02
   292  3.902763170E-02
   293  1.919324253E-02
   294  9.649916370E-04
   295  2.739859918E-03
   296  1.957293324E-03
   297  9.301566455E-03
   298  3.125819097E-02
   299  4.696574055E-02
   300  2.347113820E-02
   301 -2.539305229E-03
   302 -2.677495855E-04
   303 -2.356973109E-03
   304  8.146519783E-03
   305 -9.061308865E-05
   306 -1.178785773E-04
   307 -1.103849862E-04
   308  2.500373738E-03
   309 -5.934685272E-04
   310  3.635785209E-03
   311 -1.749220071E-04
   312 -5.685165361E-02
   313 -8.593864381E-02
   314 -4.253339576E-02
   315 -1.019646182E-03
   316 -6.220541917E-03
   317 -2.931688449E-03
   318 -1.723068941E-02
   319  2.562038916E-02
   320  3.902381330E-02
   321  1.923381152E-02
   322 -2.739611461E-03
   323  9.649789854E-04
   324 -1.957287950E-03
   325  9.233249832E-03
   326  3.125729987E-02
   327  4.696033725E-02
   328  2.352350693E-02
   329  2.679155691E-04
   330 -2.539116587E-03
   331  2.356721682E-03
   332  8.131127509E-03
Ene=   -3.2775561867E-01
Spin= Alpha
Occup=   2.0000000
     1  3.714055200E-05
     2  5.960179717E-05
     3 -1.407845745E-02
     4 -8.320335397E-02
     5 -6.710527042E-05
     6 -1.835332753E-04
     7 -2.065352753E-02
     8 -1.220461919E-01
     9 -8.535913491E-05
    10  1.361077620E-05
    11 -1.343937234E-02
    12 -7.906974788E-02
    13 -1.993563378E-05
    14 -1.648415640E-05
    15  1.956071200E-03
    16  1.183379312E-02
    17 -2.990805326E-03
    18 -8.536866781E-03
    19 -1.862543288E-03
    20 -3.730225245E-03
    21 -2.122154256E-02
    22  4.888184490E-04
    23 -1.073112415E-02
    24 -1.704298900E-02
    25  8.778469267E-02
    26  6.289931539E-02
    27 -1.811626200E-05
    28  4.939736169E-02
    29  1.275698565E-01
    30  9.142998025E-02
    31 -6.108245513E-05
    32  6.263041205E-02
    33  1.101268466E-01
    34  7.884396821E-02
    35 -4.586161475E-05
    36  5.454378341E-03
    37 -7.815620294E-03
    38  1.080699693E-02
    39 -6.830559533E-05
    40  1.718716998E-04
    41 -5.428538069E-02
    42 -9.020221634E-03
    43 -6.197530885E-03
    44  2.107568535E-04
    45  4.633592605E-05
    46  7.247233746E-05
    47 -6.500208196E-07
    48  4.122299160E-08
    49  4.189890020E-04
    50 -1.803329906E-04
    51 -8.566208332E-07
    52  3.650630285E-07
    53  6.017087170E-04
    54 -4.769501144E-04
    55 -8.672996006E-07
    56 -6.780945194E-07
    57  6.625002287E-04
    58  2.666757220E-07
    59  7.909276612E-08
    61  3.051850661E-03
    62  9.007579178E-03
    63  1.518696982E-04
    64 -7.560988052E-05
    65 -2.336270093E-05
    66 -2.243508550E-04
    67 -3.716897704E-05
    68 -5.962818197E-05
    69  8.320405635E-02
    70 -1.407793090E-02
    71 -6.579880257E-05
    72  1.834431300E-04
    73  1.220474516E-01
    74 -2.065249187E-02
    75 -8.315643486E-05
    76 -1.462314759E-05
    77  7.906903181E-02
    78 -1.343911551E-02
    79 -2.776842757E-05
    80  1.670731419E-05
    81  1.183376442E-02
    82 -1.956383282E-03
    83 -2.990986193E-03
    84 -8.536698599E-03
    85  8.924226692E-04
    86  2.119808479E-02
    87 -3.602443469E-03
    88  3.482344757E-04
    89  1.073099176E-02
    90  1.704282187E-02
    91 -6.289936140E-02
    92  8.778282960E-02
    93 -1.810678648E-05
    94 -4.939799277E-02
    95 -9.143044657E-02
    96  1.275670371E-01
    97 -6.041481391E-05
    98 -6.261593262E-02
    99 -7.883691254E-02
   100  1.101229503E-01
   101 -5.010884913E-05
   102 -5.454634870E-03
   103  1.080684033E-02
   104  7.815523026E-03
   105 -6.808828418E-05
   106  1.718979809E-04
   107  5.466186040E-02
   108  6.269387837E-03
   109 -9.092058445E-03
   110  1.803393772E-04
   111 -4.604366500E-05
   112 -7.200759184E-05
   113  4.219693294E-07
   114  9.237250834E-08
   115  4.161045770E-04
   116  1.789793404E-04
   117  7.158375408E-07
   118 -5.098856311E-07
   119  5.972001700E-04
   120  4.741793855E-04
   121  5.724542731E-08
   122  7.354514863E-06
   123  6.584673775E-04
   124 -1.246206167E-07
   125 -8.164563109E-08
   126  2.251948644E-07
   127  3.052386038E-03
   128  9.007502637E-03
   129 -6.549519175E-04
   130 -2.275126577E-05
   131  5.222302153E-05
   132 -3.666279715E-04
   133  3.717527720E-05
   134  5.965083441E-05
   135  1.407924772E-02
   136  8.320319707E-02
   137 -6.763756200E-05
   138 -1.834106494E-04
   139  2.065461791E-02
   140  1.220460798E-01
   141 -8.620644445E-05
   142  9.964748051E-06
   143  1.343823416E-02
   144  7.906878779E-02
   145 -2.341837498E-05
   146 -1.658333947E-05
   147 -1.956100326E-03
   148 -1.183368649E-02
   149 -2.990975912E-03
   150 -8.536729841E-03
   151 -1.570299491E-03
   152  3.626306376E-03
   153  2.124414629E-02
   154  5.656643232E-04
   155 -1.073112588E-02
   156 -1.704295543E-02
   157 -8.778470472E-02
   158 -6.289922279E-02
   159 -1.762076158E-05
   160  4.939645781E-02
   161 -1.275701959E-01
   162 -9.143001077E-02
   163 -5.915272847E-05
   164  6.264098698E-02
   165 -1.101311860E-01
   166 -7.884168026E-02
   167 -5.238494312E-05
   168  5.454344495E-03
   169  7.815988927E-03
   170 -1.080688009E-02
   171 -6.831181608E-05
   172  1.719001660E-04
   173 -5.362985922E-02
   174  8.924862786E-03
   175  6.085841258E-03
   176  8.711315867E-05
   177 -3.716516512E-05
   178 -5.961691463E-05
   179 -8.320437229E-02
   180  1.407784601E-02
   181 -6.576990459E-05
   182  1.828730956E-04
   183 -1.220478886E-01
   184  2.065214637E-02
   185 -8.319097565E-05
   186 -4.879450499E-06
   187 -7.906781109E-02
   188  1.344571820E-02
   189 -2.318572901E-05
   190  1.673989429E-05
   191 -1.183386200E-02
   192  1.956154669E-03
   193 -2.990739949E-03
   194 -8.536701056E-03
   195  2.174452291E-03
   196 -2.119310208E-02
   197  3.830005062E-03
   198  5.072176589E-04
   199  1.073100236E-02
   200  1.704279331E-02
   201  6.289933941E-02
   202 -8.778281741E-02
   203 -1.748296943E-05
   204 -4.939661764E-02
   205  9.143016276E-02
   206 -1.275671120E-01
   207 -5.993433279E-05
   208 -6.263469566E-02
   209  7.884438629E-02
   210 -1.101281049E-01
   211 -4.472234914E-05
   212 -5.454596412E-03
   213 -1.080687170E-02
   214 -7.815523560E-03
   215 -6.822239281E-05
   216  1.721209281E-04
   217  5.412425146E-02
   218 -6.155955559E-03
   219  8.995802230E-03
   220  2.031911831E-04
   221 -1.487276193E-05
   222  3.884416370E-05
   223  8.525074320E-06
   224 -4.395084582E-03
   225  7.499467231E-04
   226  2.037216097E-06
   227  1.880688056E-04
   228 -1.754215840E-04
   229 -2.594685925E-04
   230 -9.647290239E-05
   231  4.389209398E-05
   232  1.061309962E-04
   233  1.303014086E-05
   234 -1.604687767E-04
   235  4.890401536E-02
   236  7.396535047E-02
   237  3.673631423E-02
   238 -1.572709191E-03
   239 -4.331062562E-03
   240  3.881132377E-03
   241  1.499805805E-02
   242  4.963398091E-02
   243  7.498784291E-02
   244  3.735782391E-02
   245  4.588743655E-03
   246  2.037351298E-04
   247 -3.894730994E-03
   248  1.491423796E-02
   249  1.492803578E-05
   250 -3.684033701E-05
   251 -1.855280414E-05
   252  7.499316082E-04
   253  4.394984227E-03
   254  1.839749353E-06
   255 -1.320936843E-04
   256  1.772664241E-04
   257  2.598286371E-04
   258  1.291827307E-04
   259  1.060629530E-04
   260 -4.397145845E-05
   261  1.304530857E-05
   262  1.614704588E-04
   263 -4.890406732E-02
   264 -7.396557451E-02
   265 -3.674296369E-02
   266 -4.331144344E-03
   267  1.572785159E-03
   268  3.881253786E-03
   269 -1.493932890E-02
   270 -4.963560788E-02
   271 -7.498765503E-02
   272 -3.739372675E-02
   273  2.037947659E-04
   274 -4.588727200E-03
   275 -3.894814756E-03
   276 -1.496131912E-02
   277 -1.477714352E-05
   278  3.654114162E-05
   279  3.040829567E-05
   280  4.395044230E-03
   281 -7.498336348E-04
   282  1.941948215E-06
   283  1.189378180E-04
   284 -1.761547320E-04
   285 -2.595504224E-04
   286 -1.069737619E-04
   287 -4.392269695E-05
   288 -1.061723499E-04
   289  1.300879383E-05
   290 -2.074327576E-04
   291  4.890435271E-02
   292  7.396591666E-02
   293  3.673969287E-02
   294  1.572661721E-03
   295  4.331041483E-03
   296  3.881143974E-03
   297  1.501250002E-02
   298  4.963361993E-02
   299  7.498769913E-02
   300  3.736063513E-02
   301 -4.588784426E-03
   302 -2.036884556E-04
   303 -3.894714088E-03
   304  1.492387907E-02
   305  1.480303016E-05
   306 -3.948542307E-05
   307 -7.642947558E-06
   308 -7.500823666E-04
   309 -4.394954027E-03
   310  1.969357092E-06
   311 -1.527734150E-04
   312  1.772137257E-04
   313  2.609188584E-04
   314  1.197386538E-04
   315 -1.062250082E-04
   316  4.402832623E-05
   317  1.301681995E-05
   318  1.334764613E-04
   319 -4.890448218E-02
   320 -7.396547395E-02
   321 -3.674481243E-02
   322  4.331159187E-03
   323 -1.572698867E-03
   324  3.881163158E-03
   325 -1.499970272E-02
   326 -4.963490941E-02
   327 -7.498987509E-02
   328 -3.736389363E-02
   329 -2.037848292E-04
   330  4.588783527E-03
   331 -3.894868017E-03
   332 -1.491039414E-02
Ene=   -3.2421731109E-01
Spin= Alpha
Occup=   2.0000000
     1  1.350703783E-05
     2  2.060782773E-05
     3  1.376571307E-02
     4  7.033628616E-02
     5  3.074317028E-03
     6 -4.019964566E-05
     7  2.048071975E-02
     8  1.048564496E-01
     9  4.492524224E-03
    10 -5.269843414E-04
    11  1.480123589E-02
    12  7.814760461E-02
    13  3.117846698E-03
    14 -3.411791980E-04
    15 -1.490438278E-03
    16 -1.088490760E-02
    17 -2.245292730E-03
    18 -8.050462813E-03
    19 -7.674922331E-04
    20  2.839924339E-03
    21  1.333306990E-02
    22  1.440324557E-03
    23  2.999136880E-04
    24  4.765706906E-04
    25  6.201374113E-02
    26 -9.128599956E-02
    27 -3.655227202E-03
    28 -1.417388696E-03
    29  8.997675648E-02
    30 -1.324812783E-01
    31 -8.551372590E-03
    32 -1.250344590E-03
    33  7.374320358E-02
    34 -1.084123251E-01
    35  7.904114564E-03
    36  3.861211194E-04
    37 -1.092562535E-02
    38 -8.347474717E-03
    39 -6.579518470E-03
    40  2.406777859E-03
    41  3.569635096E-03
    42  1.387611185E-02
    43 -1.770320041E-02
    44  1.732727880E-02
    45 -5.066963581E-04
    46 -8.031944990E-04
    47  3.529525957E-06
    48 -1.823250847E-06
    49 -5.497374405E-03
    50  2.297554053E-03
    51  5.452020031E-06
    52 -2.673730912E-06
    53 -7.960344124E-03
    54  3.378698434E-03
    55  1.624172293E-06
    56 -1.872406839E-06
    57 -7.151227107E-03
    58 -1.535825668E-04
    59 -2.095700442E-07
    60 -1.646048148E-07
    61 -1.834837233E-03
    62 -7.314075754E-03
    63 -5.258554101E-03
    64  6.393216069E-05
    65 -2.685888567E-05
    66  1.067602048E-03
    67  1.351576607E-05
    68  2.061716374E-05
    69  7.033631550E-02
    70 -1.376785800E-02
    71 -3.077634111E-03
    72 -4.013936567E-05
    73  1.048561164E-01
    74 -2.048395897E-02
    75 -4.497236772E-03
    76 -5.245322187E-04
    77  7.815187454E-02
    78 -1.480317247E-02
    79 -3.122117669E-03
    80 -3.406628268E-04
    81  1.088507937E-02
    82 -1.490191279E-03
    83  2.244971051E-03
    84  8.050857597E-03
    85 -5.353478226E-04
    86  1.346079470E-02
    87 -2.888434914E-03
    88 -1.389962196E-03
    89  2.998015690E-04
    90  4.763572119E-04
    91 -9.128546069E-02
    92 -6.201462955E-02
    93  3.660672214E-03
    94 -1.415760696E-03
    95 -1.324806616E-01
    96 -8.997847621E-02
    97  8.559392667E-03
    98 -1.261844221E-03
    99 -1.084113288E-01
   100 -7.373695155E-02
   101 -7.899953386E-03
   102  3.864052865E-04
   103  8.347101935E-03
   104 -1.092531052E-02
   105  6.578999649E-03
   106 -2.406574497E-03
   107  3.414822598E-03
   108 -1.768168687E-02
   109 -1.383744649E-02
   110 -1.736983687E-02
   111 -5.066997730E-04
   112 -8.031473882E-04
   113 -3.447131195E-06
   114  1.734494321E-06
   115  5.497366954E-03
   116  2.295982419E-03
   117 -5.013538137E-06
   118  3.113545885E-06
   119  7.960606966E-03
   120  3.397184302E-03
   121 -3.142463527E-06
   122 -6.493828545E-06
   123  7.157225199E-03
   124 -1.534585378E-04
   125  6.840218202E-07
   126 -2.787503925E-07
   127  1.834687164E-03
   128  7.313918746E-03
   129 -4.671787849E-03
   130 -5.528410407E-06
   131 -1.037844334E-04
   132 -9.330278345E-04
   133  1.352256431E-05
   134  2.062103024E-05
   135 -1.376870385E-02
   136 -7.033457703E-02
   137  3.079300020E-03
   138 -4.011026860E-05
   139 -2.048498698E-02
   140 -1.048538364E-01
   141  4.499878918E-03
   142 -5.251546936E-04
   143 -1.480570948E-02
   144 -7.814625054E-02
   145  3.125432918E-03
   146 -3.404441446E-04
   147  1.489898026E-03
   148  1.088470665E-02
   149 -2.244493111E-03
   150 -8.050710902E-03
   151 -5.991943194E-04
   152 -2.818736524E-03
   153 -1.328076736E-02
   154  1.275556431E-03
   155  2.999316837E-04
   156  4.765408785E-04
   157 -6.201382282E-02
   158  9.128605953E-02
   159 -3.658727489E-03
   160 -1.416169917E-03
   161 -8.997635333E-02
   162  1.324813378E-01
   163 -8.557682877E-03
   164 -1.263548753E-03
   165 -7.373801187E-02
   166  1.084127192E-01
   167  7.908041743E-03
   168  3.865931567E-04
   169  1.092509532E-02
   170  8.347356496E-03
   171 -6.579124727E-03
   172  2.406768961E-03
   173  2.489978530E-03
   174 -1.374698755E-02
   175  1.788951440E-02
   176  1.746516452E-02
   177  1.350226175E-05
   178  2.056390016E-05
   179 -7.033302881E-02
   180  1.376629620E-02
   181 -3.076011129E-03
   182 -3.880034989E-05
   183 -1.048509552E-01
   184  2.048172468E-02
   185 -4.494731685E-03
   186 -5.419000199E-04
   187 -7.815377235E-02
   188  1.479531716E-02
   189 -3.125293597E-03
   190 -3.409003699E-04
   191 -1.088453716E-02
   192  1.490466533E-03
   193  2.244833183E-03
   194  8.050455874E-03
   195 -1.963059967E-03
   196 -1.338809326E-02
   197  2.576086427E-03
   198 -1.460239601E-03
   199  2.998245440E-04
   200  4.764332089E-04
   201  9.128526078E-02
   202  6.201449526E-02
   203  3.653300181E-03
   204 -1.417370581E-03
   205  1.324805501E-01
   206  8.997804963E-02
   207  8.549742040E-03
   208 -1.242453790E-03
   209  1.084023364E-01
   210  7.374171489E-02
   211 -7.919686921E-03
   212  3.865413141E-04
   213 -8.347172400E-03
   214  1.092549073E-02
   215  6.579949937E-03
   216 -2.407080193E-03
   217  3.658086477E-03
   218  1.767865548E-02
   219  1.393890086E-02
   220 -1.741992562E-02
   221  1.642556594E-04
   222  2.375447201E-04
   223  7.268522832E-05
   224 -4.362678666E-03
   225  8.566356532E-04
   226 -1.501756513E-04
   227 -1.297472289E-04
   228 -2.520987271E-03
   229 -3.828577782E-03
   230 -1.761823092E-03
   231  2.022210473E-04
   232 -6.282210344E-04
   233  1.315509071E-04
   234 -8.763203409E-04
   235  6.090657669E-02
   236  8.619986684E-02
   237  4.806114023E-02
   238 -5.768148997E-04
   239  4.256625582E-03
   240  4.647126149E-03
   241 -7.570357440E-03
   242 -5.825585088E-02
   243 -8.221343597E-02
   244 -4.589533241E-02
   245  4.131992977E-03
   246 -1.930809219E-03
   247  4.421577655E-03
   248  8.618922122E-03
   249  1.643487631E-04
   250  2.385981808E-04
   251  5.673245919E-05
   252 -8.567873908E-04
   253 -4.362842595E-03
   254  1.502962332E-04
   255 -5.795315691E-05
   256 -2.518873501E-03
   257 -3.826450206E-03
   258 -1.746342250E-03
   259  6.286108846E-04
   260  2.020431936E-04
   261 -1.317851472E-04
   262 -8.537391194E-04
   263  6.090427107E-02
   264  8.619525206E-02
   265  4.807580977E-02
   266 -4.256569868E-03
   267 -5.766479054E-04
   268 -4.647220333E-03
   269 -7.624541162E-03
   270 -5.825214675E-02
   271 -8.221152752E-02
   272 -4.585758360E-02
   273  1.930499819E-03
   274  4.131946829E-03
   275 -4.421665399E-03
   276  8.622052711E-03
   277  1.641820784E-04
   278  2.394222079E-04
   279  4.512744855E-05
   280  4.363034750E-03
   281 -8.567693569E-04
   282 -1.502280178E-04
   283 -6.895835671E-05
   284 -2.515069182E-03
   285 -3.820365515E-03
   286 -1.749105112E-03
   287 -2.019884406E-04
   288  6.284267315E-04
   289  1.319530965E-04
   290 -8.448405771E-04
   291  6.090273042E-02
   292  8.619418264E-02
   293  4.806384896E-02
   294  5.765827765E-04
   295 -4.256585870E-03
   296  4.647203704E-03
   297 -7.524068257E-03
   298 -5.825210675E-02
   299 -8.220623799E-02
   300 -4.591139847E-02
   301 -4.132007067E-03
   302  1.930359961E-03
   303  4.421616985E-03
   304  8.561927464E-03
   305  1.640377201E-04
   306  2.393169280E-04
   307  4.906075216E-05
   308  8.566150185E-04
   309  4.362988276E-03
   310  1.500662813E-04
   311 -6.871238484E-05
   312 -2.516975723E-03
   313 -3.823301127E-03
   314 -1.748716238E-03
   315 -6.280684941E-04
   316 -2.020692515E-04
   317 -1.319082133E-04
   318 -8.781854580E-04
   319  6.090618681E-02
   320  8.619908776E-02
   321  4.807536415E-02
   322  4.256572084E-03
   323  5.768574735E-04
   324 -4.647098549E-03
   325 -7.556179296E-03
   326 -5.825453020E-02
   327 -8.221010381E-02
   328 -4.590053955E-02
   329 -1.930684171E-03
   330 -4.132032278E-03
   331 -4.421487878E-03
   332  8.545933336E-03
Ene=   -3.2413665821E-01
Spin= Alpha
Occup=   2.0000000
     1 -2.236834691E-05
     2 -3.537297131E-05
     3  3.642733813E-02
     4  3.494087829E-02
     5  4.272248752E-02
     6  1.084401113E-04
     7  5.430657210E-02
     8  5.209944785E-02
     9  6.366812327E-02
    10 -5.868259553E-05
    11  4.044589839E-02
    12  3.867721250E-02
    13  4.741228748E-02
    14  6.140132719E-03
    15  3.530143093E-03
    16 -6.882945623E-03
    17  4.683007237E-03
    18 -6.591849280E-03
    19 -8.572941329E-04
    20  6.635800595E-03
    21  6.396741144E-03
    22  8.303918570E-03
    23  2.739334008E-06
    24  3.870604267E-06
    25  2.062143888E-03
    26 -2.741504145E-03
    27 -1.092624349E-01
    28 -1.260551254E-05
    29  4.878426685E-03
    30 -6.589578255E-03
    31 -1.585782600E-01
    32  3.730482901E-05
    33 -4.598288188E-03
    34  6.634329768E-03
    35 -1.297715415E-01
    36 -9.603059909E-04
    37  5.482548618E-03
    38  4.119678327E-03
    39  1.274025833E-02
    40 -4.844458439E-03
    41  1.703755253E-03
    42 -9.721774018E-03
    43  1.392112432E-02
    44 -2.239393806E-02
    45 -7.667990511E-08
    46 -1.718237193E-07
    47 -8.119770551E-02
    48 -7.334700457E-02
    49 -6.541689193E-07
    50  1.908713687E-06
    51 -1.193237362E-01
    52 -1.035748385E-01
    53 -9.280407391E-07
    54 -1.685285359E-05
    55 -9.089200871E-02
    56 -9.787991577E-02
    57  5.657069965E-06
    58 -1.654574151E-07
    59  1.233194016E-03
    60 -1.709117699E-02
    61 -3.854428654E-09
    62 -1.356627977E-07
    63 -2.939632378E-04
    64 -8.291094660E-03
    65 -3.061179325E-02
    66  5.443643985E-05
    67  1.644911916E-05
    68  2.707789360E-05
    69 -3.689007713E-02
    70 -3.532207351E-02
    71 -5.757651280E-02
    72 -8.509359065E-05
    73 -5.497801752E-02
    74 -5.261374353E-02
    75 -8.584222730E-02
    76 -7.431783438E-05
    77 -4.104897323E-02
    78 -3.929756575E-02
    79 -6.388576967E-02
    80  8.200999188E-03
    81 -3.628116311E-03
    82  6.972421868E-03
    83 -9.442416220E-03
    84 -4.980661547E-04
    85  4.027345087E-03
    86 -7.005300852E-03
    87 -7.467044899E-03
    88 -1.008333270E-02
    89 -1.083084797E-05
    90 -1.616885001E-05
    91 -1.223629194E-04
    92 -1.747683524E-04
    93  1.579958384E-02
    94  3.756428085E-05
    95 -5.702629621E-04
    96 -5.070719978E-04
    97  2.289704081E-02
    98  9.779549306E-05
    99  1.265960788E-03
   100  7.656153563E-04
   101  1.896077935E-02
   102  6.433244351E-03
   103 -6.141962661E-04
   104  8.767045027E-04
   105 -3.089460652E-03
   106 -2.889157618E-03
   107 -1.096570461E-03
   108  1.787688130E-03
   109  1.691487394E-03
   110  3.590569533E-03
   111 -7.836647999E-08
   112 -7.747016879E-08
   113  7.804950207E-02
   114  7.984226757E-02
   115  6.328292461E-07
   116 -1.054015969E-06
   117  1.117700584E-01
   118  1.187657728E-01
   119  9.965934152E-07
   120  1.707523464E-05
   121  9.835984882E-02
   122  8.375282331E-02
   123  8.282163390E-06
   124  8.272533587E-08
   125 -1.132747463E-02
   126  7.478806351E-03
   127 -1.969750078E-07
   128  1.482376988E-07
   129  5.831926694E-04
   130  2.398852324E-02
   131 -4.018891156E-05
   132  1.443667205E-04
   133  2.237921704E-05
   134  3.542139274E-05
   135  3.642649947E-02
   136  3.493886832E-02
   137 -4.272186141E-02
   138 -1.098299397E-04
   139  5.430511487E-02
   140  5.209636943E-02
   141 -6.366666138E-02
   142  7.369505095E-05
   143  4.044072036E-02
   144  3.867723415E-02
   145 -4.742040422E-02
   146 -6.140269450E-03
   147  3.529742454E-03
   148 -6.882584456E-03
   149 -4.683204759E-03
   150  6.591778847E-03
   151  2.135520312E-03
   152  6.504953416E-03
   153  6.412726036E-03
   154 -8.521248406E-03
   155 -2.620329964E-06
   156 -3.719999154E-06
   157  2.061649827E-03
   158 -2.738662889E-03
   159  1.092623339E-01
   160  1.298189036E-05
   161  4.878380235E-03
   162 -6.586032254E-03
   163  1.585781399E-01
   164 -4.682640479E-05
   165 -4.604140410E-03
   166  6.647656773E-03
   167  1.297627638E-01
   168  9.604298133E-04
   169  5.482935799E-03
   170  4.120245479E-03
   171 -1.274007528E-02
   172  4.844494573E-03
   173 -2.128875882E-03
   174 -9.712976328E-03
   175  1.406000471E-02
   176  2.237502182E-02
   177 -1.643253005E-05
   178 -2.710179355E-05
   179 -3.689113346E-02
   180 -3.532142482E-02
   181  5.757576660E-02
   182  8.669174940E-05
   183 -5.497963038E-02
   184 -5.261228063E-02
   185  8.584144307E-02
   186  5.793238597E-05
   187 -4.105060183E-02
   188 -3.930951834E-02
   189  6.388395682E-02
   190 -8.200989145E-03
   191 -3.628209755E-03
   192  6.972696903E-03
   193  9.442530965E-03
   194  4.982782507E-04
   195 -4.869401117E-03
   196 -7.062870384E-03
   197 -7.640838725E-03
   198  1.001362862E-02
   199  1.082504380E-05
   200  1.611701946E-05
   201 -1.204129991E-04
   202 -1.734002773E-04
   203 -1.579946885E-02
   204 -3.637315941E-05
   205 -5.665819673E-04
   206 -5.045632990E-04
   207 -2.289678543E-02
   208 -1.084503729E-04
   209  1.260536545E-03
   210  7.597693795E-04
   211 -1.896721720E-02
   212 -6.433073826E-03
   213 -6.142521013E-04
   214  8.767319430E-04
   215  3.089883311E-03
   216  2.888916836E-03
   217  7.785694930E-04
   218  1.715931862E-03
   219  1.560448197E-03
   220 -3.626040918E-03
   221  2.614574084E-04
   222  3.810432024E-04
   223  2.966854544E-04
   224 -2.279612166E-03
   225 -2.161882207E-03
   226  3.585112848E-03
   227 -4.414040855E-04
   228  5.032788011E-02
   229  7.117454110E-02
   230  3.972213017E-02
   231 -5.082793502E-04
   232  5.534372456E-03
   233  3.289234241E-03
   234 -6.705788762E-03
   235  8.774604781E-03
   236  1.242099642E-02
   237  6.882667869E-03
   238 -1.195938760E-03
   239 -1.546931621E-04
   240 -7.006984125E-04
   241 -1.206523193E-03
   242 -8.667615293E-03
   243 -1.225449194E-02
   244 -6.799722937E-03
   245  1.586392003E-04
   246 -5.956716114E-04
   247  9.925267039E-05
   248  1.306458726E-03
   249 -5.947801216E-05
   250 -1.464533489E-04
   251 -1.515514400E-04
   252  2.265899131E-03
   253  2.160829913E-03
   254 -2.637973791E-03
   255  1.596447116E-04
   256 -6.764825933E-02
   257 -9.564947495E-02
   258 -5.348866654E-02
   259 -3.596141007E-03
   260  2.558985275E-03
   261  4.410587225E-03
   262  8.991930729E-03
   263  5.921753117E-02
   264  8.372813713E-02
   265  4.667955115E-02
   266 -5.261662360E-04
   267 -5.857340288E-03
   268  2.014561417E-03
   269 -7.902024137E-03
   270 -5.861308320E-02
   271 -8.285134117E-02
   272 -4.628072947E-02
   273  5.762475946E-03
   274 -1.429296561E-03
   275  2.241157987E-03
   276  7.993273770E-03
   277 -2.613036273E-04
   278 -3.824110772E-04
   279 -2.831801555E-04
   280 -2.279497377E-03
   281 -2.161978563E-03
   282 -3.585185871E-03
   283  3.765990237E-04
   284 -5.032864769E-02
   285 -7.117422978E-02
   286 -3.974144823E-02
   287 -5.083296758E-04
   288  5.534384175E-03
   289 -3.289435489E-03
   290  6.733811839E-03
   291 -8.773103554E-03
   292 -1.241994267E-02
   293 -6.861429425E-03
   294 -1.195887949E-03
   295 -1.548712696E-04
   296  7.008621134E-04
   297  1.242200227E-03
   298  8.666306348E-03
   299  1.225312304E-02
   300  6.797956203E-03
   301  1.584709784E-04
   302 -5.957194910E-04
   303 -9.921378892E-05
   304 -1.343045801E-03
   305  5.920624741E-05
   306  1.487498512E-04
   307  1.231489258E-04
   308  2.266022883E-03
   309  2.160945807E-03
   310  2.637987416E-03
   311 -1.235192157E-04
   312  6.764774999E-02
   313  9.564874738E-02
   314  5.348178265E-02
   315 -3.596160814E-03
   316  2.559014944E-03
   317 -4.410755077E-03
   318 -8.964994403E-03
   319 -5.921551526E-02
   320 -8.372574004E-02
   321 -4.667114438E-02
   322 -5.261736421E-04
   323 -5.857228912E-03
   324 -2.014684725E-03
   325  7.874178453E-03
   326  5.861248116E-02
   327  8.284890501E-02
   328  4.630114611E-02
   329  5.762451082E-03
   330 -1.429360196E-03
   331 -2.241154512E-03
   332 -7.970653892E-03
Ene=   -3.2413665522E-01
Spin= Alpha
Occup=   2.0000000
     1 -1.643057376E-05
     2 -2.709084646E-05
     3 -3.532216094E-02
     4  3.688786491E-02
     5 -5.757607565E-02
     6  8.653130617E-05
     7 -5.261362594E-02
     8  5.497491724E-02
     9 -8.584191848E-02
    10  5.830484529E-05
    11 -3.930483323E-02
    12  4.104678784E-02
    13 -6.388118412E-02
    14 -8.201027365E-03
    15 -6.972560465E-03
    16 -3.627909012E-03
    17 -9.442267537E-03
    18 -4.978828391E-04
    19 -4.880597464E-03
    20 -7.658039450E-03
    21  7.087846732E-03
    22 -1.006024037E-02
    23  1.080660667E-05
    24  1.619489845E-05
    25 -1.760947043E-04
    26  1.246073081E-04
    27  1.579958366E-02
    28 -3.932037148E-05
    29 -5.085193775E-04
    30  5.732205620E-04
    31  2.289787111E-02
    32 -7.457254845E-05
    33  7.697129485E-04
    34 -1.254928631E-03
    35  1.895688112E-02
    36 -6.433256621E-03
    37 -8.765788589E-04
    38 -6.138464785E-04
    39 -3.089272291E-03
    40 -2.889006489E-03
    41  1.855988111E-03
    42  1.799277560E-03
    43 -1.642323806E-03
    44  3.555278646E-03
    45 -1.468141901E-08
    46 -1.465811029E-08
    47  7.984226761E-02
    48 -7.804939177E-02
    49 -7.930510935E-08
    50 -1.719875916E-07
    51  1.187658097E-01
    52 -1.117709030E-01
    53 -3.015599224E-07
    54  1.819139843E-06
    55  8.375031165E-02
    56 -9.835517605E-02
    57 -1.733477899E-08
    58  3.642683762E-08
    59 -7.478699205E-03
    60 -1.132754344E-02
    61  1.190300671E-07
    62  2.430803391E-07
    63  2.495117619E-04
    64 -9.359848591E-05
    65 -2.387374581E-02
    66 -4.882609062E-05
    67 -2.235725829E-05
    68 -3.532571741E-05
    69  3.493766777E-02
    70 -3.642657791E-02
    71 -4.272224848E-02
    72  1.071542894E-04
    73  5.209474836E-02
    74 -5.430484232E-02
    75 -6.366790543E-02
    76 -4.253076809E-05
    77  3.867338279E-02
    78 -4.045406368E-02
    79 -4.740703915E-02
    80  6.140241527E-03
    81  6.882533979E-03
    82  3.530292848E-03
    83 -4.682914055E-03
    84  6.591370731E-03
    85  3.455954827E-04
    86  6.334924773E-03
    87 -6.924579559E-03
    88 -8.207934249E-03
    89  2.713619074E-06
    90  3.796594611E-06
    91 -2.737290014E-03
    92 -2.059438907E-03
    93  1.092623512E-01
    94 -1.156857721E-05
    95 -6.583646567E-03
    96 -4.874299503E-03
    97  1.585771644E-01
    98  2.522664648E-05
    99  6.632841431E-03
   100  4.602936037E-03
   101  1.297784004E-01
   102 -9.603125101E-04
   103 -4.119910605E-03
   104  5.482994992E-03
   105 -1.274065206E-02
   106  4.844772614E-03
   107  1.150888146E-03
   108  1.389864629E-02
   109  9.851395791E-03
   110  2.245684816E-02
   111 -1.870049705E-08
   112 -4.241490799E-08
   113 -7.334704413E-02
   114  8.119750026E-02
   115  9.761557852E-08
   116  3.251530829E-07
   117 -1.035748476E-01
   118  1.193249118E-01
   119 -5.322676364E-08
   120 -1.475595970E-06
   121 -9.788252128E-02
   122  9.087173439E-02
   123 -4.411222950E-07
   124 -2.565878956E-08
   125  1.709107532E-02
   126  1.232577324E-03
   127 -6.580703620E-09
   128 -2.383796706E-07
   129 -3.022243314E-04
   130 -3.061380213E-02
   131  8.159503229E-03
   132 -6.096805505E-05
   133  1.642303746E-05
   134  2.707406037E-05
   135 -3.532135228E-02
   136  3.689335787E-02
   137  5.757614502E-02
   138 -8.611974317E-05
   139 -5.261267600E-02
   140  5.498303672E-02
   141  8.584162515E-02
   142 -6.311822606E-05
   143 -3.930316690E-02
   144  4.105518122E-02
   145  6.388438392E-02
   146  8.200993098E-03
   147 -6.972759404E-03
   148 -3.628798332E-03
   149  9.442416746E-03
   150  4.983602207E-04
   151  4.700741518E-03
   152 -7.544850852E-03
   153  7.049945839E-03
   154  1.004319959E-02
   155 -1.087405695E-05
   156 -1.630698154E-05
   157 -1.721224672E-04
   158  1.180259469E-04
   159 -1.579923390E-02
   160  3.977653432E-05
   161 -5.029172828E-04
   162  5.638176727E-04
   163 -2.289716519E-02
   164  7.375359440E-05
   165  7.771271885E-04
   166 -1.265419345E-03
   167 -1.895653465E-02
   168  6.433265587E-03
   169 -8.773732002E-04
   170 -6.144712871E-04
   171  3.089676943E-03
   172  2.888880031E-03
   173 -1.910693626E-03
   174  1.791398678E-03
   175 -1.610172545E-03
   176 -3.561075341E-03
   177  2.238244436E-05
   178  3.537639576E-05
   179  3.494204519E-02
   180 -3.642724465E-02
   181  4.272210637E-02
   182 -1.077857759E-04
   183  5.210124213E-02
   184 -5.430603754E-02
   185  6.366740110E-02
   186  4.855808949E-05
   187  3.867757693E-02
   188 -4.045314102E-02
   189  4.740906387E-02
   190 -6.140261072E-03
   191  6.883174272E-03
   192  3.530187666E-03
   193  4.682639406E-03
   194 -6.591971839E-03
   195 -1.689243840E-04
   196  6.305808075E-03
   197 -6.796815065E-03
   198  8.172853983E-03
   199 -2.637479544E-06
   200 -3.664543186E-06
   201 -2.742922815E-03
   202 -2.064440476E-03
   203 -1.092626445E-01
   204  1.080314229E-05
   205 -6.592112150E-03
   206 -4.881902977E-03
   207 -1.585776085E-01
   208 -2.234547231E-05
   209  6.629880953E-03
   210  4.600736200E-03
   211 -1.297769346E-01
   212  9.602905812E-04
   213 -4.119461946E-03
   214  5.482205375E-03
   215  1.274008134E-02
   216 -4.844587676E-03
   217 -1.040089866E-03
   218  1.385264171E-02
   219  9.855397860E-03
   220 -2.253022405E-02
   221 -5.908808213E-05
   222 -1.504846489E-04
   223 -1.063143064E-04
   224  2.161011329E-03
   225 -2.266063080E-03
   226  2.637866106E-03
   227  6.290336787E-05
   228 -6.764799372E-02
   229 -9.565004976E-02
   230 -5.347830391E-02
   231  2.559049728E-03
   232  3.596271539E-03
   233 -4.410664799E-03
   234  8.969235076E-03
   235  5.921437006E-02
   236  8.372655417E-02
   237  4.664588104E-02
   238 -5.857185343E-03
   239  5.259231296E-04
   240 -2.014760268E-03
   241 -7.924130426E-03
   242 -5.861063126E-02
   243 -8.284662232E-02
   244 -4.629309985E-02
   245 -1.429393598E-03
   246 -5.762487062E-03
   247 -2.241266969E-03
   248  8.029225962E-03
   249 -2.616284115E-04
   250 -3.801606552E-04
   251 -3.072534023E-04
   252 -2.161923301E-03
   253  2.279720750E-03
   254  3.585131852E-03
   255  4.034512577E-04
   256 -5.032848958E-02
   257 -7.117273576E-02
   258 -3.975325869E-02
   259  5.534356939E-03
   260  5.082932671E-04
   261  3.289360050E-03
   262  6.665919285E-03
   263 -8.775912521E-03
   264 -1.242430295E-02
   265 -6.866534085E-03
   266 -1.547717008E-04
   267  1.195869300E-03
   268 -7.006876238E-04
   269  1.200928906E-03
   270  8.669079685E-03
   271  1.225484085E-02
   272  6.818856645E-03
   273 -5.959092762E-04
   274 -1.587479397E-04
   275  9.933084375E-05
   276 -1.304712586E-03
   277  5.920447831E-05
   278  1.496097409E-04
   279  1.127027863E-04
   280  2.160724403E-03
   281 -2.266005806E-03
   282 -2.637963845E-03
   283 -4.511340836E-05
   284  6.764807265E-02
   285  9.564830097E-02
   286  5.349552569E-02
   287  2.558946625E-03
   288  3.596251762E-03
   289  4.410719048E-03
   290 -8.974784677E-03
   291 -5.921816315E-02
   292 -8.373127979E-02
   293 -4.666006924E-02
   294 -5.857193770E-03
   295  5.263053560E-04
   296  2.014391329E-03
   297  7.908364040E-03
   298  5.861512964E-02
   299  8.285233600E-02
   300  4.630031246E-02
   301 -1.429117174E-03
   302 -5.762523586E-03
   303  2.240903256E-03
   304 -8.002576311E-03
   305  2.614291101E-04
   306  3.813889759E-04
   307  2.988769381E-04
   308 -2.161959096E-03
   309  2.279417684E-03
   310 -3.585224711E-03
   311 -4.272738543E-04
   312  5.032829416E-02
   313  7.117362909E-02
   314  3.973990074E-02
   315  5.534387014E-03
   316  5.082626527E-04
   317 -3.289311907E-03
   318 -6.662851707E-03
   319  8.771584094E-03
   320  1.241810075E-02
   321  6.866812000E-03
   322 -1.549993148E-04
   323  1.195806975E-03
   324  7.009812660E-04
   325 -1.202833688E-03
   326 -8.665274975E-03
   327 -1.224979341E-02
   328 -6.814954086E-03
   329 -5.957519908E-04
   330 -1.584565165E-04
   331 -9.910606522E-05
   332  1.303359848E-03
Ene=   -2.8021795955E-01
Spin= Alpha
Occup=   2.0000000
     1  3.546580718E-03
     2  5.646130484E-03
     3 -2.918015869E-03
     4  3.550844781E-04
     5  9.663431227E-02
     6 -1.567902214E-02
     7 -2.010989376E-03
     8  1.233252638E-04
     9  1.400802746E-01
    10 -4.272327726E-02
    11 -1.327535981E-02
    12  2.231591903E-03
    13  1.238658526E-01
    14  1.595823160E-03
    15 -5.413151236E-03
    16  9.876459681E-04
    17  1.710569425E-02
    18 -5.871481794E-03
    19 -4.604667468E-03
    20 -5.039381861E-03
    21  1.651579212E-03
    22  1.738468304E-02
    23 -5.173566961E-05
    24 -8.368310628E-05
    25  1.792647354E-02
    26 -2.483380709E-02
    27 -7.744405976E-02
    28  2.412280918E-04
    29  2.788912583E-02
    30 -3.863032854E-02
    31 -1.097861078E-01
    32  5.619554616E-04
    33  1.311742296E-02
    34 -1.803461324E-02
    35 -9.139827346E-02
    36 -9.280418048E-06
    37  1.404647433E-03
    38  1.144812945E-03
    39  1.505393947E-02
    40 -5.096743174E-03
    41  3.971750160E-03
    42  3.474479543E-03
    43 -3.194609263E-03
    44 -2.926808902E-06
    45 -7.267011539E-03
    46 -1.158117835E-02
    47 -1.216143884E-05
    48  3.490613295E-06
    49 -6.396859582E-02
    50  3.276116334E-02
    51 -1.743035615E-05
    52  5.098637388E-06
    53 -9.193046620E-02
    54  7.353698153E-02
    55 -1.782364903E-05
    56  2.640805284E-06
    57 -9.031825729E-02
    58 -7.148210575E-03
    59  1.899090246E-06
    60  2.734133873E-07
    61  1.520425356E-02
    62 -5.247641891E-03
    63 -5.719660967E-02
    64 -4.251915579E-05
    65 -1.377995627E-05
    66  3.590005587E-02
    67 -3.547343639E-03
    68 -5.647356951E-03
    69 -3.496474825E-04
    70 -2.933703462E-03
    71  9.663478909E-02
    72  1.568265834E-02
    73 -1.154350839E-04
    74 -2.034702550E-03
    75  1.400800933E-01
    76  4.273177305E-02
    77 -2.220240646E-03
    78 -1.328589423E-02
    79  1.238756396E-01
    80 -1.595645648E-03
    81  9.894586869E-04
    82  5.416072926E-03
    83  1.710679816E-02
    84 -5.871750421E-03
    85  4.979389658E-03
    86 -1.760870296E-03
    87 -4.977812451E-03
    88  1.748375415E-02
    89  5.292390817E-05
    90  8.556400785E-05
    91  2.483065731E-02
    92  1.793701202E-02
    93 -7.744534169E-02
    94 -2.467792842E-04
    95  3.862522916E-02
    96  2.790492433E-02
    97 -1.097885966E-01
    98 -5.685582832E-04
    99  1.803194693E-02
   100  1.312420231E-02
   101 -9.139616926E-02
   102  8.792477827E-06
   103  1.146743762E-03
   104 -1.402517196E-03
   105  1.505337456E-02
   106 -5.097866535E-03
   107 -4.868759584E-03
   108  3.120824114E-03
   109  3.628832667E-03
   110  5.849564906E-05
   111  7.267025041E-03
   112  1.158118192E-02
   113 -4.740121341E-06
   114  4.448680762E-06
   115 -6.396866763E-02
   116 -3.276076613E-02
   117 -6.642667110E-06
   118  6.653569115E-06
   119 -9.193016230E-02
   120 -7.353696254E-02
   121 -7.016006263E-06
   122  2.831793723E-06
   123 -9.031531044E-02
   124  7.148126645E-03
   125  2.148377235E-06
   126  1.682491960E-08
   127  1.520399980E-02
   128 -5.247542269E-03
   129  5.815230428E-02
   130  7.621705697E-05
   131 -1.325180957E-04
   132  3.618464311E-02
   133  3.547740268E-03
   134  5.648009898E-03
   135  2.939571534E-03
   136 -3.648916245E-04
   137  9.663499387E-02
   138 -1.568509356E-02
   139  2.042069463E-03
   140 -1.376452679E-04
   141  1.400806793E-01
   142 -4.273119859E-02
   143  1.329761610E-02
   144 -2.240129255E-03
   145  1.238624955E-01
   146  1.595633043E-03
   147  5.417971371E-03
   148 -9.876103824E-04
   149  1.710657134E-02
   150 -5.872012749E-03
   151 -3.784238737E-03
   152  4.961713455E-03
   153 -1.689337919E-03
   154  1.727871023E-02
   155 -5.259571385E-05
   156 -8.511839976E-05
   157 -1.794214833E-02
   158  2.484268652E-02
   159 -7.745041980E-02
   160  2.474315306E-04
   161 -2.791132929E-02
   162  3.864235917E-02
   163 -1.097967751E-01
   164  5.402664726E-04
   165 -1.312863728E-02
   166  1.805319877E-02
   167 -9.139940609E-02
   168 -8.752330583E-06
   169 -1.400932219E-03
   170 -1.144424225E-03
   171  1.505337001E-02
   172 -5.097488047E-03
   173  3.865408531E-03
   174 -3.522597601E-03
   175  3.359644639E-03
   176  4.964814231E-06
   177 -3.546999258E-03
   178 -5.646826154E-03
   179  3.702446516E-04
   180  2.923647323E-03
   181  9.663467339E-02
   182  1.568159485E-02
   183  1.456622635E-04
   184  2.019845342E-03
   185  1.400800526E-01
   186  4.272356246E-02
   187  2.249140515E-03
   188  1.326996107E-02
   189  1.238698696E-01
   190 -1.595741030E-03
   191 -9.857711448E-04
   192 -5.415009484E-03
   193  1.710608611E-02
   194 -5.871962429E-03
   195  4.228393423E-03
   196  1.514168914E-03
   197  4.835614107E-03
   198  1.756411966E-02
   199  5.139229147E-05
   200  8.311440628E-05
   201 -2.484593473E-02
   202 -1.793139781E-02
   203 -7.744912885E-02
   204 -2.393498106E-04
   205 -3.864698615E-02
   206 -2.789648968E-02
   207 -1.097941043E-01
   208 -5.593651150E-04
   209 -1.805487618E-02
   210 -1.312124975E-02
   211 -9.140184908E-02
   212  9.523909938E-06
   213 -1.142714868E-03
   214  1.402873183E-03
   215  1.505381658E-02
   216 -5.096552496E-03
   217 -4.789200393E-03
   218 -3.199004534E-03
   219 -3.683085301E-03
   220 -9.543591033E-05
   221 -5.942432140E-02
   222 -9.406163456E-02
   223 -6.922378178E-02
   224 -8.878706465E-04
   225 -5.202579628E-03
   226  1.971216025E-03
   227 -6.062045533E-03
   228  3.539872922E-02
   229  6.177350076E-02
   230  3.733481855E-02
   231 -2.465211881E-03
   232  4.077174909E-04
   233 -1.006133053E-03
   234  2.361378076E-02
   235  3.352366843E-02
   236  5.166625046E-02
   237  4.115265009E-02
   238 -3.971844798E-03
   239 -1.667283320E-04
   240 -3.306772487E-03
   241  4.069688881E-03
   242 -3.312601753E-02
   243 -5.099210486E-02
   244 -4.028884162E-02
   245 -1.399789497E-03
   246 -3.668473895E-03
   247 -3.348145071E-03
   248 -4.323529566E-03
   249  5.943671958E-02
   250  9.408316839E-02
   251  6.922227205E-02
   252 -5.202867479E-03
   253  8.882733096E-04
   254  1.970392326E-03
   255  6.033740940E-03
   256 -3.540298683E-02
   257 -6.177672518E-02
   258 -3.737827498E-02
   259  4.067169119E-04
   260  2.465202654E-03
   261 -1.005817076E-03
   262 -2.355961602E-02
   263 -3.352782055E-02
   264 -5.167340141E-02
   265 -4.114778370E-02
   266 -1.672669022E-04
   267  3.971913564E-03
   268 -3.306772279E-03
   269 -4.135347104E-03
   270  3.311882330E-02
   271  5.097766276E-02
   272  4.031206204E-02
   273 -3.668513759E-03
   274  1.399547037E-03
   275 -3.348513187E-03
   276  4.345871147E-03
   277 -5.943011471E-02
   278 -9.406755388E-02
   279 -6.925467965E-02
   280  8.890155690E-04
   281  5.202330674E-03
   282  1.970900803E-03
   283 -6.033878750E-03
   284  3.540989503E-02
   285  6.178877149E-02
   286  3.736773318E-02
   287  2.465198388E-03
   288 -4.073210639E-04
   289 -1.005359330E-03
   290  2.370070951E-02
   291  3.353507246E-02
   292  5.168362028E-02
   293  4.117488863E-02
   294  3.971728830E-03
   295  1.666606073E-04
   296 -3.306040528E-03
   297  4.082859642E-03
   298 -3.312230445E-02
   299 -5.098581213E-02
   300 -4.027727677E-02
   301  1.398829328E-03
   302  3.668445274E-03
   303 -3.348055633E-03
   304 -4.313304266E-03
   305  5.941752439E-02
   306  9.404828317E-02
   307  6.922753459E-02
   308  5.202183233E-03
   309 -8.886193099E-04
   310  1.971668150E-03
   311  5.987962812E-03
   312 -3.540603307E-02
   313 -6.178097117E-02
   314 -3.739224470E-02
   315 -4.082752142E-04
   316 -2.464939648E-03
   317 -1.005594125E-03
   318 -2.359366735E-02
   319 -3.353051814E-02
   320 -5.167985512E-02
   321 -4.111981627E-02
   322  1.662252284E-04
   323 -3.971634093E-03
   324 -3.306137551E-03
   325 -4.058979861E-03
   326  3.312999518E-02
   327  5.099580918E-02
   328  4.032399887E-02
   329  3.668426351E-03
   330 -1.398948103E-03
   331 -3.347619777E-03
   332  4.280783630E-03
Ene=   -2.8012093116E-01
Spin= Alpha
Occup=   2.0000000
     1  2.878812821E-03
     2  4.580487065E-03
     3 -6.908012795E-02
     4 -6.678221726E-02
     5  1.531490882E-03
     6 -1.263253094E-02
     7 -9.942873156E-02
     8 -9.824062222E-02
     9  9.180708266E-04
    10 -3.537453418E-02
    11 -9.196556030E-02
    12 -7.937090097E-02
    13  7.799217146E-03
    14 -7.322304112E-04
    15 -1.065789160E-02
    16  1.354398006E-02
    17  3.502607688E-03
    18  4.909016082E-04
    19 -1.145435344E-02
    20 -1.587467472E-02
    21 -8.308759439E-03
    22  3.905537419E-03
    23 -7.143172928E-03
    24 -1.138156285E-02
    25  4.357782295E-02
    26  4.734611133E-02
    27  5.476435560E-03
    28  3.210305510E-02
    29  6.275351663E-02
    30  6.784850857E-02
    31  8.479401797E-03
    32  7.327368470E-02
    33  6.378993643E-02
    34  6.441371478E-02
    35  4.349234729E-03
    36  3.527012703E-03
    37 -7.077112600E-03
    38  1.442908293E-02
    39 -1.760611676E-03
    40 -5.802623378E-03
    41 -5.094994127E-02
    42 -2.766255504E-02
    43 -2.016312454E-02
    44  1.337854343E-03
    45 -2.751354075E-07
    46 -3.892616688E-07
    47  6.826681022E-02
    48  2.739135806E-02
    49 -2.505489611E-06
    50 -4.147795949E-07
    51  9.857350544E-02
    52  3.502071822E-02
    53 -3.653080030E-06
    54  2.248211111E-05
    55  7.448210848E-02
    56  4.505041010E-02
    57 -1.153915811E-05
    58 -9.786005173E-08
    59 -5.584436401E-03
    60  1.567628899E-02
    61  7.580122912E-07
    62 -2.873460800E-08
    63  3.580111413E-04
    64  1.419879418E-03
    65 -3.824684115E-03
    66 -6.982041367E-05
    67 -4.106761995E-03
    68 -6.537091829E-03
    69 -6.698877148E-02
    70 -7.041438977E-02
    71  2.501951307E-03
    72  1.813596877E-02
    73 -9.777094953E-02
    74 -1.006328158E-01
    75  1.815030256E-03
    76  4.962277744E-02
    77 -8.281308745E-02
    78 -9.654381749E-02
    79  1.123167872E-02
    80  8.892294172E-04
    81 -5.095468457E-03
    82  1.902482011E-02
    83  3.959658500E-03
    84 -2.564193802E-03
    85  9.756335946E-03
    86 -1.098859233E-02
    87 -1.619764256E-02
    88  5.017164776E-03
    89  1.217784482E-03
    90  1.941328405E-03
    91  5.574808338E-02
    92  5.309182505E-02
    93 -3.037820949E-02
    94 -5.515348427E-03
    95  7.888272064E-02
    96  7.539255839E-02
    97 -4.722946804E-02
    98 -1.207152780E-02
    99  6.449629071E-02
   100  6.466293595E-02
   101 -2.208513355E-02
   102 -6.974463513E-04
   103 -6.960957732E-03
   104  1.426111201E-02
   105 -2.118444465E-03
   106 -4.242733638E-04
   107  8.766642730E-03
   108  3.479890863E-03
   109 -4.809303296E-03
   110 -4.174555572E-03
   111  2.679754604E-07
   112  3.219860597E-07
   113  4.100233340E-02
   114  8.232131520E-02
   115 -2.491704565E-06
   116  1.921691786E-06
   117  5.629442576E-02
   118  1.204641083E-01
   119 -4.129961003E-06
   120 -3.836473150E-05
   121  5.423824162E-02
   122  8.466597985E-02
   123 -1.425160129E-05
   124  1.291940178E-07
   125 -8.172544803E-03
   126  1.298816636E-02
   127  9.446539058E-07
   128 -9.944683147E-08
   129 -1.460449427E-03
   130 -2.009950841E-03
   131  4.307104279E-03
   132 -3.317874093E-04
   133 -2.878539294E-03
   134 -4.580131459E-03
   135 -6.907987458E-02
   136 -6.678244907E-02
   137 -1.523628451E-03
   138  1.263379366E-02
   139 -9.942830548E-02
   140 -9.823923263E-02
   141 -9.076308372E-04
   142  3.534549690E-02
   143 -9.195927892E-02
   144 -7.939749757E-02
   145 -7.775376955E-03
   146  7.324386722E-04
   147 -1.065694803E-02
   148  1.354445938E-02
   149 -3.501034608E-03
   150 -4.913345928E-04
   151  9.851115960E-03
   152 -1.574537328E-02
   153 -8.755233265E-03
   154 -3.585218099E-03
   155  7.143159434E-03
   156  1.138157478E-02
   157  4.357639153E-02
   158  4.734809804E-02
   159 -5.482596963E-03
   160 -3.210387460E-02
   161  6.274969983E-02
   162  6.785221381E-02
   163 -8.488452079E-03
   164 -7.325928016E-02
   165  6.379382820E-02
   166  6.439815459E-02
   167 -4.343753922E-03
   168 -3.526854836E-03
   169 -7.077276374E-03
   170  1.442823765E-02
   171  1.761364005E-03
   172  5.802258353E-03
   173  5.317023331E-02
   174 -2.804778474E-02
   175 -2.063964754E-02
   176 -1.265892635E-03
   177  4.106480522E-03
   178  6.536692421E-03
   179 -6.698868927E-02
   180 -7.041408876E-02
   181 -2.494175742E-03
   182 -1.813673790E-02
   183 -9.777250058E-02
   184 -1.006329072E-01
   185 -1.803511519E-03
   186 -4.959506684E-02
   187 -8.278651425E-02
   188 -9.652854758E-02
   189 -1.122398275E-02
   190 -8.894989551E-04
   191 -5.095124540E-03
   192  1.902348097E-02
   193 -3.958299484E-03
   194  2.563837583E-03
   195 -7.629649836E-03
   196 -1.057501593E-02
   197 -1.582596979E-02
   198 -4.915856239E-03
   199 -1.217777431E-03
   200 -1.941406521E-03
   201  5.574637940E-02
   202  5.309062514E-02
   203  3.037197610E-02
   204  5.517570123E-03
   205  7.887883350E-02
   206  7.538896114E-02
   207  4.722067475E-02
   208  1.204743881E-02
   209  6.451349967E-02
   210  6.466898649E-02
   211  2.208807841E-02
   212  6.971016477E-04
   213 -6.961581007E-03
   214  1.426135760E-02
   215  2.119205452E-03
   216  4.241453254E-04
   217 -1.045172901E-02
   218  3.886287482E-03
   219 -5.019854817E-03
   220  4.142092110E-03
   221  6.869985803E-02
   222  1.087228384E-01
   223  8.005517540E-02
   224 -3.000642216E-03
   225  1.974488032E-03
   226  4.299831580E-03
   227  6.940724547E-03
   228  2.711898991E-02
   229  4.181123053E-02
   230  3.318058031E-02
   231  9.073226542E-04
   232  5.310403414E-03
   233  1.766076699E-03
   234  3.484106627E-03
   235  2.704124327E-02
   236  4.041517924E-02
   237  3.376714142E-02
   238  1.548473947E-03
   239  3.952218345E-03
   240  2.981519778E-03
   241 -1.727237088E-04
   242 -3.882346394E-02
   243 -6.093801288E-02
   244 -4.638604706E-02
   245  3.560711507E-03
   246  1.101767021E-04
   247  3.548814654E-03
   248 -7.877729844E-03
   249 -4.858276967E-02
   250 -7.685355218E-02
   251 -5.659477343E-02
   252  2.311192876E-04
   253 -4.766636986E-03
   254  3.054600755E-03
   255 -4.328874701E-03
   256  3.869044860E-02
   257  5.953155579E-02
   258  4.715539277E-02
   259  3.799241525E-03
   260 -6.342408790E-04
   261 -2.515480772E-03
   262  4.715671914E-03
   263  4.017391025E-02
   264  6.924070185E-02
   265  4.343886298E-02
   266  1.192712939E-03
   267 -5.795796753E-04
   268 -2.299435341E-03
   269  2.432892472E-02
   270  2.959780503E-02
   271  5.266989018E-02
   272  2.999063911E-02
   273 -2.807642154E-04
   274  2.666885901E-03
   275  1.173962686E-03
   276  2.243711881E-02
   277 -6.870492767E-02
   278 -1.087277802E-01
   279 -8.009818417E-02
   280 -3.000477984E-03
   281  1.974841088E-03
   282 -4.299583531E-03
   283 -6.868540014E-03
   284 -2.711553818E-02
   285 -4.181010150E-02
   286 -3.311206426E-02
   287  9.076656856E-04
   288  5.310420620E-03
   289 -1.765769558E-03
   290 -3.520571336E-03
   291 -2.703821374E-02
   292 -4.041225020E-02
   293 -3.372726085E-02
   294  1.549012949E-03
   295  3.952214738E-03
   296 -2.981869262E-03
   297  2.066072038E-05
   298  3.882133520E-02
   299  6.092876096E-02
   300  4.646640833E-02
   301  3.560958923E-03
   302  1.103491012E-04
   303 -3.549084057E-03
   304  7.910818216E-03
   305  4.858787943E-02
   306  7.685841976E-02
   307  5.662704719E-02
   308  2.314541398E-04
   309 -4.766807778E-03
   310 -3.054396548E-03
   311  4.231822730E-03
   312 -3.869331986E-02
   313 -5.953675086E-02
   314 -4.714786970E-02
   315  3.799288594E-03
   316 -6.345295704E-04
   317  2.515607436E-03
   318 -4.750036299E-03
   319 -4.017697154E-02
   320 -6.924057449E-02
   321 -4.351444313E-02
   322  1.192591661E-03
   323 -5.799601955E-04
   324  2.298958598E-03
   325 -2.417768054E-02
   326 -2.959585589E-02
   327 -5.266083319E-02
   328 -3.007660255E-02
   329 -2.805421625E-04
   330  2.666501054E-03
   331 -1.174203044E-03
   332 -2.233566685E-02
Ene=   -2.8012091280E-01
Spin= Alpha
Occup=   2.0000000
     1 -4.107038361E-03
     2 -6.537565289E-03
     3  7.041462294E-02
     4 -6.698865036E-02
     5 -2.509067438E-03
     6  1.813827245E-02
     7  1.006329398E-01
     8 -9.777206912E-02
     9 -1.825641622E-03
    10  4.961658430E-02
    11  9.654115340E-02
    12 -8.279919639E-02
    13 -1.123504019E-02
    14  8.891046841E-04
    15  1.902497722E-02
    16  5.095399796E-03
    17 -3.960793587E-03
    18  2.564549987E-03
    19  8.989544514E-03
    20  1.607351979E-02
    21 -1.082139869E-02
    22 -4.982026904E-03
    23  1.217778526E-03
    24  1.941259643E-03
    25 -5.309328450E-02
    26  5.575004805E-02
    27  3.038405426E-02
    28 -5.513617403E-03
    29 -7.539442413E-02
    30  7.888525207E-02
    31  4.723672509E-02
    32 -1.208865005E-02
    33 -6.467819290E-02
    34  6.450560685E-02
    35  2.210789709E-02
    36 -6.972341469E-04
    37  1.426142118E-02
    38  6.961151046E-03
    39  2.116811768E-03
    40  4.246097461E-04
    41  8.515567785E-03
    42  4.769791865E-03
    43  3.545401938E-03
    44  4.297586992E-03
    45  8.242304502E-07
    46  1.237561665E-06
    47 -8.232137947E-02
    48  4.100214975E-02
    49  7.270756743E-06
    50 -1.647416448E-06
    51 -1.204636762E-01
    52  5.629575495E-02
    53  1.085770789E-05
    54 -3.221466802E-05
    55 -8.467064835E-02
    56  5.423009218E-02
    57  1.712756250E-05
    58  7.482562618E-07
    59  1.298832937E-02
    60  8.172591657E-03
    61 -1.958680642E-06
    62  6.930913671E-07
    63 -1.123481174E-03
    64 -4.440455801E-03
    65 -2.164799930E-03
    66  2.477842549E-04
    67 -2.878277541E-03
    68 -4.579759407E-03
    69  6.678227267E-02
    70 -6.907956804E-02
    71  1.516535501E-03
    72  1.263469007E-02
    73  9.823973234E-02
    74 -9.942912120E-02
    75  8.976312780E-04
    76  3.531651253E-02
    77  7.938765887E-02
    78 -9.194281932E-02
    79  7.754297426E-03
    80  7.324554746E-04
    81  1.354403984E-02
    82  1.065636200E-02
    83  3.499303672E-03
    84  4.919569806E-04
    85  7.768946613E-03
    86  8.542683333E-03
    87 -1.537870425E-02
    88  3.226620971E-03
    89  7.143151142E-03
    90  1.138165831E-02
    91 -4.734976436E-02
    92  4.357506396E-02
    93  5.488202761E-03
    94 -3.210668675E-02
    95 -6.785469883E-02
    96  6.274774031E-02
    97  8.497489180E-03
    98 -7.322721024E-02
    99 -6.438987023E-02
   100  6.378388507E-02
   101  4.340669248E-03
   102 -3.527165215E-03
   103  1.442801561E-02
   104  7.077495838E-03
   105 -1.762420106E-03
   106 -5.802176872E-03
   107  5.348524131E-02
   108  2.063783866E-02
   109 -2.808204432E-02
   110  1.211430384E-03
   111 -8.298592633E-07
   112 -1.318446465E-06
   113 -2.739132829E-02
   114  6.826707258E-02
   115  7.238910284E-06
   116  3.635611146E-06
   117 -3.502101645E-02
   118  9.857201827E-02
   119  1.029515525E-05
   120  1.159084372E-05
   121 -4.504624868E-02
   122  7.451290827E-02
   123  1.281343126E-05
   124 -7.075030642E-07
   125  1.567642677E-02
   126  5.585352364E-03
   127 -1.725343085E-06
   128  6.110860595E-07
   129 -7.272434182E-05
   130  3.859727342E-03
   131  1.513975864E-03
   132 -3.998833851E-05
   133  4.106232478E-03
   134  6.536284884E-03
   135  7.041393265E-02
   136 -6.698875831E-02
   137  2.487110301E-03
   138 -1.813525781E-02
   139  1.006327248E-01
   140 -9.777212784E-02
   141  1.793107550E-03
   142 -4.959621859E-02
   143  9.652663061E-02
   144 -8.280026870E-02
   145  1.121335507E-02
   146 -8.895966241E-04
   147  1.902315145E-02
   148  5.095812500E-03
   149  3.956969913E-03
   150 -2.563183655E-03
   151 -7.581019529E-03
   152  1.576144779E-02
   153 -1.084841008E-02
   154  4.979541407E-03
   155 -1.217745915E-03
   156 -1.941235603E-03
   157 -5.308907431E-02
   158  5.574460296E-02
   159 -3.036648488E-02
   160  5.514139041E-03
   161 -7.538735216E-02
   162  7.887554810E-02
   163 -4.721156593E-02
   164  1.208400479E-02
   165 -6.468131487E-02
   166  6.451056595E-02
   167 -2.209337059E-02
   168  6.971275029E-04
   169  1.426197521E-02
   170  6.961432486E-03
   171 -2.119999126E-03
   172 -4.236739411E-04
   173 -8.003303826E-03
   174  4.564607445E-03
   175  3.554407704E-03
   176 -4.277120759E-03
   177  2.879094969E-03
   178  4.581029405E-03
   179  6.678243188E-02
   180 -6.908025437E-02
   181 -1.538537320E-03
   182 -1.263746564E-02
   183  9.823985142E-02
   184 -9.942977688E-02
   185 -9.288289595E-04
   186 -3.533677252E-02
   187  7.938949276E-02
   188 -9.194728951E-02
   189 -7.794982856E-03
   190 -7.320389848E-04
   191  1.354436200E-02
   192  1.065763558E-02
   193 -3.503381774E-03
   194 -4.905562761E-04
   195 -8.589279991E-03
   196  8.542790084E-03
   197 -1.543005779E-02
   198 -3.465119557E-03
   199 -7.143211686E-03
   200 -1.138177937E-02
   201 -4.734439194E-02
   202  4.357926309E-02
   203 -5.470651967E-03
   204  3.210782742E-02
   205 -6.784579362E-02
   206  6.275479873E-02
   207 -8.471977229E-03
   208  7.321974131E-02
   209 -6.439232005E-02
   210  6.378151386E-02
   211 -4.328704912E-03
   212  3.527032215E-03
   213  1.442855112E-02
   214  7.077030438E-03
   215  1.759247903E-03
   216  5.803397374E-03
   217 -5.340960319E-02
   218  2.054127883E-02
   219 -2.810762317E-02
   220 -1.284818127E-03
   221  4.859191118E-02
   222  7.686832338E-02
   223  5.659246164E-02
   224  4.766766133E-03
   225  2.318680950E-04
   226  3.054317466E-03
   227  4.382525459E-03
   228 -3.869587885E-02
   229 -5.954114843E-02
   230 -4.714471046E-02
   231  6.345992401E-04
   232  3.799027284E-03
   233 -2.515435049E-03
   234 -4.763302582E-03
   235 -4.017901020E-02
   236 -6.924801326E-02
   237 -4.346153758E-02
   238  5.799713486E-04
   239  1.192767986E-03
   240 -2.298817595E-03
   241 -2.421946126E-02
   242 -2.959297273E-02
   243 -5.266019896E-02
   244 -3.002449287E-02
   245 -2.666646880E-03
   246 -2.800523431E-04
   247  1.174355502E-03
   248 -2.240660444E-02
   249  6.869541060E-02
   250  1.087175690E-01
   251  8.003916515E-02
   252 -1.974208246E-03
   253 -3.000675106E-03
   254 -4.300000231E-03
   255  6.937450712E-03
   256  2.712177563E-02
   257  4.181402969E-02
   258  3.320577918E-02
   259 -5.310505357E-03
   260  9.072339835E-04
   261 -1.765950984E-03
   262  3.590295767E-03
   263  2.704326636E-02
   264  4.042217768E-02
   265  3.371900592E-02
   266 -3.951980530E-03
   267  1.548305410E-03
   268 -2.981261150E-03
   269 -6.978367785E-05
   270 -3.882639966E-02
   271 -6.093627850E-02
   272 -4.646753812E-02
   273 -1.096689253E-04
   274  3.560763317E-03
   275 -3.548455429E-03
   276 -7.869947612E-03
   277 -4.857822352E-02
   278 -7.684897754E-02
   279 -5.656304836E-02
   280  4.766580010E-03
   281  2.308113872E-04
   282 -3.054791404E-03
   283 -4.436932465E-03
   284  3.868790952E-02
   285  5.952715093E-02
   286  4.715847954E-02
   287  6.340802971E-04
   288  3.799116094E-03
   289  2.515693593E-03
   290  4.705177861E-03
   291  4.017118091E-02
   292  6.923671420E-02
   293  4.344438253E-02
   294  5.791295084E-04
   295  1.192773819E-03
   296  2.299659219E-03
   297  2.424274795E-02
   298  2.960037514E-02
   299  5.267271427E-02
   300  3.002623774E-02
   301 -2.667043366E-03
   302 -2.809947173E-04
   303 -1.173587996E-03
   304  2.242080550E-02
   305 -6.870915690E-02
   306 -1.087365356E-01
   307 -8.008752430E-02
   308 -1.975326898E-03
   309 -3.000511518E-03
   310  4.299444363E-03
   311 -6.913733871E-03
   312 -2.711316644E-02
   313 -4.180380318E-02
   314 -3.314110809E-02
   315 -5.310379951E-03
   316  9.078459176E-04
   317  1.765996094E-03
   318 -3.613106834E-03
   319 -2.703578558E-02
   320 -4.040823270E-02
   321 -3.374320976E-02
   322 -3.952145254E-03
   323  1.549291468E-03
   324  2.981978737E-03
   325  6.060972245E-05
   326  3.881902475E-02
   327  6.092484741E-02
   328  4.645146618E-02
   329 -1.105016556E-04
   330  3.561029690E-03
   331  3.549293964E-03
   332  7.981279022E-03
Ene=   -1.4669469196E-02
Spin= Alpha
Occup=   0.0000000
     1  5.743271397E-03
     2  9.377587046E-03
     3  1.783658153E-02
     4 -2.993658583E-03
     5 -1.274573377E-02
     6 -3.296349854E-02
     7  2.572178108E-02
     8 -4.346108535E-03
     9 -1.837438623E-02
    10 -3.587805210E-02
    11  7.335120251E-02
    12 -1.221027903E-02
    13 -5.268166578E-02
    14 -2.400768457E-07
    15 -7.105260147E-03
    16  1.219281567E-03
    17  4.810894058E-03
    18 -1.643461784E-03
    19  2.605070700E+00
    20  6.535011922E-01
    21 -9.572390978E-02
    22 -4.699950954E-01
    23  1.242457841E-02
    24  1.989432595E-02
    25  1.759226120E-02
    26  1.269415572E-02
    27 -1.351143548E-05
    28 -5.370169817E-02
    29  2.466188287E-02
    30  1.780858282E-02
    31 -3.429649180E-05
    32 -2.559578682E-01
    33  4.175453790E-02
    34  3.043815549E-02
    35  1.176115607E-04
    36 -2.155205831E-03
    37  2.383571182E-03
    38 -3.323934663E-03
    39  1.228339728E-03
    40  3.536528279E-03
    41 -3.346675754E+00
    42 -2.329472660E-01
    43 -1.663440907E-01
    44  1.685467969E-02
    45  1.242858283E-02
    46  1.990319063E-02
    47 -3.231876212E-07
    48  1.162650710E-06
    49 -2.167147812E-02
    50 -5.378575027E-02
    51  3.186253949E-06
    52 -7.068859282E-06
    53 -3.037955344E-02
    54 -2.554808016E-01
    55 -8.771455238E-05
    56  9.631190744E-05
    57 -5.204266809E-02
    58  4.311506209E-03
    59  2.451317910E-06
    60 -2.189620452E-06
    61 -3.845926912E-03
    62  1.314709386E-03
    63 -3.285348862E+00
    64 -2.752487619E-04
    65  1.191252366E-03
    66  2.697522893E-01
    67  5.743740176E-03
    68  9.379582316E-03
    69 -2.994612998E-03
    70 -1.783890889E-02
    71  1.274674695E-02
    72 -3.301777801E-02
    73 -4.341590339E-03
    74 -2.571537412E-02
    75  1.836572302E-02
    76 -3.528034486E-02
    77 -1.223658417E-02
    78 -7.361855452E-02
    79  5.280239893E-02
    80 -3.152851453E-06
    81 -1.216386520E-03
    82 -7.097606155E-03
    83 -4.812913293E-03
    84  1.643188227E-03
    85  2.650711779E+00
    86 -9.955720866E-02
    87 -6.605490086E-01
    88  4.771360289E-01
    89  1.242444793E-02
    90  1.989504932E-02
    91  1.268918507E-02
    92 -1.759534319E-02
    93  1.249501772E-05
    94 -5.373120023E-02
    95  1.783391463E-02
    96 -2.464254370E-02
    97  3.200205279E-05
    98 -2.555626370E-01
    99  3.009407261E-02
   100 -4.216877066E-02
   101  1.627819811E-04
   102 -2.156656425E-03
   103  3.328037832E-03
   104  2.375468392E-03
   105 -1.241309923E-03
   106 -3.534432974E-03
   107 -3.342775015E+00
   108 -1.713486495E-01
   109  2.287209694E-01
   110 -1.580999382E-02
   111  1.242915225E-02
   112  1.990114271E-02
   113  2.429783146E-06
   114  6.353878817E-07
   115  2.167391337E-02
   116 -5.369480979E-02
   117 -8.936158778E-06
   118 -3.760583878E-06
   119  3.037753339E-02
   120 -2.565979438E-01
   121  5.071097360E-05
   122  1.312985770E-04
   123  5.159731950E-02
   124  4.305469808E-03
   125  2.114222870E-06
   126  3.518214933E-06
   127  3.855353476E-03
   128 -1.316546098E-03
   129 -3.341465086E+00
   130  1.998797726E-03
   131  3.048928904E-03
   132 -2.825070540E-01
   133  5.743476229E-03
   134  9.378256837E-03
   135 -1.783734681E-02
   136  2.993818318E-03
   137 -1.274550113E-02
   138 -3.297832438E-02
   139 -2.571494162E-02
   140  4.347910336E-03
   141 -1.837322120E-02
   142 -3.575710600E-02
   143 -7.350076759E-02
   144  1.211282175E-02
   145 -5.275215875E-02
   146  5.332329781E-07
   147  7.102513974E-03
   148 -1.214688343E-03
   149  4.809317234E-03
   150 -1.640765460E-03
   151  2.624432566E+00
   152 -6.564380140E-01
   153  9.687991492E-02
   154 -4.731122650E-01
   155  1.242430812E-02
   156  1.989433095E-02
   157 -1.759061353E-02
   158 -1.269445717E-02
   159 -1.658913628E-05
   160 -5.371146471E-02
   161 -2.466605573E-02
   162 -1.780874520E-02
   163 -1.595251474E-05
   164 -2.557814157E-01
   165 -4.182418087E-02
   166 -3.040702040E-02
   167 -4.869541851E-05
   168 -2.155639983E-03
   169 -2.377353486E-03
   170  3.324839416E-03
   171  1.230140523E-03
   172  3.536412379E-03
   173 -3.342972305E+00
   174  2.329451039E-01
   175  1.660092558E-01
   176  1.203094827E-02
   177  5.743686218E-03
   178  9.379990768E-03
   179  2.994803994E-03
   180  1.783923289E-02
   181  1.274660846E-02
   182 -3.303621893E-02
   183  4.340635005E-03
   184  2.571214237E-02
   185  1.836705362E-02
   186 -3.508368620E-02
   187  1.233404858E-02
   188  7.376960153E-02
   189  5.291005607E-02
   190 -2.717326138E-06
   191  1.217446783E-03
   192  7.090958462E-03
   193 -4.807341569E-03
   194  1.641452193E-03
   195  2.683672773E+00
   196  9.874990694E-02
   197  6.673816221E-01
   198  4.770166139E-01
   199  1.242422556E-02
   200  1.989310249E-02
   201 -1.268893898E-02
   202  1.759496096E-02
   203  1.434508207E-05
   204 -5.367533840E-02
   205 -1.783313485E-02
   206  2.464470218E-02
   207  2.135720578E-05
   208 -2.562618964E-01
   209 -2.993762063E-02
   210  4.195414967E-02
   211  2.481345137E-04
   212 -2.155699453E-03
   213 -3.330763549E-03
   214 -2.374249253E-03
   215 -1.239974430E-03
   216 -3.530853809E-03
   217 -3.359791317E+00
   218  1.721476100E-01
   219 -2.336710779E-01
   220 -1.375495889E-02
   221  8.010622518E-03
   222  1.435793321E-02
   223  2.715772967E-01
   224 -9.214469339E-04
   225 -5.518771466E-03
   226 -3.950256458E-03
   227  6.435678690E-01
   228  1.275166639E-03
   229  6.716956339E-03
   230  2.576177853E-01
   231  5.458791942E-03
   232 -9.029492679E-04
   233 -2.274177290E-03
   234  5.179307623E-01
   235  1.271901257E-03
   236  6.782324102E-03
   237  2.573876003E-01
   238  4.497536662E-03
   239  4.445825594E-04
   240 -3.918872245E-03
   241  5.089277658E-01
   242  1.303466850E-03
   243  6.494995347E-03
   244  2.603090650E-01
   245 -1.856209963E-03
   246 -4.155086806E-03
   247  3.905724301E-03
   248  5.231131287E-01
   249  8.016483285E-03
   250  1.430770211E-02
   251  2.725240025E-01
   252  5.518853548E-03
   253 -9.188647285E-04
   254  3.948956686E-03
   255  6.411910699E-01
   256  1.268333553E-03
   257  6.766495715E-03
   258  2.567140418E-01
   259  9.032051900E-04
   260  5.459926913E-03
   261  2.280621117E-03
   262  5.176151082E-01
   263  1.274008286E-03
   264  6.750942902E-03
   265  2.577798730E-01
   266 -4.464301781E-04
   267  4.503077068E-03
   268  3.917676511E-03
   269  5.118381573E-01
   270  1.296929768E-03
   271  6.554249897E-03
   272  2.593775521E-01
   273  4.153800357E-03
   274 -1.851948227E-03
   275 -3.907527311E-03
   276  5.208327799E-01
   277  8.016721034E-03
   278  1.428552845E-02
   279  2.723295311E-01
   280  9.200834971E-04
   281  5.521449814E-03
   282 -3.951736845E-03
   283  6.421828079E-01
   284  1.277855806E-03
   285  6.681054521E-03
   286  2.579990106E-01
   287 -5.461060386E-03
   288  9.030358641E-04
   289 -2.274839829E-03
   290  5.193119787E-01
   291  1.269025670E-03
   292  6.799283298E-03
   293  2.570609790E-01
   294 -4.500439564E-03
   295 -4.429455515E-04
   296 -3.920312621E-03
   297  5.071529882E-01
   298  1.304973290E-03
   299  6.463073598E-03
   300  2.606170769E-01
   301  1.856313674E-03
   302  4.158532011E-03
   303  3.907704160E-03
   304  5.253629875E-01
   305  8.019003299E-03
   306  1.428039958E-02
   307  2.728287918E-01
   308 -5.518953680E-03
   309  9.212457241E-04
   310  3.949172793E-03
   311  6.396515360E-01
   312  1.271157337E-03
   313  6.747271938E-03
   314  2.571633723E-01
   315 -9.025302786E-04
   316 -5.461143591E-03
   317  2.280270635E-03
   318  5.196416339E-01
   319  1.273658524E-03
   320  6.764273123E-03
   321  2.575060569E-01
   322  4.452376342E-04
   323 -4.502179771E-03
   324  3.918163280E-03
   325  5.103590755E-01
   326  1.302125078E-03
   327  6.496511717E-03
   328  2.599574646E-01
   329 -4.155471576E-03
   330  1.853435764E-03
   331 -3.908933027E-03
   332  5.234051395E-01
Ene=    8.3062498342E-03
Spin= Alpha
Occup=   0.0000000
     1  3.231287338E-03
     2  5.241620188E-03
     3  2.193030503E-02
     4 -4.236267366E-03
     5 -1.077088310E-02
     6 -1.631313984E-02
     7  2.711514012E-02
     8 -5.435204576E-03
     9 -1.084777125E-02
    10 -1.098455682E-01
    11  1.776234098E-01
    12 -3.985713032E-02
    13 -5.018404009E-02
    14 -6.725133748E-04
    15  1.204932513E-03
    16  3.620414406E-04
    17  3.645936700E-03
    18 -1.358919025E-03
    19  3.108023131E+00
    20  2.169864212E+00
    21 -4.910936304E-01
    22 -6.533442009E-01
    23  7.330588688E-04
    24  1.146140948E-03
    25 -3.946041198E-03
    26  1.060727659E-02
    27 -1.660928884E-02
    28 -2.345604284E-03
    29 -3.596840715E-03
    30  1.258677519E-02
    31 -2.373789356E-02
    32 -2.970464230E-02
    33 -3.608505113E-02
    34  4.973626332E-02
    35 -5.688548571E-02
    36 -9.456285114E-05
    37  2.881795040E-04
    38 -3.800520108E-06
    39  4.532499336E-04
    40  5.583972477E-06
    41 -6.323049893E-01
    42 -4.265785464E-01
    43  4.679935986E-01
    44 -4.773911368E-01
    45  9.969836831E-03
    46  1.562654204E-02
    47  4.113554458E-04
    48  2.678139550E-03
    49 -4.113816382E-02
    50 -3.242471768E-02
    51  5.209054794E-04
    52  3.534130962E-03
    53 -6.077021224E-02
    54 -4.027145583E-01
    55  1.920726078E-03
    56  1.130107462E-02
    57 -7.158146125E-03
    58  2.263408648E-03
    59  1.144839265E-05
    60  6.134914325E-05
    61 -1.753849671E-03
    62  5.732928201E-04
    63 -6.511722655E+00
    64  1.588134644E-02
    65  1.046303957E-01
    66  3.711461631E-01
    67 -3.742442016E-03
    68 -6.069600617E-03
    69  4.230580494E-03
    70  2.494862154E-02
    71 -1.326536117E-02
    72  1.886508799E-02
    73  5.141923450E-03
    74  3.063783290E-02
    75 -1.394390576E-02
    76  1.275005423E-01
    77  3.541069270E-02
    78  1.985686693E-01
    79 -7.048081493E-02
    80  6.175506166E-04
    81 -4.960714582E-05
    82 -7.972170471E-04
    83  3.541472885E-03
    84 -1.240608899E-03
    85 -3.647055860E+00
    86  4.464782808E-01
    87  2.433746574E+00
    88 -9.067961531E-01
    89 -8.006133999E-04
    90 -1.249582623E-03
    91 -8.843502067E-03
    92 -2.304423328E-03
    93 -1.515849805E-02
    94  2.494353604E-03
    95 -1.004302643E-02
    96 -1.230420997E-03
    97 -2.215645944E-02
    98  3.325766287E-02
    99 -4.331271459E-02
   100 -3.140751227E-02
   101 -4.838107779E-02
   102  9.940569595E-05
   103 -4.973671204E-05
   104 -2.473743139E-04
   105  4.303197421E-04
   106  2.853905009E-05
   107  7.023481468E-01
   108 -4.091183014E-01
   109 -3.914649919E-01
   110 -3.926628988E-01
   111 -9.966918816E-03
   112 -1.561994653E-02
   113 -3.049493455E-05
   114  6.745206699E-04
   115 -4.113425152E-02
   116  3.235561250E-02
   117  4.596946682E-05
   118  1.318475482E-03
   119 -6.076066225E-02
   120  4.032115505E-01
   121 -7.658140903E-04
   122 -2.431854989E-04
   123 -7.167500257E-03
   124 -2.260589016E-03
   125  7.806051214E-06
   126  2.352652038E-05
   127 -1.746873236E-03
   128  5.724087736E-04
   129  6.521764369E+00
   130 -1.064575700E-02
   131 -1.707643450E-02
   132  3.715033002E-01
   133  3.285476194E-03
   134  5.329021193E-03
   135 -2.237950416E-02
   136  3.242961812E-03
   137 -1.100358760E-02
   138 -1.656634340E-02
   139 -2.773771675E-02
   140  3.691354930E-03
   141 -1.113933299E-02
   142 -1.118706266E-01
   143 -1.821340098E-01
   144  2.393068668E-02
   145 -5.200105853E-02
   146 -6.666819806E-04
   147 -1.009194690E-03
   148  6.134953212E-04
   149  3.686460849E-03
   150 -1.194191784E-03
   151  3.155774067E+00
   152 -2.226975241E+00
   153  3.063683194E-01
   154 -6.721610778E-01
   155 -6.878899846E-04
   156 -1.080257431E-03
   157  7.256069636E-03
   158 -5.159201767E-03
   159 -1.507930984E-02
   160  2.258339191E-03
   161  8.539280160E-03
   162 -4.612129623E-03
   163 -2.205985765E-02
   164  2.784491318E-02
   165  3.199185893E-02
   166 -4.244025151E-02
   167 -4.798471644E-02
   168  6.814625205E-05
   169 -8.664723371E-05
   170 -1.718792551E-04
   171  3.363598188E-04
   172 -2.473769637E-04
   173  3.150026147E-01
   174  3.400613031E-01
   175 -4.448426872E-01
   176 -3.867784501E-01
   177 -2.770371353E-03
   178 -4.492534591E-03
   179 -3.245302661E-03
   180 -1.935023589E-02
   181 -8.503541499E-03
   182  1.394725682E-02
   183 -3.992594705E-03
   184 -2.424161306E-02
   185 -8.055819129E-03
   186  9.450434352E-02
   187 -2.823474779E-02
   188 -1.607739877E-01
   189 -3.168489910E-02
   190  7.194152605E-04
   191  2.075465928E-04
   192  1.435718952E-03
   193  3.771550525E-03
   194 -1.306832205E-03
   195 -2.680870941E+00
   196 -3.578397864E-01
   197 -1.964529187E+00
   198 -4.255801876E-01
   199  7.604632149E-04
   200  1.196778068E-03
   201  6.919907693E-03
   202  8.903117427E-03
   203 -1.653319751E-02
   204 -2.569824165E-03
   205  7.135144297E-03
   206  1.091248653E-02
   207 -2.363303976E-02
   208 -3.012680943E-02
   209  4.885438389E-02
   210  3.685419930E-02
   211 -5.650818305E-02
   212 -7.657140801E-05
   213 -2.199685052E-04
   214  1.246777836E-04
   215  3.559410852E-04
   216 -2.713929328E-04
   217 -3.290284974E-01
   218  4.982787196E-01
   219  3.825630514E-01
   220 -4.779367747E-01
   221  1.377765538E-03
   222 -1.137822312E-02
   223 -2.558441474E-01
   224  3.347552828E-04
   225  1.972221008E-03
   226  2.711635465E-03
   227 -1.505398903E+00
   228  3.342419040E-03
   229  7.863285706E-03
   230 -2.274083211E-01
   231 -6.443473371E-03
   232  1.004735344E-03
   233  3.152076550E-03
   234 -1.037388989E+00
   235  4.553474771E-03
   236  1.225861542E-02
   237 -1.437863688E-01
   238 -1.860921824E-03
   239  4.143793287E-04
   240  1.950626288E-03
   241 -5.019744055E-01
   242 -5.103213383E-03
   243 -1.281973564E-02
   244  1.684152452E-01
   245 -4.655974384E-04
   246 -2.694798611E-03
   247  2.634746350E-03
   248  6.814218656E-01
   249 -1.624603774E-03
   250  1.345121179E-02
   251  3.041461483E-01
   252  2.477954031E-03
   253 -5.471614021E-04
   254  2.993293876E-03
   255  1.787797487E+00
   256 -2.701501225E-03
   257 -6.227483710E-03
   258  2.073111339E-01
   259  1.027146389E-03
   260  6.075114923E-03
   261  2.928429167E-03
   262  9.603799318E-01
   263 -3.907859766E-03
   264 -1.047904575E-02
   265  1.222538966E-01
   266  4.153966200E-04
   267  1.499690135E-03
   268  1.767926668E-03
   269  4.239563139E-01
   270  4.405465142E-03
   271  1.102425657E-02
   272 -1.453748461E-01
   273 -2.267595134E-03
   274  3.196315453E-04
   275  2.378792756E-03
   276 -5.906625952E-01
   277  1.861544534E-03
   278 -1.539926523E-02
   279 -3.463377419E-01
   280 -4.916248861E-04
   281 -2.966956610E-03
   282  3.240149958E-03
   283 -2.038012060E+00
   284  3.410915247E-03
   285  8.058416858E-03
   286 -2.301072892E-01
   287  6.456244478E-03
   288 -1.167563842E-03
   289  3.175582584E-03
   290 -1.048478578E+00
   291  4.437050168E-03
   292  1.181328693E-02
   293 -1.584564249E-01
   294  2.352730720E-03
   295 -3.939690650E-04
   296  2.467015682E-03
   297 -5.855789969E-01
   298 -3.929067994E-03
   299 -9.835573132E-03
   300  1.110754934E-01
   301  3.979770997E-05
   302  1.495926314E-03
   303  1.700670575E-03
   304  4.367936869E-01
   305 -1.599869049E-03
   306  1.321079402E-02
   307  3.001282896E-01
   308 -2.472506538E-03
   309  2.826667522E-04
   310  2.966263321E-03
   311  1.761255908E+00
   312 -4.052230255E-03
   313 -9.708360345E-03
   314  2.501529191E-01
   315 -1.146843497E-03
   316 -6.839251303E-03
   317  3.400443171E-03
   318  1.122169544E+00
   319 -5.091866864E-03
   320 -1.349407559E-02
   321  1.782559630E-01
   322 -3.927502323E-04
   323 -2.720269515E-03
   324  2.657549492E-03
   325  6.589431944E-01
   326  4.621587873E-03
   327  1.166630682E-02
   328 -1.349670932E-01
   329  1.914679978E-03
   330 -1.814444923E-04
   331  1.948217319E-03
   332 -5.274075977E-01
Ene=    8.3275353699E-03
Spin= Alpha
Occup=   0.0000000
     1 -1.135602277E-03
     2 -1.841663731E-03
     3 -7.529004058E-03
     4 -3.705465111E-03
     5  4.859995810E-03
     6  5.677640508E-03
     7 -9.242654355E-03
     8 -7.034723686E-03
     9  5.761145868E-03
    10  3.970389409E-02
    11 -6.113962202E-02
    12 -6.694168281E-02
    13  3.503045341E-02
    14 -8.766805392E-06
    15  1.162570400E-03
    16  4.459295347E-03
    17 -4.685507036E-04
    18 -6.563386068E-04
    19 -9.221263439E-01
    20 -7.258956041E-01
    21 -7.631828317E-01
    22  4.292556354E-01
    23  5.788019671E-03
    24  9.076277292E-03
    25  1.245373176E-02
    26  2.359834724E-02
    27 -6.259993731E-03
    28 -1.897122214E-02
    29  1.841227250E-02
    30  3.490325262E-02
    31 -6.159216973E-03
    32 -2.321072017E-01
    33 -1.687047865E-02
    34  3.166834235E-02
    35 -4.189162418E-02
    36 -6.656827518E-04
    37  8.214228060E-04
    38 -6.863035729E-04
    39  4.973044971E-04
    40  1.044459926E-03
    41 -3.655792403E+00
    42 -3.167136530E-01
    43  1.209549783E-01
    44 -4.427582080E-01
    45 -1.050876331E-03
    46 -1.647668036E-03
    47  3.142227637E-03
    48  2.508900304E-02
    49  4.337760468E-03
    50  3.422394865E-03
    51  3.288680439E-03
    52  3.297996044E-02
    53  6.425500163E-03
    54  4.242477798E-02
    55  1.930975012E-02
    56  1.065284290E-01
    57  7.167923502E-04
    58 -2.362299626E-04
    59  1.174062645E-04
    60  5.540125656E-04
    61  1.772058956E-04
    62 -5.488489944E-05
    63  6.351790299E-01
    64  2.048012027E-01
    65  9.972425800E-01
    66 -2.810318859E-02
    67 -4.170242104E-03
    68 -6.763744762E-03
    69  4.752571390E-03
    70  2.359371692E-02
    71 -2.099353180E-02
    72  2.095720725E-02
    73  5.927797183E-03
    74  2.681005702E-02
    75 -2.625465529E-02
    76  1.434779843E-01
    77  3.815648494E-02
    78  1.534120254E-01
    79 -1.742138753E-01
    80 -5.283868574E-04
    81  1.281155447E-03
    82  3.039347405E-03
    83 -1.459726870E-03
    84  3.522156687E-04
    85 -3.886213467E+00
    86  4.755553826E-01
    87  1.894354924E+00
    88 -2.091402595E+00
    89 -8.082954586E-03
    90 -1.267715853E-02
    91 -1.114644286E-02
    92  3.328842976E-02
    93  7.275721878E-03
    94  2.652433489E-02
    95 -1.707860462E-02
    96  4.873059873E-02
    97  8.423762900E-03
    98  3.240710215E-01
    99  2.588804627E-02
   100  2.769598896E-02
   101  3.935997721E-02
   102  9.171601089E-04
   103 -1.333933559E-03
   104 -6.563815860E-04
   105  3.609337248E-04
   106  1.579229365E-03
   107  5.081509302E+00
   108  4.133828863E-01
   109 -9.176450613E-03
   110  3.898761682E-01
   111  1.052177063E-03
   112  1.648486301E-03
   113 -3.228619655E-03
   114  6.753473220E-03
   115  4.340933061E-03
   116 -3.394771916E-03
   117 -3.374069415E-03
   118  1.308824901E-02
   119  6.424172848E-03
   120 -4.283552178E-02
   121 -2.027369385E-02
   122 -3.098220412E-03
   123  5.520895815E-04
   124  2.388790314E-04
   125  1.352811543E-04
   126  1.300281173E-04
   127  1.865159723E-04
   128 -5.721862083E-05
   129 -6.894505922E-01
   130 -2.236793446E-01
   131 -1.187182357E-01
   132 -4.149789981E-02
   133  4.475864259E-04
   134  7.252014790E-04
   135 -2.858635470E-03
   136 -4.498937331E-03
   137 -2.556498940E-03
   138 -2.202563168E-03
   139 -3.433146659E-03
   140 -7.981084970E-03
   141 -3.457007830E-03
   142 -1.614666973E-02
   143 -2.345845827E-02
   144 -7.407069965E-02
   145 -2.384089485E-02
   146  1.461083027E-04
   147  1.396315871E-03
   148  4.441580227E-03
   149 -2.939556095E-04
   150  9.235779870E-04
   151  2.729055020E-01
   152 -2.779184285E-01
   153 -8.533142923E-01
   154 -2.770689171E-01
   155 -5.794959727E-03
   156 -9.085167133E-03
   157  1.127537641E-02
   158  2.526636579E-02
   159  9.603503655E-03
   160  1.894511626E-02
   161  1.712845128E-02
   162  3.670908104E-02
   163  1.100698178E-02
   164  2.328961591E-01
   165 -2.433243241E-02
   166  4.139387592E-02
   167  5.284137577E-02
   168  6.683175747E-04
   169  8.695521479E-04
   170 -6.796034612E-04
   171 -5.809610102E-04
   172 -1.023411279E-03
   173  3.766883895E+00
   174 -4.109408398E-01
   175  2.022584590E-01
   176  5.345853245E-01
   177  4.857684024E-03
   178  7.878902181E-03
   179  5.546547104E-03
   180  2.826904846E-02
   181  2.328604192E-02
   182 -2.441795833E-02
   183  6.861510619E-03
   184  3.259229143E-02
   185  2.859056416E-02
   186 -1.671425757E-01
   187  4.550782354E-02
   188  1.916496142E-01
   189  1.845123792E-01
   190  3.848418096E-04
   191  1.262469425E-03
   192  2.793752034E-03
   193  6.819221385E-04
   194 -7.795663175E-05
   195  4.538329259E+00
   196  5.711841964E-01
   197  2.352623260E+00
   198  2.228726000E+00
   199  8.086846034E-03
   200  1.268224956E-02
   201 -1.281413329E-02
   202  3.210344341E-02
   203 -3.928761525E-03
   204 -2.651888216E-02
   205 -1.886716187E-02
   206  4.745826254E-02
   207 -3.587724971E-03
   208 -3.243879190E-01
   209  1.593261961E-02
   210  2.031755840E-02
   211 -2.819253015E-02
   212 -9.278664152E-04
   213 -1.318294573E-03
   214 -6.971769509E-04
   215 -4.418067409E-04
   216 -1.550466227E-03
   217 -5.141787184E+00
   218  3.228269291E-01
   219 -9.418781018E-02
   220 -2.928010505E-01
   221 -2.409722574E-03
   222  2.006323288E-02
   223  4.538813687E-01
   224 -6.339793879E-04
   225 -4.913883317E-03
   226 -2.777034000E-03
   227  2.641002757E+00
   228 -1.417924682E-03
   229 -3.672039811E-03
   230  6.094608380E-02
   231  1.162353304E-03
   232 -9.180724002E-04
   233 -6.989074547E-04
   234  2.561080055E-01
   235 -6.069834507E-04
   236 -6.237026094E-04
   237  1.124297145E-01
   238  3.208784218E-03
   239  6.227503364E-05
   240 -3.134830470E-03
   241  5.808735178E-01
   242 -4.934523082E-03
   243 -1.201559503E-02
   244  2.553214194E-01
   245 -2.032534261E-03
   246 -5.583696434E-03
   247  4.390341490E-03
   248  1.116343003E+00
   249 -1.814036305E-04
   250  1.549345908E-03
   251  4.160977903E-02
   252  3.324336323E-04
   253 -1.273171042E-03
   254  1.094625370E-04
   255  2.280672447E-01
   256  6.619519688E-03
   257  1.716683452E-02
   258 -2.265616162E-01
   259 -5.826480153E-04
   260 -4.258009048E-03
   261 -2.523123769E-03
   262 -8.832124744E-01
   263  6.085340445E-03
   264  1.558729871E-02
   265 -2.685953198E-01
   266  2.984113128E-05
   267 -5.677520161E-03
   268 -4.121249482E-03
   269 -1.111048387E+00
   270 -2.119621578E-03
   271 -5.997705084E-03
   272 -1.718240011E-03
   273 -7.794508556E-04
   274  3.897670421E-04
   275  1.272671412E-03
   276 -1.034860460E-01
   277  2.065014855E-03
   278 -1.717965645E-02
   279 -3.905058584E-01
   280 -5.443382261E-04
   281 -4.391381685E-03
   282  2.156642145E-03
   283 -2.267316857E+00
   284  7.022740106E-04
   285  2.035170881E-03
   286 -1.252178837E-02
   287 -1.986691289E-04
   288 -6.863006107E-04
   289  3.705297849E-05
   290 -3.889118645E-02
   291 -3.358410992E-04
   292 -1.962970847E-03
   293 -7.938656964E-02
   294  2.763804372E-03
   295  1.462797538E-04
   296  2.668424540E-03
   297 -4.648511524E-01
   298  5.888319396E-03
   299  1.437874515E-02
   300 -2.846217843E-01
   301 -2.088882438E-03
   302 -6.028553502E-03
   303 -4.841645504E-03
   304 -1.238405124E+00
   305  5.266987797E-04
   306 -4.445173436E-03
   307 -1.049296050E-01
   308  8.545790738E-04
   309 -1.360291691E-03
   310 -7.330732640E-04
   311 -6.019160610E-01
   312 -5.887253056E-03
   313 -1.571860145E-02
   314  1.817697254E-01
   315 -3.517720964E-04
   316 -2.901535436E-03
   317  1.853809667E-03
   318  6.617722186E-01
   319 -5.147245573E-03
   320 -1.293535812E-02
   321  2.345793790E-01
   322  1.105134863E-04
   323 -5.228509061E-03
   324  3.656696098E-03
   325  1.000944746E+00
   326  1.155231134E-03
   327  3.734084522E-03
   328  2.861337438E-02
   329 -1.226859925E-03
   330  4.383774027E-04
   331 -1.723166317E-03
   332  2.243792623E-01
Ene=    8.3313076851E-03
Spin= Alpha
Occup=   0.0000000
     1  4.497905369E-03
     2  7.294291149E-03
     3  2.580419395E-02
     4 -5.123833532E-03
     5 -2.212948630E-02
     6 -2.255893875E-02
     7  2.955470131E-02
     8 -6.378653479E-03
     9 -2.745217675E-02
    10 -1.554303419E-01
    11  1.708517612E-01
    12 -4.115709483E-02
    13 -1.795628777E-01
    14  4.664663012E-04
    15 -2.958364554E-03
    16  1.265187963E-03
    17 -1.115897766E-03
    18  2.370161526E-04
    19  4.126541808E+00
    20  2.095518372E+00
    21 -5.140633723E-01
    22 -2.154047901E+00
    23  8.121143922E-03
    24  1.273964011E-02
    25  3.293091832E-02
    26  1.191626236E-02
    27  5.839688307E-03
    28 -2.673831018E-02
    29  4.841595982E-02
    30  1.791745956E-02
    31  6.329177254E-03
    32 -3.243953847E-01
    33  2.510924816E-02
    34 -2.128861403E-02
    35  3.479584204E-02
    36 -9.272621864E-04
    37  6.712832208E-04
    38 -1.321339405E-03
    39  4.001256607E-04
    40  1.580536071E-03
    41 -5.059581569E+00
    42 -3.255445494E-02
    43 -3.639877573E-01
    44  3.502140413E-01
    45 -1.229450047E-04
    46 -1.923529000E-04
    47  6.785733923E-03
    48  3.221856050E-03
    49  5.071749003E-04
    50  3.814897921E-04
    51  1.319129240E-02
    52  3.333837407E-03
    53  7.510658270E-04
    54  5.271810313E-03
    55 -3.701939419E-03
    56  2.038225079E-02
    57 -1.168887646E-04
    58 -2.668883676E-05
    59 -1.163813322E-04
    60  1.333817335E-04
    61  2.505252074E-05
    62 -5.846892296E-06
    63  9.081112999E-02
    64 -1.232439130E-01
    65  2.267279892E-01
    66 -9.159740813E-03
    67 -7.500692171E-04
    68 -1.214592176E-03
    69 -4.179105509E-03
    70  4.917743664E-03
    71 -3.565453427E-03
    72  3.667546824E-03
    73 -7.599681627E-03
    74  5.994894851E-03
    75 -4.472507077E-03
    76  2.718964924E-02
    77 -7.161248083E-02
    78  3.981893676E-02
    79 -2.830516945E-02
    80 -8.409166551E-05
    81 -4.473557604E-03
    82  1.313181296E-03
    83  5.948689501E-05
    84  7.999730785E-04
    85 -4.552343682E-01
    86 -8.169871740E-01
    87  4.601853524E-01
    88 -3.341917621E-01
    89  5.833898457E-03
    90  9.145465852E-03
    91  2.468542835E-02
    92 -1.190044657E-02
    93  8.175567124E-03
    94 -1.903299419E-02
    95  3.615268788E-02
    96 -1.784581746E-02
    97  8.861112419E-03
    98 -2.349630469E-01
    99  3.680361076E-02
   100  2.105396386E-02
   101  4.895086421E-02
   102 -6.718638569E-04
   103  6.981532211E-04
   104  8.389511262E-04
   105 -5.590212260E-04
   106 -1.035825911E-03
   107 -3.759842536E+00
   108  1.635869030E-01
   109  3.754213293E-01
   110  5.031218789E-01
   111  1.223089894E-04
   112  1.902235902E-04
   113  2.524449504E-02
   114 -3.173198899E-03
   115  5.049124662E-04
   116 -3.454432588E-04
   117  3.316820896E-02
   118 -3.293266596E-03
   119  7.549912507E-04
   120 -5.566686067E-03
   121  1.072120071E-01
   122 -2.004485560E-02
   123 -1.039079064E-04
   124  2.403619154E-05
   125 -5.564177717E-04
   126  1.005721518E-04
   127  2.014740738E-05
   128 -2.181330778E-06
   129 -7.662630536E-02
   130  1.003930849E+00
   131 -2.175254089E-01
   132 -3.020408422E-03
   133 -4.579496662E-03
   134 -7.427329136E-03
   135  2.635302825E-02
   136 -5.220346555E-03
   137  2.239866051E-02
   138  2.299108059E-02
   139  3.021235607E-02
   140 -6.466902536E-03
   141  2.772489186E-02
   142  1.580365714E-01
   143  1.756673743E-01
   144 -4.243165957E-02
   145  1.807251712E-01
   146 -4.477916467E-04
   147 -2.925036552E-03
   148  1.269282540E-03
   149  1.019221134E-03
   150 -2.002795214E-04
   151 -4.210952499E+00
   152  2.149959535E+00
   153 -5.386796681E-01
   154  2.172052862E+00
   155 -8.123227321E-03
   156 -1.274381611E-02
   157  3.279550803E-02
   158  1.211210841E-02
   159 -5.445956426E-03
   160  2.677801639E-02
   161  4.827119013E-02
   162  1.813009203E-02
   163 -5.776783949E-03
   164  3.241502267E-01
   165  2.427109360E-02
   166 -2.023868318E-02
   167 -3.325381294E-02
   168  9.346880409E-04
   169  6.731095641E-04
   170 -1.329464557E-03
   171 -4.106106771E-04
   172 -1.575912580E-03
   173  5.074942972E+00
   174 -4.308697878E-02
   175 -3.596526326E-01
   176 -3.301645558E-01
   177  8.286859045E-04
   178  1.342751368E-03
   179 -4.083453343E-03
   180  5.457757111E-03
   181  3.832822112E-03
   182 -4.089553328E-03
   183 -7.510255161E-03
   184  6.691592448E-03
   185  4.733515661E-03
   186 -2.965604235E-02
   187 -7.033271137E-02
   188  4.412874016E-02
   189  2.978048792E-02
   190  6.675057831E-05
   191 -4.468860487E-03
   192  1.271052673E-03
   193 -1.383319483E-04
   194 -7.711883587E-04
   195  5.875950651E-01
   196 -8.045304524E-01
   197  5.130686030E-01
   198  3.630411992E-01
   199 -5.834008040E-03
   200 -9.148312542E-03
   201  2.449421619E-02
   202 -1.203427415E-02
   203 -7.786297427E-03
   204  1.910925522E-02
   205  3.593227532E-02
   206 -1.802648202E-02
   207 -8.294493336E-03
   208  2.340975552E-01
   209  3.599938205E-02
   210  2.025312888E-02
   211 -4.746812741E-02
   212  6.708446361E-04
   213  6.910501191E-04
   214  8.327996813E-04
   215  5.401210498E-04
   216  1.039851288E-03
   217  3.681336012E+00
   218  1.680809498E-01
   219  3.557867845E-01
   220 -4.964084514E-01
   221 -3.695424021E-04
   222  3.112377334E-03
   223  7.732095327E-02
   224 -1.328077332E-03
   225 -6.226824059E-04
   226 -4.547822760E-04
   227  4.312623291E-01
   228  6.242200709E-03
   229  1.651092447E-02
   230 -2.035575010E-01
   231 -3.526463787E-03
   232  4.597475602E-04
   233  2.166106504E-03
   234 -7.652877691E-01
   235  5.594898823E-03
   236  1.416886945E-02
   237 -2.507854941E-01
   238 -5.461063769E-03
   239 -7.424235877E-05
   240  3.891608019E-03
   241 -1.063486932E+00
   242 -1.565431153E-03
   243 -4.958971239E-03
   244 -1.409538280E-02
   245  4.204397408E-04
   246  1.040671043E-03
   247 -1.531889554E-03
   248 -1.669604424E-01
   249  2.265165202E-03
   250 -1.887562259E-02
   251 -4.289335639E-01
   252 -4.711657600E-03
   253  5.969757254E-04
   254 -2.517723014E-03
   255 -2.488384447E+00
   256  1.098285039E-03
   257  2.954752115E-03
   258 -3.976291305E-02
   259 -8.163843229E-04
   260 -5.622220405E-04
   261 -4.038047135E-04
   262 -1.586116513E-01
   263  1.876464840E-04
   264 -5.509587082E-04
   265 -9.781788110E-02
   266  9.767470893E-05
   267 -3.029794332E-03
   268 -2.942710484E-03
   269 -5.322263110E-01
   270  5.396940778E-03
   271  1.306144341E-02
   272 -2.688375509E-01
   273 -5.816271924E-03
   274  2.065734177E-03
   275  4.617270445E-03
   276 -1.173852711E+00
   277  3.171729455E-04
   278 -2.662504902E-03
   279 -7.166960276E-02
   280 -1.315994354E-03
   281 -5.650233501E-04
   282  3.853937102E-04
   283 -3.885837500E-01
   284 -6.330906143E-03
   285 -1.663103112E-02
   286  2.081073621E-01
   287 -3.677585121E-03
   288  4.861535908E-04
   289 -2.240365914E-03
   290  7.936715055E-01
   291 -5.699223075E-03
   292 -1.450392988E-02
   293  2.560232290E-01
   294 -5.507995160E-03
   295 -6.617815542E-05
   296 -3.943266804E-03
   297  1.070887984E+00
   298  1.690766984E-03
   299  5.080665795E-03
   300  1.356135294E-02
   301  4.172160468E-04
   302  9.849519642E-04
   303  1.478411885E-03
   304  1.549121787E-01
   305 -2.225676653E-03
   306  1.852141382E-02
   307  4.214390592E-01
   308 -4.647647641E-03
   309  5.855660068E-04
   310  2.446712955E-03
   311  2.440261098E+00
   312 -1.015277942E-03
   313 -2.771088030E-03
   314  3.402726742E-02
   315 -7.866281564E-04
   316 -4.026240543E-04
   317  3.295938108E-04
   318  1.363852758E-01
   319 -8.331600064E-05
   320  9.248875368E-04
   321  9.305158342E-02
   322  1.062960101E-04
   323 -2.974008884E-03
   324  2.883604558E-03
   325  5.183722192E-01
   326 -5.507167801E-03
   327 -1.334010429E-02
   328  2.722389740E-01
   329 -5.868210833E-03
   330  2.070231885E-03
   331 -4.665106739E-03
   332  1.192849599E+00
Ene=    2.7282250598E-02
Spin= Alpha
Occup=   0.0000000
     1  9.871972137E-03
     2  1.599033452E-02
     3  1.327599733E-02
     4 -2.490029347E-03
     5 -1.178680381E-02
     6 -4.656064872E-02
     7  1.658898831E-02
     8 -2.647748108E-03
     9 -8.973869268E-03
    10 -2.444124604E-01
    11  1.054089622E-01
    12 -2.039424465E-02
    13 -8.753020251E-02
    14 -7.303605939E-03
    15  1.198509852E-03
    16 -9.260878356E-05
    17 -2.964463551E-03
    18  1.560975028E-03
    19  4.394190374E+00
    20  2.376022144E+00
    21 -4.320329431E-01
    22 -1.758850941E+00
    23  1.189519428E-04
    24  1.959643740E-04
    25  6.629822893E-03
    26 -8.694786902E-03
    27  3.258485983E-02
    28 -6.695352059E-04
    29  1.001810202E-02
    30 -1.336386927E-02
    31  4.330211567E-02
    32 -1.579973848E-03
    33  2.060071530E-02
    34 -2.543605000E-02
    35  1.261726623E-01
    36  8.432746977E-06
    37  5.265837706E-04
    38  4.545417784E-04
    39  8.158748468E-03
    40 -2.770854875E-03
    41 -2.718472928E-02
    42  3.746436330E-01
    43 -4.971407784E-01
    44  1.196617700E+00
    45 -1.668771800E-03
    46 -2.880964813E-03
    47 -4.106778045E-04
    48  2.829737680E-03
    49  5.747525575E-03
    50  1.272287623E-02
    51 -4.118868339E-04
    52  3.893489207E-03
    53  6.993023694E-03
    54 -3.526863578E-02
    55 -2.268275534E-03
    56  1.028814946E-02
    57  9.430064962E-02
    58  1.531252197E-03
    59 -4.063315084E-04
    60 -5.216553579E-04
    61 -5.383936483E-03
    62  1.889741678E-03
    63 -6.181130554E+00
    64 -9.187710790E-03
    65  1.154365815E-01
    66  2.316308355E+00
    67 -8.528759975E-03
    68 -1.381200113E-02
    69  2.108285764E-03
    70  1.125001822E-02
    71 -1.049106286E-02
    72  4.017168115E-02
    73  2.355378351E-03
    74  1.464684703E-02
    75 -7.375760679E-03
    76  2.114322514E-01
    77  1.761972201E-02
    78  8.968184270E-02
    79 -7.694101269E-02
    80  7.840228615E-03
    81 -6.841933988E-05
    82 -8.223787780E-04
    83 -2.926444092E-03
    84  1.395749904E-03
    85 -3.906335391E+00
    86  3.741537638E-01
    87  2.057391897E+00
    88 -1.536010641E+00
    89 -2.100346450E-04
    90 -3.477564543E-04
    91  1.073742698E-02
    92  8.501922939E-03
    93  3.366111360E-02
    94  1.206504922E-03
    95  1.611543586E-02
    96  1.245567666E-02
    97  4.490588157E-02
    98  1.244181619E-03
    99  3.078675299E-02
   100  3.128974316E-02
   101  1.295508270E-01
   102 -5.641431355E-05
   103  1.159091896E-03
   104 -9.046265423E-04
   105  8.229922539E-03
   106 -2.884180058E-03
   107 -2.825888441E-01
   108  5.065930332E-01
   109  5.433448751E-01
   110  1.256866507E+00
   111  1.675046957E-03
   112  2.897122091E-03
   113 -1.776219983E-03
   114  1.491125450E-03
   115  5.754918348E-03
   116 -1.292164100E-02
   117 -2.496987188E-03
   118  1.878633185E-03
   119  7.027213609E-03
   120  3.686039084E-02
   121 -6.292408150E-03
   122  6.242187194E-03
   123  9.436224881E-02
   124 -1.527179387E-03
   125 -4.932368574E-04
   126 -3.546166014E-04
   127 -5.377097158E-03
   128  1.887970479E-03
   129  6.263244282E+00
   130 -7.556302957E-02
   131  3.735571494E-02
   132  2.330044032E+00
   133  8.739232765E-03
   134  1.415574693E-02
   135 -1.160549612E-02
   136  1.930542701E-03
   137 -1.069099977E-02
   138 -4.122993242E-02
   139 -1.488961656E-02
   140  2.705781545E-03
   141 -7.584783723E-03
   142 -2.160913064E-01
   143 -9.246137692E-02
   144  1.686040098E-02
   145 -7.904993816E-02
   146 -7.757807462E-03
   147 -8.193849347E-04
   148  3.265300348E-04
   149 -3.236646240E-03
   150  5.155738042E-04
   151  3.939719144E+00
   152 -2.105587758E+00
   153  3.754494855E-01
   154 -1.563258870E+00
   155  7.704451992E-05
   156  1.230458603E-04
   157 -9.326538194E-03
   158  1.266073178E-02
   159  3.446597469E-02
   160 -3.140994546E-04
   161 -1.361515465E-02
   162  1.861800885E-02
   163  4.611637511E-02
   164 -3.095893965E-03
   165 -2.965988672E-02
   166  4.200171118E-02
   167  1.320545812E-01
   168 -8.068865406E-06
   169 -1.609726965E-03
   170 -1.075467519E-03
   171  8.347033207E-03
   172 -2.802730255E-03
   173 -1.579311451E-01
   174 -4.415723810E-01
   175  6.770048639E-01
   176  1.298200542E+00
   177 -1.006665357E-02
   178 -1.630369345E-02
   179 -2.306050153E-03
   180 -1.360135552E-02
   181 -1.195667463E-02
   182  4.743716878E-02
   183 -3.002555033E-03
   184 -1.686440783E-02
   185 -9.225223548E-03
   186  2.495978363E-01
   187 -1.952142953E-02
   188 -1.076065161E-01
   189 -8.875377590E-02
   190  7.222268775E-03
   191  3.610969327E-04
   192  1.251497970E-03
   193 -3.305945142E-03
   194  6.913044347E-04
   195 -4.608150356E+00
   196 -4.394875950E-01
   197 -2.440926235E+00
   198 -1.790359406E+00
   199  3.137852194E-05
   200  6.812549558E-05
   201 -1.063204707E-02
   202 -7.435306765E-03
   203  3.338773414E-02
   204 -6.152602123E-04
   205 -1.591163369E-02
   206 -1.112481452E-02
   207  4.451430049E-02
   208  6.128371171E-03
   209 -3.663089219E-02
   210 -1.893216145E-02
   211  1.286551446E-01
   212  5.375772561E-05
   213 -3.865730824E-04
   214  1.219680715E-03
   215  8.271308683E-03
   216 -2.699747426E-03
   217  5.755639996E-01
   218 -6.748528867E-01
   219 -2.626068644E-01
   220  1.234644780E+00
   221  7.660240120E-03
   222 -1.187654239E-03
   223 -2.594528634E-01
   224  1.144850136E-03
   225  5.820233257E-03
   226 -2.900620666E-04
   227 -2.484097316E+00
   228 -4.154553015E-03
   229  1.153141530E-03
   230  6.808839134E-02
   231  1.545928872E-03
   232  9.475786327E-05
   233 -1.989337984E-04
   234  7.791750820E-01
   235  6.913968614E-04
   236 -4.852842806E-03
   237  2.992578248E-01
   238  7.415726736E-03
   239  2.637422003E-04
   240 -7.967450224E-04
   241  1.473914666E+00
   242 -1.329226068E-03
   243  5.359098698E-03
   244 -3.018017397E-01
   245  2.529927814E-03
   246  6.914387660E-03
   247 -6.884076590E-04
   248 -1.387171804E+00
   249 -6.626347537E-03
   250  9.594044400E-04
   251  2.269726692E-01
   252  5.475830935E-03
   253 -1.163988332E-03
   254 -8.622854120E-04
   255  2.162037335E+00
   256  4.124570804E-03
   257 -9.241467264E-04
   258 -7.688733277E-02
   259 -4.522046154E-04
   260 -1.548418578E-03
   261 -2.856839737E-04
   262 -8.146097917E-01
   263 -1.028687170E-03
   264  5.481831440E-03
   265 -3.227025592E-01
   266 -8.245294662E-06
   267 -7.620834566E-03
   268 -1.242027274E-03
   269 -1.557800165E+00
   270  1.151963665E-03
   271 -5.699911404E-03
   272  3.291696146E-01
   273  7.265082776E-03
   274 -2.436789740E-03
   275 -1.252910266E-03
   276  1.546545177E+00
   277  6.487297194E-03
   278 -9.362824199E-04
   279 -2.205366199E-01
   280 -6.848585217E-04
   281 -5.492740394E-03
   282 -9.610876448E-04
   283 -2.103861531E+00
   284 -4.268668402E-03
   285  1.750196518E-03
   286  3.207697204E-02
   287 -8.583485130E-04
   288  4.152652291E-04
   289  3.047255523E-04
   290  6.080482793E-01
   291  1.300971503E-03
   292 -5.187192847E-03
   293  2.977634611E-01
   294 -7.389354189E-03
   295 -1.260474637E-04
   296 -8.081300252E-04
   297  1.406183887E+00
   298 -7.539763735E-04
   299  5.437013763E-03
   300 -3.167175097E-01
   301 -2.595571683E-03
   302 -7.062049023E-03
   303 -9.412976597E-04
   304 -1.519132801E+00
   305 -7.482686631E-03
   306  9.381595197E-04
   307  2.582363046E-01
   308 -5.864996729E-03
   309  6.710655614E-04
   310 -3.678000579E-04
   311  2.442565978E+00
   312  4.280889318E-03
   313 -1.781882193E-03
   314 -2.756032982E-02
   315 -1.363065645E-04
   316  8.256901338E-04
   317  4.013404536E-04
   318 -5.789268866E-01
   319 -9.766915671E-04
   320  4.701570561E-03
   321 -2.770383166E-01
   322 -3.908511576E-04
   323  7.161821149E-03
   324 -3.425811177E-04
   325 -1.333053756E+00
   326  9.193360388E-04
   327 -4.975864907E-03
   328  2.870578441E-01
   329 -6.731347070E-03
   330  2.703180804E-03
   331 -3.975884228E-04
   332  1.351916461E+00
Ene=    2.7304651775E-02
Spin= Alpha
Occup=   0.0000000
     1  4.747995466E-03
     2  7.690247637E-03
     3  6.955189680E-03
     4 -3.329189333E-03
     5 -4.481180944E-03
     6 -2.237532120E-02
     7  7.275064641E-03
     8  1.477808947E-03
     9 -6.051550764E-03
    10 -1.180576131E-01
    11  5.377432556E-02
    12 -2.070785918E-02
    13 -3.613152515E-02
    14  2.716089270E-03
    15  1.908524373E-03
    16  2.034873405E-03
    17  2.529368971E-03
    18  8.014012228E-03
    19  2.085650487E+00
    20  1.148071202E+00
    21 -2.596206367E-01
    22 -8.361516306E-01
    23  6.389625679E-04
    24  1.090754621E-03
    25 -1.720181015E-02
    26  2.737011140E-02
    27 -1.466363327E-02
    28 -4.523790657E-03
    29 -2.318823267E-02
    30  3.645398678E-02
    31 -2.167929139E-02
    32  9.728661602E-03
    33 -4.711474965E-02
    34  1.201790532E-01
    35 -4.674171298E-02
    36  3.011466000E-04
    37 -7.820171196E-03
    38 -3.129075886E-03
    39 -1.916795324E-03
    40  1.313931865E-04
    41  2.000202136E+00
    42 -8.210466647E-02
    43  1.440653161E+00
    44 -7.396441851E-01
    45  1.121176227E-04
    46  1.942756440E-04
    47 -1.173396970E-03
    48  4.340203921E-02
    49 -3.983046776E-04
    50 -8.566214423E-04
    51 -2.837087199E-04
    52  5.974188663E-02
    53 -4.977422866E-04
    54  2.344828348E-03
    55 -1.075273354E-02
    56  1.589915384E-01
    57 -6.559785214E-03
    58 -1.148586900E-04
    59 -4.495252993E-03
    60 -8.478374009E-03
    61  3.918418312E-04
    62 -1.389725583E-04
    63  4.946682071E-01
    64  6.227683887E-02
    65  1.793028040E+00
    66 -1.758139862E-01
    67  1.269084871E-02
    68  2.055238592E-02
    69 -2.303393687E-03
    70 -1.915742399E-02
    71  1.228157878E-02
    72 -5.964685681E-02
    73 -4.439105848E-03
    74 -1.860956197E-02
    75  1.510654849E-02
    76 -3.171336968E-01
    77 -1.934084727E-02
    78 -1.445358904E-01
    79  9.671991011E-02
    80  4.310115205E-03
    81  1.623301138E-03
    82  3.473046668E-03
    83  2.337966300E-03
    84  3.194500941E-03
    85  5.418282985E+00
    86 -4.889705198E-01
    87 -3.063846548E+00
    88  2.156115065E+00
    89 -1.561553961E-03
    90 -2.687231128E-03
    91  5.705336147E-03
    92  1.054332704E-02
    93  2.164425459E-03
    94  1.162003731E-02
    95  7.865692637E-03
    96  1.346094620E-02
    97  3.745680039E-03
    98 -2.981751663E-02
    99 -1.613080848E-02
   100  9.468684762E-02
   101  3.279275489E-03
   102 -7.218606919E-04
   103  6.045807055E-03
   104  6.885219933E-04
   105 -5.582839182E-04
   106 -1.127902991E-03
   107 -5.632826363E+00
   108 -9.228904215E-01
   109  1.960530853E+00
   110  1.466549465E-01
   111 -1.244085842E-04
   112 -2.124688471E-04
   113 -1.580242472E-02
   114  2.135889519E-02
   115 -4.196255012E-04
   116  8.715908959E-04
   117 -2.236159561E-02
   118  2.655672126E-02
   119 -5.254435536E-04
   120 -1.612261087E-03
   121 -5.524222704E-02
   122  9.313363393E-02
   123 -6.257005591E-03
   124  1.092902084E-04
   125 -5.127933641E-03
   126 -5.909288300E-03
   127  3.773715823E-04
   128 -1.338434999E-04
   129 -4.045106448E-01
   130 -7.060747259E-01
   131  6.311235017E-01
   132 -1.532873933E-01
   133 -6.065713477E-03
   134 -9.823735303E-03
   135  8.728879085E-03
   136 -3.633327964E-03
   137  6.050357379E-03
   138  2.856455000E-02
   139  9.494601386E-03
   140  1.095872800E-03
   141  7.246730946E-03
   142  1.507204228E-01
   143  6.804084560E-02
   144 -2.298849740E-02
   145  4.699892593E-02
   146 -1.642308456E-03
   147  2.047691221E-03
   148  1.999858066E-03
   149 -2.105176012E-03
   150 -8.157910641E-03
   151 -2.653568241E+00
   152  1.477122984E+00
   153 -3.154271277E-01
   154  1.047964881E+00
   155 -6.401679745E-04
   156 -1.094697431E-03
   157 -1.609011976E-02
   158  2.584647543E-02
   159  9.911642380E-03
   160  4.587777011E-03
   161 -2.151777223E-02
   162  3.415610860E-02
   163  1.532777645E-02
   164 -1.026540452E-02
   165 -4.338668417E-02
   166  1.156751464E-01
   167  2.834578908E-02
   168 -2.991038970E-04
   169 -7.675411466E-03
   170 -3.006583091E-03
   171  7.555193107E-04
   172  2.673130381E-04
   173 -2.074904428E+00
   174 -1.157202665E-02
   175  1.375991713E+00
   176  5.655710193E-01
   177 -1.137381596E-02
   178 -1.841934322E-02
   179 -2.001809090E-03
   180 -1.741107111E-02
   181 -1.067616114E-02
   182  5.344028002E-02
   183 -4.044366705E-03
   184 -1.635655373E-02
   185 -1.393339764E-02
   186  2.847057178E-01
   187 -1.732455874E-02
   188 -1.314273463E-01
   189 -8.423699305E-02
   190 -5.370469040E-03
   191  1.590354420E-03
   192  3.344823628E-03
   193 -1.887426637E-03
   194 -3.349485437E-03
   195 -4.835009133E+00
   196 -4.453991257E-01
   197 -2.751894844E+00
   198 -1.917186866E+00
   199  1.577313470E-03
   200  2.711584788E-03
   201  7.220317446E-03
   202  1.168033399E-02
   203 -6.923997328E-03
   204 -1.166008675E-02
   205  1.012803972E-02
   206  1.513267891E-02
   207 -1.008689947E-02
   208  2.904437700E-02
   209 -1.122776086E-02
   210  9.827253047E-02
   211 -2.190001452E-02
   212  7.284693003E-04
   213  6.155805963E-03
   214  5.321170129E-04
   215 -6.091285158E-04
   216  1.518064004E-03
   217  5.602538112E+00
   218 -8.419536181E-01
   219  2.013090480E+00
   220 -3.321125736E-01
   221  8.614745703E-03
   222 -1.022889018E-03
   223 -2.973776557E-01
   224  2.338492895E-03
   225  2.390010278E-03
   226  5.286893960E-03
   227 -2.796048313E+00
   228  8.464271327E-04
   229 -2.955667725E-03
   230  1.693031431E-01
   231  3.511391371E-03
   232  4.319542297E-03
   233 -2.408584241E-03
   234  7.887968976E-01
   235 -4.268738280E-03
   236  3.691821486E-03
   237 -7.645192398E-02
   238 -1.019802387E-03
   239  1.516317718E-03
   240  1.440839157E-03
   241  4.266083701E-02
   242 -3.516537755E-03
   243 -1.359131357E-03
   244  1.774781418E-01
   245 -2.331475679E-04
   246 -2.246962104E-03
   247  2.994258780E-03
   248  1.254784172E+00
   249  4.635741456E-03
   250 -2.976419076E-04
   251 -1.621005138E-01
   252 -2.509343221E-03
   253 -3.911935931E-03
   254 -2.324379077E-03
   255 -1.505976629E+00
   256 -1.551152069E-03
   257  6.993054499E-03
   258 -3.882267422E-01
   259 -3.202660789E-03
   260 -5.801324693E-03
   261 -5.366232084E-03
   262 -1.810876302E+00
   263  6.384320427E-04
   264  3.991880176E-03
   265 -2.818147870E-01
   266 -2.521723896E-03
   267 -2.585865846E-03
   268 -5.979580371E-03
   269 -1.497445650E+00
   270  2.335429006E-03
   271 -4.560470643E-03
   272  2.403514397E-01
   273  2.929932939E-03
   274  2.086273525E-03
   275 -5.357853399E-03
   276  9.991157680E-01
   277 -9.614070492E-03
   278  1.111684945E-03
   279  3.315452846E-01
   280  2.468750784E-03
   281  3.191800177E-03
   282 -5.205684394E-03
   283  3.116669282E+00
   284 -2.481650898E-04
   285  2.779349540E-03
   286 -1.780448001E-01
   287  3.682640482E-03
   288  4.292767135E-03
   289  2.393292617E-03
   290 -8.821288333E-01
   291  4.126755159E-03
   292 -2.990724989E-03
   293  3.398729787E-02
   294  2.615146642E-05
   295  1.541169647E-03
   296 -1.325468723E-03
   297 -2.506601744E-01
   298  3.666362645E-03
   299  5.887071230E-04
   300 -1.328139840E-01
   301  1.366561371E-04
   302 -1.252330475E-03
   303 -2.885777311E-03
   304 -1.045033670E+00
   305 -3.643535041E-03
   306  2.794742532E-04
   307  1.270259088E-01
   308 -1.707398380E-03
   309 -4.043323968E-03
   310  2.403142592E-03
   311  1.182760113E+00
   312  9.357019167E-04
   313 -6.492073190E-03
   314  3.908756906E-01
   315 -3.225208286E-03
   316 -5.955876649E-03
   317  5.355078259E-03
   318  1.910843859E+00
   319 -4.914793934E-04
   320 -4.803401875E-03
   321  3.264631463E-01
   322 -2.489213881E-03
   323 -3.640732579E-03
   324  6.090227466E-03
   325  1.696501561E+00
   326 -2.469893573E-03
   327  5.116800679E-03
   328 -2.804631495E-01
   329  3.920951879E-03
   330  1.731048722E-03
   331  5.467595264E-03
   332 -1.204182815E+00
Ene=    2.7312623496E-02
Spin= Alpha
Occup=   0.0000000
     1  1.192045606E-02
     2  1.930368384E-02
     3  1.814511138E-02
     4 -2.116983409E-03
     5 -1.133757043E-02
     6 -5.595519820E-02
     7  1.732547321E-02
     8 -4.241607412E-03
     9 -1.445212057E-02
    10 -2.989389863E-01
    11  1.362551011E-01
    12 -1.731441848E-02
    13 -8.903578373E-02
    14  4.963726551E-03
    15  3.380366498E-03
    16 -1.623252286E-03
    17 -2.058780630E-03
    18 -3.303648020E-03
    19  4.949609861E+00
    20  2.861292879E+00
    21 -4.498021885E-01
    22 -1.996279115E+00
    23 -1.574760304E-03
    24 -2.702543224E-03
    25 -1.122777392E-02
    26  6.613504432E-03
    27 -5.042763245E-03
    28  1.148634049E-02
    29 -1.446300682E-02
    30  9.241363763E-03
    31 -7.607644414E-03
    32 -2.707368475E-02
    33 -9.613534815E-02
    34 -1.280980443E-02
    35 -1.418920223E-02
    36 -7.306517938E-04
    37  5.993655619E-04
    38 -6.109394109E-03
    39 -1.457865288E-04
    40  1.380444530E-03
    41 -5.490629973E+00
    42 -1.968756151E+00
    43 -8.574026343E-01
    44 -2.533760095E-01
    45  2.638428253E-05
    46  4.618097362E-05
    47 -2.141809632E-02
    48 -1.588164906E-02
    49 -8.618289931E-05
    50 -2.311973142E-04
    51 -2.657067121E-02
    52 -2.250869433E-02
    53 -9.698238071E-05
    54  9.887963130E-04
    55 -9.436381995E-02
    56 -5.534538963E-02
    57 -1.629417550E-03
    58 -2.136370378E-05
    59 -5.897186604E-03
    60  5.148630000E-03
    61  8.235924598E-05
    62 -2.288199853E-05
    63  8.635706931E-02
    64 -6.399121402E-01
    65 -7.046776964E-01
    66 -3.504560408E-02
    67 -5.293820128E-03
    68 -8.572191653E-03
    69  3.450422033E-03
    70  7.695941635E-03
    71 -5.123414519E-03
    72  2.487088130E-02
    73 -1.301890268E-03
    74  8.200412463E-03
    75 -6.569909748E-03
    76  1.321657603E-01
    77  2.106331076E-02
    78  5.926592265E-02
    79 -4.008699045E-02
    80 -2.303949800E-03
    81  2.022460009E-03
    82 -1.953114621E-03
    83  2.382463394E-03
    84  8.080131768E-03
    85 -2.218993996E+00
    86  2.817586203E-01
    87  1.270672213E+00
    88 -9.108443844E-01
    89 -6.340891931E-04
    90 -1.084375375E-03
    91 -2.683196328E-02
    92 -1.682868264E-02
    93 -1.281545717E-02
    94  4.559603772E-03
    95 -3.561189706E-02
    96 -2.260902459E-02
    97 -1.928856589E-02
    98 -1.051088956E-02
    99 -1.192525264E-01
   100 -4.603559329E-02
   101 -3.871245151E-02
   102 -3.040510418E-04
   103 -3.080931343E-03
   104  7.769188144E-03
   105 -1.480731618E-03
   106 -2.072890293E-05
   107 -2.048832007E+00
   108 -1.424773900E+00
   109 -5.190450491E-02
   110 -6.643017860E-01
   111 -2.287937323E-05
   112 -4.040070429E-05
   113 -4.347817102E-02
   114 -1.207715733E-03
   115 -8.190260199E-05
   116  2.126088100E-04
   117 -5.987251151E-02
   118 -2.788487418E-04
   119 -8.399011133E-05
   120 -1.033837019E-03
   121 -1.592390112E-01
   122 -1.164287558E-02
   123 -1.639611194E-03
   124  2.139146119E-05
   125 -8.496233017E-03
   126  4.494132274E-03
   127  8.234748010E-05
   128 -2.204837594E-05
   129 -8.146388238E-02
   130 -1.795656714E+00
   131  4.867642541E-02
   132 -3.306290343E-02
   133 -1.220414791E-02
   134 -1.976321935E-02
   135  1.852237260E-02
   136 -2.198134941E-03
   137  1.168294527E-02
   138  5.729484074E-02
   139  1.781062239E-02
   140 -4.276886562E-03
   141  1.471357766E-02
   142  3.060430759E-01
   143  1.393292389E-01
   144 -1.898900790E-02
   145  9.153294062E-02
   146 -4.733758278E-03
   147  3.424424512E-03
   148 -1.613373911E-03
   149  2.155851404E-03
   150  3.277610181E-03
   151 -5.097373126E+00
   152  2.921233745E+00
   153 -4.889670399E-01
   154  2.055274904E+00
   155  1.567445578E-03
   156  2.692658360E-03
   157 -1.098203202E-02
   158  6.299453273E-03
   159  4.033549835E-03
   160 -1.150340014E-02
   161 -1.409822368E-02
   162  8.741818853E-03
   163  6.242183604E-03
   164  2.785162848E-02
   165 -9.569859860E-02
   166 -1.385568409E-02
   167  1.056670013E-02
   168  7.393889359E-04
   169  6.342937143E-04
   170 -6.102788000E-03
   171 -1.038519366E-04
   172 -1.296229833E-03
   173  5.589210421E+00
   174 -1.973363606E+00
   175 -8.940500087E-01
   176  2.294651331E-01
   177  5.577715934E-03
   178  9.032948517E-03
   179  3.533849543E-03
   180  8.075960230E-03
   181  5.465800924E-03
   182 -2.623045627E-02
   183 -1.257439215E-03
   184  8.699312896E-03
   185  6.823283468E-03
   186 -1.391174472E-01
   187  2.271576939E-02
   188  6.231952722E-02
   189  4.262169691E-02
   190  2.072746863E-03
   191  2.033071699E-03
   192 -1.996498982E-03
   193 -2.283904380E-03
   194 -8.108749196E-03
   195  2.370639801E+00
   196  3.053129717E-01
   197  1.330994782E+00
   198  9.709969919E-01
   199  6.421743175E-04
   200  1.095939611E-03
   201 -2.651035845E-02
   202 -1.657444457E-02
   203  1.179571122E-02
   204 -4.554780722E-03
   205 -3.513884064E-02
   206 -2.227209966E-02
   207  1.793989599E-02
   208  9.747373029E-03
   209 -1.179712168E-01
   210 -4.535970638E-02
   211  3.486792052E-02
   212  2.971025085E-04
   213 -3.070935314E-03
   214  7.727408453E-03
   215  1.220912605E-03
   216  1.060705479E-04
   217  1.942629974E+00
   218 -1.383241564E+00
   219 -5.518679876E-02
   220  6.212801641E-01
   221 -4.263286415E-03
   222  2.539162230E-04
   223  1.498554573E-01
   224  3.972332143E-03
   225 -2.209739684E-03
   226 -2.364372337E-03
   227  1.380331843E+00
   228  1.305134061E-03
   229 -6.671729768E-03
   230  3.883113009E-01
   231  5.866937927E-03
   232 -3.225521133E-03
   233 -5.369379919E-03
   234  1.852054805E+00
   235 -5.698424401E-04
   236 -4.386014982E-03
   237  3.014431735E-01
   238  3.008520346E-03
   239 -2.514044495E-03
   240 -6.036470932E-03
   241  1.567416381E+00
   242 -2.366362274E-03
   243  4.453353001E-03
   244 -2.520804253E-01
   245 -1.955963686E-03
   246  3.328882938E-03
   247 -5.405736245E-03
   248 -1.076910269E+00
   249  9.240573144E-03
   250 -1.084401515E-03
   251 -3.194801040E-01
   252 -2.887620196E-03
   253  2.426309129E-03
   254 -5.249660517E-03
   255 -2.992032289E+00
   256  4.887377959E-04
   257 -2.882829080E-03
   258  1.754945519E-01
   259 -4.309882067E-03
   260  3.630618542E-03
   261  2.415259250E-03
   262  8.500961668E-01
   263 -4.194537414E-03
   264  3.303433117E-03
   265 -5.144111087E-02
   266 -1.534054402E-03
   267 -3.945377900E-04
   268 -1.372554123E-03
   269  1.704448301E-01
   270 -3.614747227E-03
   271 -8.911738779E-04
   272  1.500315479E-01
   273  1.636360425E-03
   274 -1.327464078E-05
   275 -2.920057044E-03
   276  1.132218441E+00
   277  4.038145868E-03
   278 -8.426642391E-05
   279 -1.437666306E-01
   280  4.002245369E-03
   281 -2.037024666E-03
   282  2.388716409E-03
   283 -1.310277314E+00
   284 -1.186562133E-03
   285  6.738445395E-03
   286 -3.911791269E-01
   287  5.905384747E-03
   288 -3.226801236E-03
   289  5.369778030E-03
   290 -1.872274599E+00
   291  5.462627307E-04
   292  4.463697048E-03
   293 -3.082340770E-01
   294  3.234174204E-03
   295 -2.512529391E-03
   296  6.058898199E-03
   297 -1.622235641E+00
   298  2.416984483E-03
   299 -4.844763735E-03
   300  2.656223045E-01
   301 -1.874004245E-03
   302  3.538321307E-03
   303  5.440270872E-03
   304  1.121685886E+00
   305 -9.019387278E-03
   306  9.684797957E-04
   307  3.128672089E-01
   308 -2.714057355E-03
   309  2.396980151E-03
   310  5.275194240E-03
   311  2.919922606E+00
   312 -6.111728782E-04
   313  2.833579807E-03
   314 -1.729308395E-01
   315 -4.308528072E-03
   316  3.588792797E-03
   317 -2.414190700E-03
   318 -8.278983363E-01
   319  4.208385747E-03
   320 -3.243339327E-03
   321  5.648978445E-02
   322 -1.533229011E-03
   323 -6.171354624E-04
   324  1.392827976E-03
   325 -1.276585353E-01
   326  3.576079480E-03
   327  1.154038834E-03
   328 -1.614601840E-01
   329  1.843076007E-03
   330 -9.267755797E-05
   331  2.950615110E-03
   332 -1.165739530E+00
Ene=    3.3083036900E-02
Spin= Alpha
Occup=   0.0000000
     1 -6.862020846E-05
     2 -1.059741030E-04
     3 -3.311846348E-03
     4 -1.913079779E-02
     5  2.019306731E-04
     6  1.415873768E-04
     7 -4.717280130E-03
     8 -2.725125533E-02
     9  2.201242603E-04
    10  4.046886737E-03
    11 -2.775523528E-02
    12 -1.652144206E-01
    13  1.047716154E-03
    14  4.067248171E-05
    15 -4.329308031E-04
    16 -2.672733655E-03
    17 -9.201997511E-04
    18 -2.736226804E-03
    19  1.424167318E-01
    20 -3.667057809E-02
    21 -3.257431347E-01
    22  1.300643495E-02
    23  1.310890793E-02
    24  2.087913841E-02
    25  1.678612867E-02
    26  1.202676755E-02
    27 -1.567338943E-04
    28 -5.173364141E-02
    29  3.460313117E-02
    30  2.493767426E-02
    31 -2.914291405E-04
    32 -3.272176681E-01
    33 -5.016923415E-02
    34 -3.775448890E-02
    35 -8.460219655E-04
    36  1.996071492E-03
    37 -7.779614026E-04
    38  1.043269850E-03
    39  5.686572610E-04
    40  1.707815161E-03
    41 -3.096675282E+00
    42  4.090522702E-01
    43  2.836078640E-01
    44 -4.422080171E-03
    45  4.177439390E-05
    46  6.386045253E-05
    47 -3.858950422E-06
    48 -5.791700770E-06
    49 -9.292280744E-05
    50 -8.377151389E-05
    51 -5.350225504E-06
    52 -2.544667835E-05
    53 -1.091118863E-04
    54 -2.098596638E-03
    55 -7.348716068E-05
    56  1.189129073E-04
    57  1.868101948E-04
    58 -3.298731232E-05
    59  2.421527852E-06
    60  2.433222408E-06
    61  1.723551878E-03
    62  4.959728335E-03
    63 -2.179214542E-01
    64 -2.258808618E-03
    65  1.667724934E-03
    66  4.167626633E-02
    67  6.305752198E-05
    68  9.674186848E-05
    69  1.913246603E-02
    70 -3.303889618E-03
    71  1.940931575E-04
    72 -1.186128543E-04
    73  2.725607628E-02
    74 -4.713582945E-03
    75  2.293978573E-04
    76 -3.702508013E-03
    77  1.652123316E-01
    78 -2.777671716E-02
    79  7.585865475E-04
    80 -4.168738411E-05
    81 -2.668365708E-03
    82  4.394512199E-04
    83 -9.186857612E-04
    84 -2.733871053E-03
    85 -1.010190627E-01
    86  3.253280599E-01
    87 -4.210324420E-02
    88  1.479176366E-02
    89 -1.310977646E-02
    90 -2.088071166E-02
    91 -1.203376520E-02
    92  1.678085895E-02
    93 -1.549587750E-04
    94  5.172926541E-02
    95 -2.495455873E-02
    96  3.460050884E-02
    97 -3.178111964E-04
    98  3.274429032E-01
    99  3.775664021E-02
   100 -5.044371728E-02
   101 -5.316534178E-04
   102 -2.000105179E-03
   103  1.044711347E-03
   104  7.751789301E-04
   105  5.657824946E-04
   106  1.708253280E-03
   107  3.094812019E+00
   108 -2.813160878E-01
   109  4.079350687E-01
   110 -1.090639379E-03
   111 -4.268704439E-05
   112 -6.684158277E-05
   113 -6.687599029E-06
   114 -6.351432324E-06
   115 -9.380661598E-05
   116  1.316547452E-04
   117 -2.729306374E-06
   118  8.927530839E-06
   119 -1.206813519E-04
   120  1.652657251E-03
   121 -1.164408114E-04
   122 -2.845515979E-04
   123  1.347479404E-04
   124  3.380466218E-05
   125 -3.853388450E-06
   126 -3.182048317E-06
   127  1.724223716E-03
   128  4.959492157E-03
   129  1.780189703E-01
   130 -1.026587453E-03
   131 -1.233241892E-03
   132  3.249638794E-02
   133 -7.170205374E-05
   134 -1.107171001E-04
   135  3.316916832E-03
   136  1.913258997E-02
   137  2.049892169E-04
   138  1.433388472E-04
   139  4.738655840E-03
   140  2.724847222E-02
   141  2.330051915E-04
   142  4.122044562E-03
   143  2.760172930E-02
   144  1.652427211E-01
   145  8.662694059E-04
   146  3.941341661E-05
   147  4.289638640E-04
   148  2.668877798E-03
   149 -9.235457221E-04
   150 -2.731530905E-03
   151  1.593674852E-01
   152  3.171640637E-02
   153  3.325740157E-01
   154  1.352484478E-02
   155  1.310866332E-02
   156  2.087655639E-02
   157 -1.677846934E-02
   158 -1.202751081E-02
   159 -1.553159395E-04
   160 -5.165952390E-02
   161 -3.459207420E-02
   162 -2.493571699E-02
   163 -3.080996408E-04
   164 -3.280923526E-01
   165  5.049033542E-02
   166  3.790952875E-02
   167 -6.177488846E-04
   168  2.000446005E-03
   169  7.776393366E-04
   170 -1.043893805E-03
   171  5.648079231E-04
   172  1.703102026E-03
   173 -3.136656527E+00
   174 -4.020490236E-01
   175 -2.778350398E-01
   176 -4.483964975E-03
   177  7.449876028E-05
   178  1.143562947E-04
   179 -1.913165072E-02
   180  3.322682215E-03
   181  2.047518719E-04
   182 -1.274482418E-04
   183 -2.724620082E-02
   184  4.740385602E-03
   185  2.514239145E-04
   186 -4.642719120E-03
   187 -1.652213995E-01
   188  2.768384543E-02
   189  6.186321921E-04
   190 -3.980975593E-05
   191  2.670957166E-03
   192 -4.370220821E-04
   193 -9.248983537E-04
   194 -2.733701392E-03
   195 -1.635715432E-01
   196 -3.293997261E-01
   197  3.439204770E-02
   198  5.928637509E-03
   199 -1.311152026E-02
   200 -2.088291413E-02
   201  1.202167924E-02
   202 -1.678903920E-02
   203 -1.552100294E-04
   204  5.173136213E-02
   205  2.492868933E-02
   206 -3.459874001E-02
   207 -2.834423978E-04
   208  3.274972393E-01
   209 -3.798545321E-02
   210  5.023849176E-02
   211 -9.007509874E-04
   212 -2.000041021E-03
   213 -1.037116883E-03
   214 -7.745765267E-04
   215  5.709681376E-04
   216  1.706548683E-03
   217  3.139624457E+00
   218  2.773993402E-01
   219 -4.009064938E-01
   220 -4.901167382E-03
   221 -5.419617565E-05
   222 -9.959024735E-05
   223  4.984457125E-03
   224 -4.705508879E-03
   225  7.305353707E-04
   226  1.438411773E-05
   227  1.858638540E-02
   228  2.170104202E-05
   229  1.868423675E-04
   230 -3.644182334E-03
   231  5.694320405E-04
   232  3.598452974E-03
   233 -4.264656908E-06
   234 -1.156018286E-03
   235  5.813425385E-03
   236  1.174580676E-02
   237 -1.583979927E-01
   238 -3.682922232E-03
   239  1.862634168E-03
   240  4.466379601E-03
   241 -1.683474714E+00
   242  5.834445046E-03
   243  1.200327350E-02
   244 -1.601445802E-01
   245 -6.269475056E-04
   246  4.102434632E-03
   247 -4.446624216E-03
   248 -1.690030734E+00
   249  4.882277340E-05
   250  1.317629029E-04
   251 -5.175326166E-03
   252  7.282047956E-04
   253  4.708828718E-03
   254  1.455381193E-05
   255 -1.901429361E-02
   256 -1.639501054E-05
   257 -2.303417193E-04
   258  4.704422536E-03
   259  3.597073645E-03
   260 -5.705987290E-04
   261 -2.842559163E-06
   262  3.983586835E-04
   263 -5.817393493E-03
   264 -1.169021207E-02
   265  1.577117325E-01
   266  1.864197638E-03
   267  3.679139149E-03
   268  4.463133344E-03
   269  1.684052485E+00
   270 -5.837947819E-03
   271 -1.197166670E-02
   272  1.596432804E-01
   273  4.096014589E-03
   274  6.305094216E-04
   275 -4.442886139E-03
   276  1.691355940E+00
   277 -5.087446886E-05
   278 -8.712381502E-05
   279  4.026959482E-03
   280  4.703555081E-03
   281 -7.328501518E-04
   282  1.991960670E-05
   283  1.891215638E-02
   284  1.836773811E-05
   285  2.047975904E-04
   286 -3.958679550E-03
   287 -5.677859234E-04
   288 -3.598538934E-03
   289 -8.128835619E-07
   290 -3.503931676E-03
   291  5.822470515E-03
   292  1.159164011E-02
   293 -1.566695221E-01
   294  3.682239495E-03
   295 -1.864937347E-03
   296  4.464882963E-03
   297 -1.680684903E+00
   298  5.839973069E-03
   299  1.193590822E-02
   300 -1.591547884E-01
   301  6.277326502E-04
   302 -4.099739516E-03
   303 -4.444432480E-03
   304 -1.690593466E+00
   305  4.842259489E-05
   306  1.016977120E-04
   307 -4.896653070E-03
   308 -7.307782062E-04
   309 -4.701182543E-03
   310  1.465609526E-05
   311 -2.165989967E-02
   312 -1.585830659E-05
   313 -2.490549213E-04
   314  5.105263278E-03
   315 -3.599424994E-03
   316  5.732521590E-04
   317 -6.415652209E-06
   318  2.467583790E-03
   319 -5.817302620E-03
   320 -1.166812260E-02
   321  1.574409472E-01
   322 -1.867746632E-03
   323 -3.682336774E-03
   324  4.465228227E-03
   325  1.685337649E+00
   326 -5.838874224E-03
   327 -1.194301392E-02
   328  1.591231128E-01
   329 -4.102297791E-03
   330 -6.299278703E-04
   331 -4.443998215E-03
   332  1.690500038E+00
Ene=    3.3123926678E-02
Spin= Alpha
Occup=   0.0000000
     1  1.782446573E-07
     2 -4.191441228E-07
     3 -1.103406407E-02
     4  1.724322962E-03
     5 -1.580995130E-02
     6  6.702253761E-06
     7 -1.577429551E-02
     8  2.435278427E-03
     9 -2.257536797E-02
    10 -3.152657885E-04
    11 -9.450804582E-02
    12  1.564725747E-02
    13 -1.353705293E-01
    14  2.891893397E-03
    15  1.545045186E-03
    16 -2.764561278E-04
    17  2.098670189E-03
    18 -7.297074475E-04
    19  1.299482451E-02
    20 -1.638453046E-01
    21  5.178654134E-02
    22 -2.421495397E-01
    23  7.572259722E-03
    24  1.206297881E-02
    25  9.859599098E-03
    26  6.841981344E-03
    27  7.267169398E-05
    28 -2.994545622E-02
    29  2.017081942E-02
    30  1.428830611E-02
    31  3.589327805E-05
    32 -1.886250209E-01
    33 -2.804942641E-02
    34 -2.167007649E-02
    35  7.204507713E-04
    36 -4.106890839E-03
    37 -4.253782540E-04
    38  6.428268896E-04
    39 -6.401598413E-04
    40 -1.886946276E-03
    41 -1.697394698E+00
    42  2.577371525E-01
    43  1.708678582E-01
    44  3.013965097E-02
    45 -1.514186583E-02
    46 -2.412358507E-02
    47  7.833018450E-07
    48 -1.193182911E-05
    49  2.394717174E-02
    50  5.993635133E-02
    51 -3.493409848E-06
    52 -4.646259201E-05
    53  4.939957712E-02
    54  3.767263682E-01
    55 -4.693740859E-05
    56  1.052451249E-04
    57 -7.167522538E-02
    58 -6.426414065E-04
    59  3.707057003E-06
    60  2.025366852E-06
    61 -1.426966051E-03
    62  5.194571421E-04
    63  3.396915265E+00
    64 -5.983265657E-04
    65  5.793990099E-03
    66  6.123388971E-01
    67 -8.142061998E-06
    68 -1.257532681E-05
    69  1.724875836E-03
    70  1.104860352E-02
    71  1.580011781E-02
    72 -1.004471616E-05
    73  2.443455770E-03
    74  1.580264202E-02
    75  2.255500751E-02
    76  5.258649521E-04
    77  1.547143120E-02
    78  9.417860993E-02
    79  1.355865361E-01
    80  2.890288961E-03
    81  2.724972606E-04
    82  1.558906255E-03
    83 -2.090676562E-03
    84  7.222581743E-04
    85  9.798460781E-02
    86  4.924095878E-02
    87  1.540204340E-01
    88  2.538313003E-01
    89  7.572079157E-03
    90  1.205969935E-02
    91  6.842314178E-03
    92 -9.850888530E-03
    93 -6.967658145E-05
    94 -2.984766594E-02
    95  1.429281674E-02
    96 -2.014842331E-02
    97 -4.132122110E-05
    98 -1.898248095E-01
    99 -2.202250855E-02
   100  2.835534002E-02
   101 -5.164922495E-04
   102 -4.103624566E-03
   103 -6.373847432E-04
   104 -4.295441877E-04
   105  6.385593953E-04
   106  1.895711560E-03
   107 -1.756672980E+00
   108  1.607401527E-01
   109 -2.486281948E-01
   110 -2.692252446E-02
   111 -1.514220486E-02
   112 -2.412530278E-02
   113  4.793982784E-06
   114 -1.522159204E-05
   115 -2.395017601E-02
   116  5.997780328E-02
   117  1.248885670E-05
   118  1.497678813E-05
   119 -4.940047616E-02
   120  3.761993620E-01
   121 -8.063825700E-05
   122 -5.890620590E-04
   123  7.143376627E-02
   124 -6.461586800E-04
   125 -2.037703136E-07
   126 -8.412311436E-06
   127  1.428487750E-03
   128 -5.185693886E-04
   129  3.384556882E+00
   130 -5.047895365E-04
   131 -3.153671177E-03
   132 -6.153264083E-01
   133  3.274352963E-06
   134  5.322652913E-06
   135  1.103035528E-02
   136 -1.721181126E-03
   137 -1.581311136E-02
   138 -3.128367988E-05
   139  1.576854736E-02
   140 -2.432993067E-03
   141 -2.258582143E-02
   142 -1.368431258E-04
   143  9.443436278E-02
   144 -1.553249869E-02
   145 -1.354198776E-01
   146  2.893848706E-03
   147 -1.550381256E-03
   148  2.676077251E-04
   149  2.097876560E-03
   150 -7.231757249E-04
   151  3.026005391E-02
   152  1.613009075E-01
   153 -5.320325824E-02
   154 -2.422343319E-01
   155  7.572592650E-03
   156  1.206013797E-02
   157 -9.835680306E-03
   158 -6.862631281E-03
   159  6.563095158E-05
   160 -2.983854791E-02
   161 -2.014462976E-02
   162 -1.430062523E-02
   163  2.411586890E-06
   164 -1.899695397E-01
   165  2.872327722E-02
   166  2.162853275E-02
   167  1.004807948E-03
   168 -4.102914313E-03
   169  4.258551597E-04
   170 -6.382096371E-04
   171 -6.520297545E-04
   172 -1.891709265E-03
   173 -1.755825810E+00
   174 -2.445666361E-01
   175 -1.677459103E-01
   176  3.294471367E-02
   177  1.084159655E-05
   178  1.678293085E-05
   179 -1.720203223E-03
   180 -1.101855742E-02
   181  1.582138621E-02
   182 -2.999001716E-05
   183 -2.432497558E-03
   184 -1.574500739E-02
   185  2.259921631E-02
   186 -7.800356437E-04
   187 -1.548745185E-02
   188 -9.451522168E-02
   189  1.352937171E-01
   190  2.892964968E-03
   191 -2.695625357E-04
   192 -1.549195871E-03
   193 -2.101870770E-03
   194  7.299592919E-04
   195 -1.246394437E-02
   196 -5.237483385E-02
   197 -1.675469820E-01
   198  2.375499663E-01
   199  7.572460968E-03
   200  1.206244702E-02
   201 -6.856886388E-03
   202  9.847029624E-03
   203 -7.203533664E-05
   204 -2.992016805E-02
   205 -1.430587147E-02
   206  2.015683803E-02
   207 -1.029056035E-05
   208 -1.889092222E-01
   209  2.150402410E-02
   210 -2.832237706E-02
   211 -9.754416355E-04
   212 -4.107781993E-03
   213  6.380249578E-04
   214  4.255484762E-04
   215  6.471111076E-04
   216  1.885165681E-03
   217 -1.709918350E+00
   218 -1.706579973E-01
   219  2.543324894E-01
   220 -3.361647913E-02
   221  6.896234013E-06
   222 -1.529042762E-06
   223  2.629623831E-04
   224 -4.430531305E-04
   225 -2.710805688E-03
   226  3.878711023E-03
   227 -3.954069176E-03
   228  6.746286481E-03
   229  1.323975500E-02
   230 -1.767409459E-01
   231 -5.125029930E-03
   232  8.646423226E-04
   233  4.277108717E-03
   234 -1.950047092E+00
   235 -3.363093203E-03
   236 -6.337346490E-03
   237  8.496610606E-02
   238  4.521131320E-03
   239  6.522083173E-04
   240  4.208530008E-04
   241  9.573904877E-01
   242 -3.351046399E-03
   243 -6.760296985E-03
   244  9.297034160E-02
   245 -2.046065961E-03
   246 -4.128955038E-03
   247 -3.696068415E-04
   248  9.970497250E-01
   249  8.715965684E-06
   250  1.201310495E-05
   251 -5.148049947E-04
   252  2.710036893E-03
   253 -4.385275405E-04
   254 -3.880634216E-03
   255 -3.366702318E-03
   256  6.744217538E-03
   257  1.329113556E-02
   258 -1.772034129E-01
   259 -8.640479950E-04
   260 -5.121515352E-03
   261 -4.271628506E-03
   262 -1.953331831E+00
   263 -3.360920401E-03
   264 -6.390739357E-03
   265  8.568341901E-02
   266 -6.545455144E-04
   267  4.518359309E-03
   268 -4.210111266E-04
   269  9.599998992E-01
   270 -3.350560297E-03
   271 -6.792482517E-03
   272  9.314238529E-02
   273  4.123685415E-03
   274 -2.047235497E-03
   275  3.744314379E-04
   276  9.959011112E-01
   277  9.642187699E-06
   278  8.484796515E-05
   279 -1.715891752E-03
   280  4.402643335E-04
   281  2.703098046E-03
   282  3.889372799E-03
   283 -9.613550938E-04
   284  6.746212467E-03
   285  1.324782191E-02
   286 -1.767482402E-01
   287  5.122591796E-03
   288 -8.662330382E-04
   289  4.275087271E-03
   290 -1.949940908E+00
   291 -3.363649127E-03
   292 -6.385826950E-03
   293  8.559752932E-02
   294 -4.515504542E-03
   295 -6.565988039E-04
   296  4.247158099E-04
   297  9.578288990E-01
   298 -3.348937059E-03
   299 -6.801521561E-03
   300  9.347644045E-02
   301  2.046464937E-03
   302  4.127467395E-03
   303 -3.705443784E-04
   304  9.964274662E-01
   305  1.544768968E-05
   306 -2.575767733E-05
   307 -2.624641070E-07
   308 -2.707930690E-03
   309  4.438935655E-04
   310 -3.882086076E-03
   311 -3.560379126E-03
   312  6.747608641E-03
   313  1.319308624E-02
   314 -1.761413343E-01
   315  8.665820997E-04
   316  5.123202877E-03
   317 -4.276790930E-03
   318 -1.946860945E+00
   319 -3.367093349E-03
   320 -6.337449786E-03
   321  8.465259128E-02
   322  6.531673021E-04
   323 -4.520036850E-03
   324 -4.226512618E-04
   325  9.573139998E-01
   326 -3.351217281E-03
   327 -6.741496132E-03
   328  9.271899425E-02
   329 -4.133876029E-03
   330  2.044317471E-03
   331  3.673185005E-04
   332  9.972652890E-01
Ene=    5.5597462225E-02
Spin= Alpha
Occup=   0.0000000
     1  6.062099919E-03
     2  9.643650622E-03
     3  1.970331136E-02
     4 -3.358246130E-03
     5 -1.407387316E-02
     6 -2.663439626E-02
     7  2.428216378E-02
     8 -4.182409755E-03
     9 -1.734846408E-02
    10 -3.614627340E-02
    11  1.434355026E-01
    12 -2.364198489E-02
    13 -1.024372217E-01
    14 -3.347528244E-06
    15 -3.878747800E-03
    16  5.773043026E-04
    17  2.616450638E-03
    18 -9.521479171E-04
    19 -5.600232015E+00
    20  1.283107781E+00
    21 -2.163422952E-01
    22 -9.161096515E-01
    23 -7.798383008E-03
    24 -1.274962918E-02
    25 -1.333634323E-02
    26 -1.008162223E-02
    27  2.190490771E-04
    28  4.110311243E-02
    29 -1.303259102E-02
    30 -9.944118945E-03
    31  2.668561553E-04
    32  4.205414604E-02
    33 -1.588589512E-01
    34 -1.172293785E-01
    35  1.803400056E-03
    36 -3.270851011E-03
    37 -1.234563092E-03
    38  1.751587747E-03
    39  1.821455018E-03
    40  5.375864187E-03
    41  3.785348314E+00
    42 -4.134680188E-01
    43 -3.234417344E-01
    44  3.628551803E-03
    45 -7.779597734E-03
    46 -1.272445553E-02
    47 -4.713871818E-06
    48 -1.618000269E-06
    49  1.669282930E-02
    50  4.117254128E-02
    51  2.657442315E-05
    52  8.494011094E-06
    53  1.633891710E-02
    54  3.993888508E-02
    55 -5.045654874E-04
    56 -3.219494364E-05
    57  1.987847984E-01
    58  6.535678934E-03
    59  8.014638611E-06
    60  1.457668072E-06
    61  2.039513041E-03
    62 -6.456899166E-04
    63  3.617199315E+00
    64 -3.971949824E-03
    65 -1.568907830E-03
    66  5.604033208E-01
    67  6.087652709E-03
    68  9.681894096E-03
    69 -3.355927048E-03
    70 -1.971087038E-02
    71  1.411183686E-02
    72 -2.663061914E-02
    73 -4.152873746E-03
    74 -2.429780204E-02
    75  1.738976158E-02
    76 -3.835034826E-02
    77 -2.398316672E-02
    78 -1.428292698E-01
    79  1.025408490E-01
    80  7.992780552E-06
    81 -5.872867291E-04
    82 -3.889133099E-03
    83 -2.616432127E-03
    84  9.512905190E-04
    85 -5.745354103E+00
    86 -2.192538828E-01
    87 -1.263703700E+00
    88  9.064399995E-01
    89 -7.798615867E-03
    90 -1.275121207E-02
    91 -1.002962958E-02
    92  1.337868114E-02
    93 -1.776649183E-04
    94  4.114220561E-02
    95 -9.971780302E-03
    96  1.303462941E-02
    97 -2.333885093E-04
    98  4.152105789E-02
    99 -1.160966267E-01
   100  1.599614155E-01
   101 -1.996658773E-03
   102 -3.273143249E-03
   103 -1.747823769E-03
   104 -1.227365516E-03
   105 -1.802566448E-03
   106 -5.379635085E-03
   107  3.735373365E+00
   108 -3.096252003E-01
   109  4.387020784E-01
   110 -1.078661199E-03
   111 -7.820907079E-03
   112 -1.278391995E-02
   113  2.177471033E-05
   114 -3.894870534E-06
   115 -1.669222181E-02
   116  4.113483343E-02
   117  1.401336746E-05
   118 -1.305561955E-06
   119 -1.634387341E-02
   120  4.357769489E-02
   121  2.512753065E-04
   122 -1.115548789E-04
   123 -1.971263678E-01
   124  6.547067987E-03
   125  1.134804029E-06
   126 -1.712700742E-06
   127 -2.055959872E-03
   128  6.572559276E-04
   129  3.844685135E+00
   130  3.902813312E-03
   131 -3.464837243E-03
   132 -5.126115782E-01
   133  6.042290218E-03
   134  9.613282592E-03
   135 -1.967662711E-02
   136  3.351467693E-03
   137 -1.406179464E-02
   138 -2.661904510E-02
   139 -2.422545643E-02
   140  4.173020848E-03
   141 -1.731059693E-02
   142 -3.464394924E-02
   143 -1.437855730E-01
   144  2.378612658E-02
   145 -1.028695797E-01
   146 -1.456522498E-07
   147  3.868089838E-03
   148 -5.770214136E-04
   149  2.606583320E-03
   150 -9.495396465E-04
   151 -5.480533341E+00
   152 -1.298335213E+00
   153  2.203163343E-01
   154 -9.324850630E-01
   155 -7.789427862E-03
   156 -1.273808743E-02
   157  1.334949911E-02
   158  1.008356211E-02
   159  2.066270287E-04
   160  4.114763620E-02
   161  1.306604158E-02
   162  9.943400973E-03
   163  2.692255709E-04
   164  4.073264330E-02
   165  1.592030544E-01
   166  1.178006062E-01
   167  1.358485548E-03
   168 -3.266243073E-03
   169  1.234250245E-03
   170 -1.742028619E-03
   171  1.825099970E-03
   172  5.367174402E-03
   173  3.704055803E+00
   174  4.245645709E-01
   175  3.341992588E-01
   176  1.361539521E-03
   177  6.089622707E-03
   178  9.685175945E-03
   179  3.367184383E-03
   180  1.971147840E-02
   181  1.411306000E-02
   182 -2.663966157E-02
   183  4.176082932E-03
   184  2.431333819E-02
   185  1.739202050E-02
   186 -3.832750204E-02
   187  2.400758634E-02
   188  1.426341895E-01
   189  1.024393381E-01
   190  7.525229816E-06
   191  5.889532810E-04
   192  3.894657238E-03
   193 -2.618275882E-03
   194  9.580441200E-04
   195 -5.767906599E+00
   196  2.246763377E-01
   197  1.257058329E+00
   198  9.067558927E-01
   199 -7.789061019E-03
   200 -1.273740868E-02
   201  1.004363679E-02
   202 -1.337271349E-02
   203 -1.991191565E-04
   204  4.114194920E-02
   205  1.000405623E-02
   206 -1.302243706E-02
   207 -2.264930075E-04
   208  4.082463517E-02
   209  1.160816546E-01
   210 -1.603918703E-01
   211 -2.581044927E-03
   212 -3.270832936E-03
   213  1.747911181E-03
   214  1.216660204E-03
   215 -1.797231787E-03
   216 -5.379673321E-03
   217  3.669996396E+00
   218  3.177260504E-01
   219 -4.486918116E-01
   220 -7.804607226E-03
   221  3.660157879E-03
   222 -8.642074181E-03
   223  5.717018897E-01
   224 -1.120970228E-03
   225 -6.729146892E-03
   226 -4.816834402E-03
   227  4.017641810E+00
   228 -1.876806917E-03
   229 -1.341396973E-02
   230 -2.656909070E-01
   231 -7.108104175E-03
   232  1.171184887E-03
   233 -1.380358947E-03
   234 -1.279904142E+00
   235 -1.918152077E-03
   236 -1.402878007E-02
   237 -2.639444443E-01
   238 -3.341470202E-03
   239 -4.096181444E-03
   240  5.126912830E-03
   241 -1.281240056E+00
   242 -1.813827760E-03
   243 -1.320329912E-02
   244 -2.596285122E-01
   245  4.949092827E-03
   246  1.825097062E-03
   247 -5.071731963E-03
   248 -1.262492227E+00
   249  3.651390771E-03
   250 -8.431325424E-03
   251  5.669571626E-01
   252  6.698443350E-03
   253 -1.120564238E-03
   254  4.815869758E-03
   255  4.018657898E+00
   256 -1.866298460E-03
   257 -1.375155085E-02
   258 -2.609788422E-01
   259 -1.172475638E-03
   260 -7.098570716E-03
   261  1.386744515E-03
   262 -1.266365389E+00
   263 -1.934163234E-03
   264 -1.391763442E-02
   265 -2.669729963E-01
   266  4.099391947E-03
   267 -3.346549413E-03
   268 -5.132301367E-03
   269 -1.290169646E+00
   270 -1.806486171E-03
   271 -1.322649751E-02
   272 -2.591055650E-01
   273 -1.818155747E-03
   274  4.948635519E-03
   275  5.069249602E-03
   276 -1.247739973E+00
   277  3.657183244E-03
   278 -8.583455385E-03
   279  5.713945552E-01
   280  1.131090221E-03
   281  6.723057063E-03
   282 -4.813644582E-03
   283  4.019233997E+00
   284 -1.873114726E-03
   285 -1.342176516E-02
   286 -2.645843319E-01
   287  7.103842239E-03
   288 -1.172281163E-03
   289 -1.382209397E-03
   290 -1.270930874E+00
   291 -1.920131788E-03
   292 -1.393612382E-02
   293 -2.646511129E-01
   294  3.340708682E-03
   295  4.096458509E-03
   296  5.126679139E-03
   297 -1.278312049E+00
   298 -1.819349523E-03
   299 -1.307433241E-02
   300 -2.614696951E-01
   301 -4.950832864E-03
   302 -1.830830684E-03
   303 -5.074879358E-03
   304 -1.269590797E+00
   305  3.654186942E-03
   306 -8.498319151E-03
   307  5.685849266E-01
   308 -6.706461925E-03
   309  1.120945868E-03
   310  4.827515273E-03
   311  4.017699029E+00
   312 -1.871439079E-03
   313 -1.371825861E-02
   314 -2.616678916E-01
   315  1.172452623E-03
   316  7.100636507E-03
   317  1.386264995E-03
   318 -1.269499577E+00
   319 -1.941011088E-03
   320 -1.379515546E-02
   321 -2.683632093E-01
   322 -4.097166769E-03
   323  3.347139806E-03
   324 -5.136065541E-03
   325 -1.294007229E+00
   326 -1.813157779E-03
   327 -1.306602077E-02
   328 -2.604063785E-01
   329  1.818990816E-03
   330 -4.950497682E-03
   331  5.067928026E-03
   332 -1.249623915E+00
Ene=    6.3050771518E-02
Spin= Alpha
Occup=   0.0000000
     1 -5.848034190E-03
     2 -9.119777973E-03
     3 -7.539198436E-04
     4 -6.457100452E-04
     5  1.073817969E-02
     6  1.536876773E-02
     7 -6.091764416E-04
     8 -4.680033893E-04
     9  1.103816163E-02
    10  3.097879794E-01
    11  3.300215975E-02
    12 -1.311792232E-02
    13  4.173391107E-02
    14 -3.510293569E-03
    15 -2.065970297E-03
    16  1.548347219E-04
    17 -2.117895415E-03
    18  3.918970903E-04
    19  1.192688260E+01
    20  6.672179903E-01
    21 -2.392452742E-01
    22  4.065526068E-01
    23 -3.343121805E-04
    24 -5.362812525E-04
    25  9.317278387E-03
    26 -1.297196982E-02
    27  1.625439117E-02
    28  1.402820808E-03
    29  1.003682399E-02
    30 -1.461282390E-02
    31  2.203881876E-02
    32  7.198450056E-03
    33  1.054166210E-01
    34 -1.393006626E-01
    35  6.765287053E-02
    36 -2.317203047E-05
    37  2.835339866E-03
    38  1.983174141E-03
    39  2.654290495E-03
    40 -9.532012893E-04
    41  1.852936487E-01
    42  1.295291240E+00
    43 -1.818014504E+00
    44  4.445050653E-01
    45  1.345206609E-02
    46  2.186681553E-02
    47 -3.534558828E-04
    48 -2.448876938E-03
    49 -5.043501859E-03
    50 -6.803608978E-02
    51  1.205891775E-04
    52 -2.975641877E-03
    53 -1.081381625E-02
    54 -1.835814423E-01
    55 -1.678554611E-02
    56 -1.656437556E-02
    57  9.637721741E-02
    58  1.998873703E-03
    59  1.062176083E-06
    60  4.848568931E-04
    61 -1.639855779E-03
    62  4.855923970E-04
    63 -1.909808010E+01
    64 -2.800879469E-01
    65 -2.068828723E-01
    66  2.973300599E+00
    67  7.725949868E-03
    68  1.206098602E-02
    69  5.056112000E-04
    70 -3.004719366E-03
    71  1.117771739E-02
    72 -2.061836077E-02
    73  2.915718978E-04
    74 -2.605565889E-03
    75  1.147896336E-02
    76 -4.071427910E-01
    77  1.513178916E-02
    78  2.817800501E-02
    79  3.517422463E-02
    80  3.095069971E-03
    81  1.960410478E-05
    82  1.916698331E-03
    83 -1.868060383E-03
    84  1.753057087E-04
    85 -1.608414622E+01
    86  3.096099450E-01
    87  6.937224080E-01
    88  1.924942610E-01
    89 -1.679640943E-03
    90 -2.715629502E-03
    91  1.147325153E-02
    92  8.938630039E-03
    93  1.482226546E-02
    94  8.168971964E-03
    95  1.220576822E-02
    96  9.992964897E-03
    97  2.040299561E-02
    98  2.711903227E-02
    99  1.459434203E-01
   100  8.873883343E-02
   101  5.043866497E-02
   102  1.847789337E-04
   103  1.650568319E-03
   104 -2.733712735E-03
   105  2.472098759E-03
   106 -5.752457575E-04
   107  3.105192524E+00
   108  2.150826000E+00
   109  8.932719622E-01
   110  1.969267946E-01
   111 -1.335438033E-02
   112 -2.169028596E-02
   113  3.203772898E-03
   114 -5.792016447E-04
   115 -4.853062566E-03
   116  6.705361114E-02
   117  3.848251329E-03
   118 -1.110096954E-03
   119 -1.053327265E-02
   120  1.873474440E-01
   121  2.567980940E-02
   122  4.640328148E-03
   123  9.765274576E-02
   124 -2.023250721E-03
   125  6.036171748E-04
   126 -2.111010225E-04
   127 -1.563897480E-03
   128  4.575622791E-04
   129  1.927012722E+01
   130  3.051150279E-01
   131  7.454018026E-02
   132  2.995966713E+00
   133 -8.035350538E-03
   134 -1.253119020E-02
   135  3.191641167E-03
   136 -1.371906456E-03
   137  1.120786733E-02
   138  2.112971607E-02
   139  2.996179499E-03
   140 -1.697908624E-03
   141  1.152068748E-02
   142  4.253774591E-01
   143 -3.119335899E-02
   144  4.143767220E-03
   145  3.376743877E-02
   146 -2.997181526E-03
   147  1.831642546E-03
   148 -6.535454138E-04
   149 -1.519625868E-03
   150  8.576614965E-04
   151  1.655544299E+01
   152 -7.352274665E-01
   153  1.684127475E-01
   154  2.306664886E-01
   155  3.193519806E-04
   156  5.212615359E-04
   157 -7.367752246E-03
   158  9.897555709E-03
   159  1.271656962E-02
   160 -1.690112233E-03
   161 -7.465445155E-03
   162  1.013199054E-02
   163  1.809789601E-02
   164 -4.700638462E-03
   165 -9.425994257E-02
   166  1.346031102E-01
   167  2.487396004E-02
   168 -7.089480774E-05
   169 -2.368172328E-03
   170 -1.541531828E-03
   171  1.947026591E-03
   172 -6.498233890E-04
   173 -7.697790770E-01
   174 -1.196018073E+00
   175  1.949401363E+00
   176 -1.235954447E-01
   177  6.211112794E-03
   178  9.694141286E-03
   179  1.327045356E-03
   180  8.666478012E-04
   181  1.072839470E-02
   182 -1.648874045E-02
   183  1.674237365E-03
   184  6.151471767E-04
   185  1.090914567E-02
   186 -3.278581185E-01
   187 -2.116021615E-03
   188 -3.431197865E-02
   189  4.017397488E-02
   190  3.405537927E-03
   191 -7.604061550E-04
   192 -1.852766369E-03
   193 -1.876475024E-03
   194  1.134225883E-03
   195 -1.306625444E+01
   196 -1.699895526E-01
   197 -7.596358750E-01
   198  3.699589919E-01
   199  1.898891395E-03
   200  3.101842278E-03
   201 -1.150142538E-02
   202 -7.332545050E-03
   203  1.395038115E-02
   204 -9.956954035E-03
   205 -1.288096668E-02
   206 -6.966737125E-03
   207  1.954453555E-02
   208 -2.142618577E-02
   209 -1.284714230E-01
   210 -1.073705858E-01
   211  4.046402064E-02
   212 -7.377780817E-05
   213 -1.930626145E-03
   214  2.353971394E-03
   215  2.135006904E-03
   216 -9.707573865E-04
   217 -1.965401914E+00
   218 -1.651926840E+00
   219 -1.501893275E+00
   220  4.525248819E-02
   221 -1.224786468E-05
   222 -8.254072168E-03
   223  3.167891622E-01
   224 -2.393033252E-04
   225 -4.852804000E-03
   226  1.903237485E-03
   227  2.080559427E+00
   228  6.893397713E-04
   229  4.350418327E-02
   230 -5.668178618E-01
   231 -4.172973061E-03
   232  8.125866006E-04
   233  6.412922260E-03
   234 -2.760867879E+00
   235  2.947855600E-03
   236  1.121321207E-02
   237  2.690921227E-01
   238  3.073918778E-03
   239 -1.913417283E-03
   240 -2.354717087E-03
   241  2.669129991E+00
   242 -3.427331603E-03
   243 -2.155787572E-02
   244 -1.626776716E-01
   245 -5.737551782E-04
   246  1.647236387E-03
   247 -1.571957203E-03
   248 -1.972808799E+00
   249  9.168409897E-05
   250  1.050769412E-02
   251 -4.057393647E-01
   252 -5.163464946E-03
   253  4.489989364E-04
   254  9.709079214E-04
   255 -2.695965731E+00
   256 -8.148509046E-04
   257 -4.412997351E-02
   258  5.587716623E-01
   259  5.855359553E-04
   260  4.253206218E-03
   261  6.305001925E-03
   262  2.669781271E+00
   263 -2.824298123E-03
   264 -1.553159714E-02
   265 -1.801053239E-01
   266 -1.355036506E-03
   267 -1.824170422E-03
   268 -1.749752901E-03
   269 -2.137234641E+00
   270  2.911705212E-03
   271  1.280509342E-02
   272  2.258382037E-01
   273  2.428473906E-03
   274  6.974839278E-04
   275 -1.999678615E-03
   276  2.165735299E+00
   277 -4.229404527E-05
   278 -9.943149277E-03
   279  3.913868139E-01
   280  1.372877693E-03
   281  4.945853074E-03
   282  1.118155316E-03
   283  2.599758059E+00
   284  1.741742870E-03
   285  4.869848260E-02
   286 -4.918912624E-01
   287  3.532384507E-03
   288 -4.996184488E-04
   289  5.580489372E-03
   290 -1.961540322E+00
   291  3.459453401E-03
   292  2.407895487E-02
   293  1.454310934E-01
   294 -1.713266367E-03
   295  1.119522349E-03
   296 -1.680771313E-03
   297  2.205583060E+00
   298 -3.294248386E-03
   299 -9.967359174E-03
   300 -3.204893405E-01
   301  8.602695309E-04
   302 -3.621531827E-03
   303 -2.339632343E-03
   304 -2.769519808E+00
   305  1.061917003E-04
   306  7.421623616E-03
   307 -2.920746127E-01
   308  4.594043649E-03
   309 -1.130355253E-03
   310  2.080163745E-03
   311 -1.967159874E+00
   312 -1.580349556E-03
   313 -4.727929483E-02
   314  4.942740091E-01
   315 -7.307873611E-04
   316 -3.690947074E-03
   317  5.683016315E-03
   318  2.023213713E+00
   319 -3.610153590E-03
   320 -1.823220528E-02
   321 -2.546211069E-01
   322  1.779055524E-03
   323  2.856535898E-03
   324 -2.166152691E-03
   325 -2.820607040E+00
   326  3.828810271E-03
   327  1.960925699E-02
   328  2.528745075E-01
   329 -2.961290557E-03
   330 -6.251828076E-04
   331 -2.110377288E-03
   332  2.621918433E+00
Ene=    6.3101916273E-02
Spin= Alpha
Occup=   0.0000000
     1  2.979949146E-03
     2  4.641512400E-03
     3  1.680687216E-03
     4 -9.878033003E-03
     5 -1.297155513E-03
     6 -7.608506673E-03
     7  2.127808437E-03
     8 -1.047701364E-02
     9 -1.100840217E-03
    10 -1.591834338E-01
    11 -1.311544945E-02
    12 -5.555510150E-02
    13  4.014723750E-03
    14 -3.079932304E-04
    15 -5.514205902E-04
    16 -3.339283890E-03
    17 -1.519452263E-03
    18 -3.633197636E-03
    19 -6.342821946E+00
    20 -3.469342976E-01
    21 -6.617568796E-01
    22  1.431310984E-01
    23  7.096718856E-03
    24  1.156140544E-02
    25  8.847680045E-03
    26 -7.569825133E-03
    27  1.076307082E-02
    28 -3.674866367E-02
    29  1.426195227E-02
    30 -9.527391571E-03
    31  1.131161130E-02
    32 -8.573284502E-02
    33 -2.085252079E-02
    34 -4.847853917E-02
    35  1.388217060E-01
    36 -5.242571880E-04
    37  1.884347242E-03
    38  3.658714098E-04
    39  2.742061354E-03
    40  1.632902910E-04
    41 -9.190882346E+00
    42 -1.119462139E+00
    43 -7.493298194E-01
    44  1.873961584E+00
    45 -1.370535755E-03
    46 -2.227497242E-03
    47 -4.561361711E-03
    48 -2.810080230E-02
    49  5.267845369E-04
    50  6.877325960E-03
    51 -4.810965561E-03
    52 -3.492538060E-02
    53  1.169228966E-03
    54  1.952034360E-02
    55 -6.577536863E-02
    56 -2.052647700E-01
    57 -1.018341046E-02
    58 -1.943854761E-04
    59  9.694904902E-04
    60  5.467617115E-03
    61  1.488781498E-04
    62 -2.771640676E-05
    63  1.817951119E+00
    64 -9.114298016E-01
    65 -2.271134578E+00
    66 -2.778479812E-01
    67  8.829142233E-03
    68  1.377821284E-02
    69  9.790723282E-05
    70 -1.190220384E-02
    71  8.914730933E-04
    72 -2.369453548E-02
    73  2.494073890E-04
    74 -1.162871136E-02
    75  6.913271207E-04
    76 -4.632474285E-01
    77  9.379752427E-03
    78 -2.500554270E-02
    79 -3.348400035E-02
    80 -2.544801047E-03
    81 -8.895712605E-04
    82 -5.047973488E-04
    83  1.789277375E-03
    84 -1.548603035E-03
    85 -1.750429324E+01
    86  2.564561359E-01
    87 -9.473543535E-02
    88 -6.539473228E-01
    89 -1.150262828E-02
    90 -1.871418210E-02
    91 -9.297941083E-03
    92 -1.470089655E-03
    93 -8.157367375E-03
    94  5.869626439E-02
    95 -1.459165301E-02
    96  9.228520947E-04
    97 -9.598687683E-03
    98  1.498532863E-01
    99  1.525299426E-02
   100 -8.785830531E-02
   101 -8.466674794E-02
   102  8.745664353E-04
   103 -2.028001021E-03
   104  3.956483793E-04
   105 -1.209142725E-03
   106  1.992848060E-03
   107  1.594598625E+01
   108  1.296602167E+00
   109 -2.070308716E+00
   110 -1.075091138E+00
   111  1.348121154E-03
   112  2.186598966E-03
   113  5.475068174E-03
   114 -1.423615724E-03
   115  4.897031740E-04
   116 -6.652876523E-03
   117  6.394800275E-03
   118 -5.804139235E-03
   119  1.081566597E-03
   120 -2.044092030E-02
   121  6.052163638E-02
   122  1.030596040E-01
   123 -1.063718125E-02
   124  1.995591141E-04
   125  9.555852837E-04
   126 -1.079370661E-03
   127  1.712755642E-04
   128 -2.304129288E-05
   129 -1.988466688E+00
   130  6.559806964E-01
   131  1.891616448E+00
   132 -3.184998663E-01
   133 -1.579413668E-03
   134 -2.459662825E-03
   135  1.290086969E-03
   136 -9.884004000E-03
   137 -9.111851971E-04
   138  3.983882636E-03
   139  1.832839117E-03
   140 -1.033875502E-02
   141 -1.240466793E-03
   142  8.486210074E-02
   143 -6.888769042E-03
   144 -5.998624392E-02
   145 -1.052502456E-02
   146  9.623152803E-04
   147 -9.329081830E-04
   148 -3.206825741E-03
   149  1.919204214E-03
   150  3.520437703E-03
   151  3.433067125E+00
   152 -2.412807405E-01
   153 -7.403091589E-01
   154 -1.635822482E-01
   155 -7.092225828E-03
   156 -1.154934040E-02
   157  1.057952016E-02
   158 -9.965958350E-03
   159 -1.379229127E-02
   160  3.659207496E-02
   161  1.596787130E-02
   162 -1.211312189E-02
   163 -1.545254313E-02
   164  8.758509223E-02
   165 -1.082103405E-03
   166 -7.741233743E-02
   167 -1.489664301E-01
   168  5.465343146E-04
   169  2.469147355E-03
   170  6.873280206E-04
   171 -3.220761056E-03
   172 -1.333070484E-05
   173  9.639922190E+00
   174 -9.311417412E-01
   175 -1.219278262E+00
   176 -1.933972900E+00
   177 -1.024665417E-02
   178 -1.599069238E-02
   179 -2.302928592E-05
   180 -1.229803655E-02
   181 -3.111348113E-03
   182  2.746775688E-02
   183 -2.004915380E-04
   184 -1.198830661E-02
   185 -2.921802840E-03
   186  5.374136067E-01
   187  1.496632872E-02
   188 -1.784774539E-02
   189  2.482014661E-02
   190  1.880194233E-03
   191 -7.579515251E-04
   192 -1.705024254E-04
   193 -1.428199408E-03
   194  1.419983795E-03
   195  2.049163689E+01
   196  3.970692934E-01
   197  4.067741516E-02
   198  5.998489742E-01
   199  1.147946923E-02
   200  1.866995826E-02
   201 -7.047392037E-03
   202  1.134776025E-04
   203  5.369040734E-03
   204 -5.841175006E-02
   205 -1.204172360E-02
   206  2.565108920E-03
   207  5.701712603E-03
   208 -1.516180817E-01
   209  4.244528638E-02
   210 -6.902119372E-02
   211  7.701386490E-02
   212 -9.222702957E-04
   213 -1.712821955E-03
   214 -1.079682688E-04
   215  7.389606552E-04
   216 -1.820414256E-03
   217 -1.631654374E+01
   218  1.720087802E+00
   219 -1.882716432E+00
   220  1.094932890E+00
   221  7.483528211E-05
   222  1.278923414E-02
   223 -5.127850914E-01
   224  1.577152983E-03
   225  2.150579920E-03
   226  4.681904299E-03
   227 -3.523077407E+00
   228 -1.148096978E-03
   229 -1.095379319E-02
   230  4.343130251E-03
   231 -2.595025239E-06
   232  1.016895999E-03
   233  1.505464342E-04
   234 -3.676675544E-01
   235  3.113128879E-04
   236 -3.155081529E-02
   237  5.328357540E-01
   238  6.196387209E-03
   239 -3.088513498E-03
   240 -2.793326851E-03
   241  2.896397147E+00
   242 -2.349477233E-03
   243 -4.698463985E-02
   244  3.772308988E-01
   245  1.133400934E-03
   246 -4.271218435E-03
   247  2.123925919E-03
   248  1.122223985E+00
   249  6.866565900E-06
   250  1.555968471E-03
   251 -7.416030732E-02
   252 -7.904985657E-04
   253 -4.800370862E-03
   254 -1.279003372E-03
   255 -4.937584573E-01
   256  4.753682311E-03
   257  2.772634368E-02
   258  2.701454140E-01
   259  3.340836862E-04
   260  2.564998950E-03
   261  3.069737754E-03
   262  3.176603433E+00
   263  3.865030277E-03
   264  4.004354147E-02
   265 -5.418293311E-02
   266 -6.682204175E-04
   267 -1.573108376E-04
   268 -3.637016904E-04
   269  1.148332286E+00
   270 -2.555092519E-03
   271  7.864657031E-03
   272 -5.023794286E-01
   273 -6.692902215E-03
   274 -5.873220493E-04
   275  2.520382298E-03
   276 -3.626493928E+00
   277 -7.907768198E-05
   278 -1.081594128E-02
   279  4.403271167E-01
   280  1.416558174E-03
   281  1.161003062E-03
   282 -4.959402272E-03
   283  3.054348234E+00
   284  9.024538838E-04
   285  1.710240405E-03
   286  1.040032184E-01
   287 -7.707334974E-04
   288  1.179090317E-03
   289 -1.340792453E-03
   290  8.356706266E-01
   291 -9.200482765E-04
   292  2.756415283E-02
   293 -5.628695994E-01
   294  6.682098805E-03
   295 -3.401011792E-03
   296  3.177095603E-03
   297 -3.369684604E+00
   298  3.055547945E-03
   299  4.985818244E-02
   300 -3.244933152E-01
   301  9.970595785E-04
   302 -3.767689372E-03
   303 -1.732194553E-03
   304 -6.920291071E-01
   305 -1.448618820E-05
   306 -3.693551399E-03
   307  1.466296412E-01
   308 -1.779239638E-03
   309 -4.656893057E-03
   310  9.807094686E-04
   311  9.618187302E-01
   312 -4.455119256E-03
   313 -1.910433649E-02
   314 -3.676408703E-01
   315  4.622168991E-04
   316  3.356382483E-03
   317 -4.288424160E-03
   318 -3.656457493E+00
   319 -3.255868478E-03
   320 -3.625520181E-02
   321  9.093705687E-02
   322 -1.016811471E-03
   323 -6.449721919E-04
   324  7.845464480E-04
   325 -5.876709897E-01
   326  1.801324582E-03
   327 -1.046194044E-02
   328  4.379210178E-01
   329 -6.164125401E-03
   330 -4.619058989E-04
   331 -2.063748544E-03
   332  3.132238141E+00
Ene=    6.3150118261E-02
Spin= Alpha
Occup=   0.0000000
     1 -1.013247668E-02
     2 -1.581514931E-02
     3 -1.221844205E-02
     4 -1.761515950E-04
     5  3.013264655E-03
     6  2.733354972E-02
     7 -1.176903220E-02
     8 -2.757443552E-04
     9  2.786616731E-03
    10  5.298092474E-01
    11 -2.058927889E-02
    12 -1.197473600E-02
    13 -2.446231687E-02
    14  1.905397727E-03
    15  1.031670136E-04
    16 -8.432796369E-04
    17  1.461093948E-03
    18 -1.490932658E-03
    19  1.985140108E+01
    20 -3.873606627E-02
    21 -3.127742866E-01
    22 -5.415011671E-01
    23  1.158012018E-02
    24  1.884968376E-02
    25  2.697711764E-04
    26  6.980804600E-03
    27 -5.184357606E-03
    28 -5.942219185E-02
    29  2.819173225E-03
    30  1.206317068E-02
    31 -5.635142126E-03
    32 -1.464807118E-01
    33 -6.738515455E-02
    34 -4.105009685E-02
    35 -7.271665705E-02
    36 -9.245146378E-04
    37  1.410362928E-04
    38 -1.646749030E-03
    39 -7.246226799E-04
    40  1.875319483E-03
    41 -1.595071123E+01
    42 -1.799768518E+00
    43 -1.663013717E+00
    44 -1.003966120E+00
    45  1.208293397E-03
    46  1.968134448E-03
    47 -1.531873788E-03
    48 -5.772573842E-03
    49 -4.395888967E-04
    50 -6.290678381E-03
    51 -5.810669761E-03
    52 -6.862689051E-03
    53 -9.243992940E-04
    54 -1.394279067E-02
    55  9.961724758E-02
    56 -6.225924684E-02
    57  7.538396598E-03
    58  2.101875963E-04
    59  1.163206820E-03
    60  1.012636912E-03
    61 -1.414884697E-04
    62  5.716718125E-05
    63 -1.731266899E+00
    64  1.852272891E+00
    65 -6.650134986E-01
    66  2.628592251E-01
    67  2.973686816E-03
    68  4.636112325E-03
    69 -1.003290410E-02
    70 -1.734724253E-03
    71  1.205129203E-03
    72 -7.787846090E-03
    73 -1.068071795E-02
    74 -2.085088035E-03
    75  9.288446710E-04
    76 -1.575116874E-01
    77 -5.693919548E-02
    78  1.030995139E-02
    79 -2.984466942E-03
    80 -3.613758897E-04
    81  3.339675495E-03
    82 -5.016707832E-04
    83  1.616084443E-03
    84  3.642036854E-03
    85 -5.950758749E+00
    86 -6.331538045E-01
    87  2.808594486E-01
    88 -8.074064943E-02
    89  7.005197209E-03
    90  1.140922773E-02
    91 -7.874144106E-03
    92 -9.021653380E-03
    93 -1.106829662E-02
    94 -3.614101734E-02
    95 -9.754286466E-03
    96 -1.431876178E-02
    97 -1.191972670E-02
    98 -8.638723204E-02
    99 -5.268330847E-02
   100  1.814072336E-02
   101 -1.382460767E-01
   102 -5.296822125E-04
   103 -3.944922704E-04
   104  1.927664600E-03
   105 -2.818960615E-03
   106 -1.349579340E-04
   107 -9.181042574E+00
   108 -8.097101734E-01
   109  1.102562766E+00
   110 -1.894375529E+00
   111 -1.231927428E-03
   112 -2.011531362E-03
   113 -2.828768003E-02
   114  4.557121338E-03
   115 -4.938848031E-04
   116  6.556789490E-03
   117 -3.517588068E-02
   118  4.886095881E-03
   119 -1.002548101E-03
   120  1.259750812E-02
   121 -2.065208673E-01
   122  6.480191572E-02
   123  6.845928771E-03
   124 -1.973364889E-04
   125 -5.522445785E-03
   126  9.236435895E-04
   127 -1.494014684E-04
   128  4.008103289E-05
   129  1.630457216E+00
   130 -2.302781165E+00
   131  9.042478378E-01
   132  2.413370453E-01
   133  8.882074619E-03
   134  1.386013127E-02
   135 -1.187927471E-02
   136 -1.286396878E-04
   137 -1.038720013E-03
   138 -2.387789835E-02
   139 -1.151019334E-02
   140 -6.257946034E-05
   141 -8.664576350E-04
   142 -4.645072891E-01
   143 -2.506107578E-02
   144 -1.215919998E-02
   145  3.229763146E-02
   146 -2.495957904E-03
   147  5.004343879E-04
   148 -9.024288888E-04
   149 -1.793983509E-03
   150  1.578109137E-03
   151 -1.743633660E+01
   152 -1.703600885E-01
   153 -3.472119616E-01
   154  6.527167850E-01
   155 -1.160925622E-02
   156 -1.889964449E-02
   157 -1.298768990E-03
   158  9.233575675E-03
   159  8.062370591E-03
   160  5.964505760E-02
   161  1.186693616E-03
   162  1.448997872E-02
   163  9.508770532E-03
   164  1.459345314E-01
   165 -8.542827859E-02
   166 -1.580014690E-02
   167  8.490556516E-02
   168  9.111602522E-04
   169 -4.058840795E-04
   170 -2.065707350E-03
   171  1.129248231E-03
   172 -2.008467239E-03
   173  1.593063321E+01
   174 -2.034072547E+00
   175 -1.335851206E+00
   176  1.129057686E+00
   177 -1.728475240E-03
   178 -2.690120090E-03
   179 -9.834319318E-03
   180 -1.399388050E-03
   181  8.011423704E-04
   182  4.346670823E-03
   183 -1.033141967E-02
   184 -1.846321185E-03
   185  1.113855740E-03
   186  9.291281463E-02
   187 -5.803423412E-02
   188  6.676861233E-03
   189  1.002546090E-02
   190  9.456830617E-04
   191  3.263089897E-03
   192 -9.317208161E-04
   193 -1.932973627E-03
   194 -3.497669488E-03
   195  3.667452776E+00
   196 -7.092934255E-01
   197  1.929618921E-01
   198  1.862218184E-01
   199 -7.011374394E-03
   200 -1.142239746E-02
   201 -9.753479679E-03
   202 -1.041723338E-02
   203  1.347622025E-02
   204  3.627844323E-02
   205 -1.198201576E-02
   206 -1.594707446E-02
   207  1.530567539E-02
   208  8.527408227E-02
   209 -7.453014382E-02
   210  1.706135724E-03
   211  1.461927138E-01
   212  5.210155181E-04
   213 -6.912659568E-04
   214  2.373650572E-03
   215  3.198161151E-03
   216 -1.911476605E-06
   217  9.163889168E+00
   218 -1.073920710E+00
   219  9.105320451E-01
   220  1.856077524E+00
   221 -1.276685190E-06
   222  1.886120649E-03
   223 -8.272561031E-02
   224 -4.792051668E-03
   225  8.365771605E-04
   226  1.315280815E-03
   227 -5.596943676E-01
   228  4.734871826E-03
   229  2.763816204E-02
   230  2.742727413E-01
   231  2.601632695E-03
   232 -3.116469749E-04
   233 -3.136407505E-03
   234  3.230583667E+00
   235  3.868775616E-03
   236  3.970382992E-02
   237 -5.391036704E-02
   238 -1.638829933E-04
   239  6.687564053E-04
   240  3.989245118E-04
   241  1.045680356E+00
   242 -2.478194767E-03
   243  6.363336023E-03
   244 -4.751800217E-01
   245 -5.762051322E-04
   246  6.628134937E-03
   247 -2.425476325E-03
   248 -3.516614433E+00
   249 -6.838953214E-05
   250 -1.104872346E-02
   251  4.430320648E-01
   252  1.190792179E-03
   253 -1.481404357E-03
   254  4.958914790E-03
   255  3.085264298E+00
   256  9.796444137E-04
   257  2.334895982E-03
   258  1.028909304E-01
   259  1.165521157E-03
   260  7.710477229E-04
   261  1.347959151E-03
   262  8.524805014E-01
   263 -8.817986273E-04
   264  2.814503412E-02
   265 -5.682694262E-01
   266 -3.409975359E-03
   267 -6.722305420E-03
   268 -3.211832871E-03
   269 -3.369088135E+00
   270  3.016584790E-03
   271  4.977305680E-02
   272 -3.302099625E-01
   273 -3.871596690E-03
   274 -9.842169673E-04
   275  1.771214493E-03
   276 -7.062120119E-01
   277 -5.341282636E-05
   278 -3.027171257E-03
   279  1.399197785E-01
   280 -4.622572568E-03
   281  1.718820755E-03
   282 -1.017094806E-03
   283  9.999416827E-01
   284 -4.524491355E-03
   285 -1.927202431E-02
   286 -3.699227348E-01
   287  3.362419979E-03
   288 -4.759227051E-04
   289  4.263374204E-03
   290 -3.661807559E+00
   291 -3.310116052E-03
   292 -3.624178611E-02
   293  8.439699736E-02
   294 -5.632813445E-04
   295  9.430509586E-04
   296 -6.853790065E-04
   297 -6.832883497E-01
   298  1.888329334E-03
   299 -9.869302519E-03
   300  4.437636658E-01
   301 -4.786101374E-04
   302  6.154178015E-03
   303  2.104314352E-03
   304  3.164212560E+00
   305  9.431196739E-05
   306  1.230935306E-02
   307 -5.029532412E-01
   308  2.070716340E-03
   309 -1.605238811E-03
   310 -4.662395872E-03
   311 -3.530134846E+00
   312 -1.174414792E-03
   313 -1.104281918E-02
   314 -2.204072687E-03
   315  1.086939420E-03
   316  5.055905578E-05
   317 -2.351044075E-04
   318 -4.223595946E-01
   319  2.448359790E-04
   320 -3.098463761E-02
   321  5.190161588E-01
   322 -3.121262021E-03
   323 -6.249310583E-03
   324  2.787593195E-03
   325  2.859957502E+00
   326 -2.389122212E-03
   327 -4.701103827E-02
   328  3.795327088E-01
   329 -4.387646614E-03
   330 -1.146180137E-03
   331 -2.156929766E-03
   332  1.217289459E+00
Ene=    6.7317310776E-02
Spin= Alpha
Occup=   0.0000000
     1 -9.402221624E-05
     2 -1.432747970E-04
     3 -9.229181123E-03
     4  1.229348580E-03
     5 -1.294717923E-02
     6  1.682332474E-04
     7 -1.966779918E-02
     8  2.922963032E-03
     9 -2.789110603E-02
    10  5.334394999E-03
    11  3.853885929E-02
    12 -7.586448228E-03
    13  5.386733248E-02
    14  4.381757035E-03
    15  3.424926812E-04
    16 -1.314825058E-04
    17  4.625660892E-04
    18 -2.602381478E-04
    19  1.752385971E-01
    20  2.351712374E+00
    21 -3.893392127E-01
    22  3.369342733E+00
    23  3.927558737E-04
    24  6.516986241E-04
    25 -1.166002397E-02
    26  1.644054062E-02
    27 -1.752373154E-02
    28 -2.348795705E-03
    29 -1.411651495E-02
    30  2.059232854E-02
    31 -1.543795700E-02
    32 -7.419165272E-04
    33 -9.031438823E-02
    34  1.186570716E-01
    35 -1.235964773E-01
    36 -1.105655001E-03
    37 -1.807232625E-04
    38 -1.946040082E-04
    39 -5.224488537E-03
    40  1.216282660E-03
    41 -3.804302056E-01
    42 -2.564647382E+00
    43  3.449580678E+00
    44 -2.790739475E+00
    45 -4.447871336E-05
    46 -7.503218591E-05
    47  2.532123875E-03
    48 -6.816006697E-03
    49  2.260462726E-05
    50  3.306327747E-04
    51  1.204965671E-02
    52 -9.063784297E-03
    53  5.562811117E-05
    54 -1.071824561E-03
    55  2.656269077E-02
    56 -5.283827094E-02
    57  4.150956767E-04
    58 -1.390288605E-05
    59 -6.993789495E-03
    60  2.090267922E-03
    61 -5.978845891E-05
    62 -1.692692603E-04
    63  5.448649036E-03
    64  1.916394106E+00
    65 -1.468271309E+00
    66  6.844778025E-03
    67  2.330779138E-04
    68  3.609444065E-04
    69  1.022478583E-02
    70 -7.013130695E-04
    71  1.664152598E-03
    72 -5.776866112E-04
    73  2.221458961E-02
    74 -1.178875601E-03
    75  3.603466082E-03
    76 -1.317715590E-02
    77 -4.542353491E-02
    78  2.063423465E-03
    79 -8.829309005E-03
    80  5.208975969E-04
    81 -3.215756559E-04
    82  1.032019980E-04
    83 -8.922702798E-04
    84 -2.617340443E-03
    85 -5.151325064E-01
    86 -2.693085991E+00
    87  1.265436673E-01
    88 -4.840934837E-01
    89 -1.271152388E-04
    90 -2.116781930E-04
    91 -1.043563820E-02
    92 -7.394604232E-03
    93 -1.014133846E-02
    94  8.537398869E-04
    95 -1.404710465E-02
    96 -9.900517714E-03
    97 -7.673450307E-03
    98 -1.111259168E-03
    99 -7.690049206E-02
   100 -5.542745739E-02
   101 -7.241017838E-02
   102 -1.370229506E-03
   103  4.847515418E-04
   104 -7.502847041E-04
   105 -3.782591918E-03
   106  2.166792165E-03
   107  2.703331590E-01
   108 -2.257579553E+00
   109 -1.678963620E+00
   110 -1.399934911E+00
   111  3.949911049E-05
   112  7.020958830E-05
   113  4.119332037E-02
   114 -7.415510802E-03
   115  3.127114954E-05
   116 -3.914634854E-04
   117  4.381397832E-02
   118 -9.050429093E-03
   119  3.233479858E-05
   120  1.745516350E-03
   121  3.000773197E-01
   122 -5.452321560E-02
   123  7.520837782E-04
   124  1.802659048E-05
   125  5.926000782E-03
   126 -2.044187562E-03
   127  6.311785218E-05
   128  1.723257905E-04
   129  3.869464133E-02
   130  7.781435224E+00
   131 -1.553033514E+00
   132  1.275466036E-02
   133  1.305563768E-04
   134  2.034326696E-04
   135 -9.635313223E-03
   136 -1.107366877E-03
   137  1.284529242E-02
   138 -3.883415455E-04
   139 -2.048862472E-02
   140 -2.106299795E-03
   141  2.779471430E-02
   142 -5.878520717E-03
   143  3.926873635E-02
   144  2.287953051E-03
   145 -5.497624380E-02
   146 -4.359198397E-03
   147  2.983315288E-04
   148 -2.040224814E-04
   149 -2.356611647E-04
   150  8.680905632E-04
   151 -8.902702305E-02
   152  2.431181396E+00
   153  2.187774494E-01
   154 -3.403633771E+00
   155 -3.746053498E-04
   156 -6.194757558E-04
   157 -9.560654440E-03
   158  1.350987506E-02
   159  1.320454359E-02
   160  2.202495440E-03
   161 -1.236642819E-02
   162  1.804451434E-02
   163  9.948486096E-03
   164  1.020290922E-03
   165 -7.543694499E-02
   166  9.865522493E-02
   167  9.072742564E-02
   168  1.105865147E-03
   169  8.625041970E-04
   170  5.514857192E-04
   171  5.312234578E-03
   172 -1.241894603E-03
   173  4.308507318E-01
   174 -2.258724567E+00
   175  3.018357047E+00
   176  1.852280107E+00
   177 -2.529871179E-04
   178 -3.910964386E-04
   179  7.890814672E-03
   180 -2.922340214E-04
   181 -1.684732890E-03
   182  6.296492513E-04
   183  1.715210135E-02
   184 -3.105630654E-04
   185 -3.626295108E-03
   186  1.430310678E-02
   187 -3.515850175E-02
   188 -2.194123103E-04
   189  8.954203232E-03
   190 -5.351071901E-04
   191 -2.224556619E-04
   192  1.577588330E-04
   193  6.744499362E-04
   194  2.007930014E-03
   195  3.665454225E-01
   196 -2.075399689E+00
   197  5.651442057E-03
   198  4.540773283E-01
   199  1.445777388E-04
   200  2.419118913E-04
   201 -1.325256916E-02
   202 -9.417265446E-03
   203  1.425365291E-02
   204 -9.790892488E-04
   205 -1.627409035E-02
   206 -1.145848008E-02
   207  1.293065725E-02
   208  1.124276601E-03
   209 -9.718032255E-02
   210 -7.064835633E-02
   211  1.025468384E-01
   212  1.365712822E-03
   213 -2.212131334E-04
   214  2.160300279E-04
   215  3.699432846E-03
   216 -2.142385662E-03
   217 -2.959190886E-01
   218 -2.702154907E+00
   219 -2.018237449E+00
   220  2.319615171E+00
   221  1.197796807E-05
   222  4.741253815E-05
   223 -6.561192417E-03
   224 -1.606880707E-03
   225  4.979601560E-05
   226  4.236501903E-04
   227 -9.011702721E-02
   228 -1.659390743E-03
   229  1.774242155E-02
   230 -8.400199992E-01
   231 -4.580737709E-03
   232  1.101475872E-03
   233  4.555640103E-03
   234 -7.989277490E+00
   235  8.764113868E-04
   236 -8.790131116E-03
   237  4.344161410E-01
   238  5.498508346E-03
   239  9.521676996E-04
   240  1.493776448E-03
   241  4.105230430E+00
   242 -9.096485920E-04
   243  7.348852296E-03
   244 -4.164538417E-01
   245 -6.272200377E-04
   246  2.372252424E-03
   247 -2.435345412E-03
   248 -4.055882696E+00
   249  1.674216300E-05
   250 -1.870237694E-04
   251  5.309394125E-03
   252  1.848184357E-03
   253  6.207199193E-06
   254 -2.450496915E-03
   255  5.720895694E-02
   256  2.815464935E-04
   257 -9.854562863E-04
   258  1.154987634E-01
   259 -4.143970550E-03
   260  1.361299453E-03
   261  6.498541338E-04
   262  1.167503820E+00
   263 -7.398500474E-04
   264  1.039790706E-02
   265 -4.337456739E-01
   266 -6.770362246E-04
   267 -3.323424707E-03
   268 -1.272350467E-03
   269 -4.069549165E+00
   270  9.508005738E-04
   271 -7.811745198E-03
   272  4.112265346E-01
   273  4.770138683E-03
   274 -3.022346351E-03
   275  2.060316542E-03
   276  3.921961424E+00
   277  2.293460472E-05
   278 -3.257711148E-04
   279  1.002874289E-02
   280 -2.059943297E-03
   281  1.244822276E-04
   282 -4.506832414E-04
   283  7.613128249E-02
   284  1.659839913E-03
   285 -1.785564939E-02
   286  8.415823559E-01
   287 -4.511571204E-03
   288  1.760957622E-03
   289 -4.606061494E-03
   290  7.998509526E+00
   291 -6.816581024E-04
   292  6.270925296E-03
   293 -3.241933326E-01
   294  5.149103898E-03
   295  1.416107074E-03
   296 -2.357442145E-03
   297 -3.068989918E+00
   298  7.042131042E-04
   299 -4.803439235E-03
   300  3.066503738E-01
   301 -2.858633739E-04
   302  1.904525121E-03
   303  1.582951656E-03
   304  3.007631605E+00
   305 -2.206774977E-05
   306  3.582009578E-04
   307 -5.392586565E-03
   308  1.738692609E-03
   309 -4.410462878E-04
   310  2.440595720E-03
   311 -2.177729038E-02
   312 -2.649470628E-04
   313  1.274683759E-03
   314 -1.190265211E-01
   315 -4.787001547E-03
   316  1.503438053E-03
   317 -6.965341900E-04
   318 -1.188825742E+00
   319  9.633530553E-04
   320 -1.233021490E-02
   321  5.420547974E-01
   322 -1.167147152E-03
   323 -3.706996288E-03
   324  2.147777528E-03
   325  5.125887508E+00
   326 -1.212558610E-03
   327  1.001946792E-02
   328 -5.238364675E-01
   329  5.271922850E-03
   330 -2.672106897E-03
   331 -1.188911378E-03
   332 -4.981393833E+00
Ene=    6.7326199035E-02
Spin= Alpha
Occup=   0.0000000
     1 -2.109179465E-04
     2 -3.250762953E-04
     3 -1.039180345E-03
     4 -1.137689131E-02
     5  1.445335173E-03
     6  4.489776922E-04
     7 -2.047999100E-03
     8 -2.462928062E-02
     9  3.101609925E-03
    10  1.249461510E-02
    11  5.184326881E-03
    12  4.984325577E-02
    13 -7.337970548E-03
    14 -4.523626682E-04
    15 -7.938433855E-05
    16 -3.980486933E-04
    17 -9.988783956E-04
    18 -2.931373572E-03
    19  5.804387395E-01
    20  2.606072805E-01
    21  2.961890643E+00
    22 -4.194718562E-01
    23  1.462455066E-04
    24  2.431934455E-04
    25 -6.328893067E-03
    26  8.965405046E-03
    27 -7.977889321E-03
    28 -9.496687599E-04
    29 -9.024786445E-03
    30  1.285555216E-02
    31 -4.812015119E-03
    32  7.683786892E-04
    33 -4.771897322E-02
    34  6.613675317E-02
    35 -5.657374151E-02
    36  1.328428680E-03
    37  1.271960150E-03
    38  8.728627567E-04
    39 -3.837729628E-03
    40  2.147902286E-03
    41 -2.334115769E-01
    42 -1.514958486E+00
    43  2.055320364E+00
    44 -9.318965654E-01
    45 -3.844088312E-05
    46 -6.930855895E-05
    47 -7.274685460E-03
    48 -4.090542939E-02
    49  2.691926025E-05
    50  4.068763003E-04
    51 -8.814317174E-03
    52 -4.364122185E-02
    53  4.103251085E-05
    54 -1.884668706E-03
    55 -5.214344621E-02
    56 -2.978835202E-01
    57  9.500929414E-04
    58 -1.687037030E-05
    59  1.872851941E-03
    60  5.911960682E-03
    61  9.942007199E-05
    62  3.602165802E-04
    63 -1.591140970E-01
    64 -1.495521018E+00
    65 -7.696409958E+00
    66  4.359566452E-02
    67 -8.891395816E-05
    68 -1.366641375E-04
    69 -2.154022389E-03
    70  9.649603816E-03
    71  1.268260246E-02
    72  2.132507894E-04
    73 -4.382807847E-03
    74  2.063369705E-02
    75  2.751387666E-02
    76  4.327398480E-03
    77  6.433882670E-03
    78 -4.085534215E-02
    79 -5.525919809E-02
    80  4.293303109E-03
    81  2.169617046E-04
    82  3.201414602E-04
    83 -1.273130471E-04
    84  1.120403926E-03
    85  1.229111125E-01
    86  4.966005767E-01
    87 -2.473377499E+00
    88 -3.372068637E+00
    89  2.900364932E-04
    90  4.760086919E-04
    91  1.157145143E-02
    92  8.214245118E-03
    93  1.056505327E-02
    94 -1.555523985E-03
    95  1.624079655E-02
    96  1.115876642E-02
    97  6.783511001E-03
    98 -2.762177498E-03
    99  8.470401423E-02
   100  6.606411747E-02
   101  7.105439528E-02
   102 -1.109746586E-03
   103 -9.345798366E-04
   104  1.376087373E-03
   105  5.235174717E-03
   106 -1.166201458E-03
   107 -3.772033689E-01
   108  2.697010461E+00
   109  2.020601128E+00
   110  1.304818604E+00
   111  6.924378492E-05
   112  1.134734298E-04
   113 -5.944434963E-03
   114 -2.655511241E-03
   115  3.666330884E-05
   116 -3.869900196E-04
   117 -8.024767450E-03
   118 -1.205593897E-02
   119  8.581359721E-05
   120 -1.574332168E-04
   121 -4.663141423E-02
   122 -2.770371007E-02
   123 -2.828668845E-04
   124  1.689451042E-05
   125 -1.939778423E-03
   126 -6.967702143E-03
   127 -9.728591368E-05
   128 -3.535599974E-04
   129 -1.371768438E-01
   130 -1.320953083E+00
   131 -1.917561523E+00
   132 -2.885291749E-02
   133  2.499156231E-04
   134  3.863674570E-04
   135 -2.326463523E-04
   136 -6.603463036E-03
   137 -1.444818982E-03
   138 -5.794061301E-04
   139 -2.249593464E-04
   140 -1.430330145E-02
   141 -3.189753081E-03
   142 -1.439655579E-02
   143 -4.865333313E-05
   144  2.910939543E-02
   145  9.623360284E-03
   146  4.600287132E-04
   147 -1.374600060E-04
   148 -2.094030619E-04
   149  5.987547457E-04
   150  1.670754151E-03
   151 -5.388451947E-01
   152  1.117311498E-02
   153  1.700922861E+00
   154  4.501944826E-01
   155 -1.574711036E-04
   156 -2.590589096E-04
   157 -1.052830030E-02
   158  1.473730369E-02
   159  1.647889228E-02
   160  9.211124276E-04
   161 -1.240731567E-02
   162  1.750223667E-02
   163  1.565633439E-02
   164  5.357931313E-04
   165 -7.885184490E-02
   166  1.069681214E-01
   167  1.196955544E-01
   168 -1.338501115E-03
   169 -7.327237200E-04
   170 -5.927540422E-04
   171  3.654097169E-03
   172 -2.111773683E-03
   173  4.626662790E-01
   174 -2.222129572E+00
   175  2.914719317E+00
   176  2.828578385E+00
   177  4.436970582E-05
   178  6.453655147E-05
   179  2.632170292E-03
   180  8.832700166E-03
   181 -1.283973480E-02
   182  2.866010069E-05
   183  5.895881441E-03
   184  1.886823120E-02
   185 -2.755441376E-02
   186 -3.574034169E-03
   187 -1.329213452E-02
   188 -3.694331269E-02
   189  5.179253177E-02
   190 -4.334023944E-03
   191  6.100928597E-05
   192  3.486624385E-04
   193  5.487589513E-04
   194  1.358166958E-04
   195 -2.007719788E-01
   196 -7.478093459E-01
   197 -2.274141114E+00
   198  3.301191330E+00
   199 -2.978085624E-04
   200 -4.876412430E-04
   201  1.749518067E-02
   202  1.252352997E-02
   203 -1.930817892E-02
   204  1.558734333E-03
   205  2.121780117E-02
   206  1.474979511E-02
   207 -1.792150337E-02
   208  3.370369119E-03
   209  1.258803142E-01
   210  9.713403633E-02
   211 -1.366182145E-01
   212  1.090749198E-03
   213  5.764532867E-04
   214 -7.122126790E-04
   215 -5.058201822E-03
   216  1.131567209E-03
   217  4.901916033E-01
   218  3.574185940E+00
   219  2.701528154E+00
   220 -3.210284476E+00
   221  3.156448035E-05
   222 -3.635912755E-04
   223  3.963473324E-03
   224 -6.925406173E-04
   225 -1.667533997E-03
   226  2.439786758E-03
   227 -5.453368012E-03
   228  2.230414036E-04
   229 -1.320203220E-03
   230  1.068264975E-01
   231  1.471798020E-03
   232  5.095867732E-03
   233 -5.892048832E-04
   234  1.026921089E+00
   235 -1.073088416E-03
   236  1.322993784E-02
   237 -5.868769912E-01
   238 -3.706001214E-03
   239  1.398869189E-03
   240  2.578271169E-03
   241 -5.533060317E+00
   242  1.285649093E-03
   243 -1.098903228E-02
   244  5.683601339E-01
   245 -2.448577672E-03
   246 -5.481861313E-03
   247 -7.146653782E-04
   248  5.426447456E+00
   249 -1.729667538E-06
   250 -1.411045574E-04
   251  7.225294738E-03
   252  4.489863130E-05
   253  1.317006384E-03
   254  3.728481210E-04
   255  6.030510497E-02
   256  1.680929159E-03
   257 -1.743440144E-02
   258  8.344638389E-01
   259  6.688254298E-04
   260  4.623376301E-03
   261  4.512814570E-03
   262  7.901140588E+00
   263 -9.686904243E-04
   264  1.044751273E-02
   265 -4.975742756E-01
   266  6.831953356E-04
   267 -5.653387442E-03
   268  1.010319843E-03
   269 -4.666707535E+00
   270  1.002281589E-03
   271 -8.561603296E-03
   272  4.725866868E-01
   273  2.667919685E-03
   274  7.437410113E-04
   275 -2.833207271E-03
   276  4.623442094E+00
   277 -3.002866847E-05
   278  4.283339361E-04
   279 -6.636665412E-03
   280  2.289738736E-04
   281 -1.867237757E-03
   282 -2.440943652E-03
   283 -3.925792617E-02
   284 -2.165009138E-04
   285  7.275984484E-04
   286 -9.633881516E-02
   287  1.190781852E-03
   288  3.777376299E-03
   289  5.505054816E-04
   290 -1.016277287E+00
   291  6.000864023E-04
   292 -8.604331197E-03
   293  3.584361571E-01
   294 -2.948604611E-03
   295  4.114703508E-04
   296 -8.085470428E-04
   297  3.381937612E+00
   298 -7.992506629E-04
   299  6.677494403E-03
   300 -3.447457425E-01
   301 -3.163157389E-03
   302 -4.459341785E-03
   303  2.510847885E-03
   304 -3.260403890E+00
   305 -2.141153919E-05
   306  3.806155179E-04
   307 -9.703852590E-03
   308  1.892883418E-04
   309  2.245042638E-03
   310 -3.996498067E-04
   311 -5.274990224E-02
   312 -1.637752192E-03
   313  1.719589664E-02
   314 -8.280859400E-01
   315  2.006156992E-03
   316  4.420188155E-03
   317 -4.593397578E-03
   318 -7.926100127E+00
   319  5.428529779E-04
   320 -5.258135173E-03
   321  2.673325215E-01
   322  1.635162261E-03
   323 -4.936826751E-03
   324 -2.753287260E-03
   325  2.548016216E+00
   326 -5.844063317E-04
   327  3.933725607E-03
   328 -2.538589363E-01
   329  1.682073073E-03
   330  4.416336820E-05
   331  1.069394079E-03
   332 -2.473852742E+00
Ene=    6.7342933666E-02
Spin= Alpha
Occup=   0.0000000
     1 -2.153326062E-05
     2 -1.785823233E-05
     3  2.926429511E-03
     4  1.091572217E-02
     5  1.260830056E-03
     6 -3.307871683E-04
     7  6.279439560E-03
     8  2.350304636E-02
     9  3.037389319E-03
    10  5.352504666E-03
    11 -1.266514562E-02
    12 -4.635738812E-02
    13 -1.081398952E-02
    14 -4.539762625E-04
    15 -1.453189795E-04
    16  4.414647574E-04
    17  1.044063269E-03
    18  2.893974142E-03
    19 -2.686990750E-01
    20 -8.169492948E-01
    21 -2.846964699E+00
    22 -4.004371878E-01
    23  1.509728549E-04
    24  2.648724101E-04
    25 -1.171599014E-02
    26  1.644150856E-02
    27 -2.366195107E-02
    28 -1.259299583E-03
    29 -9.738395687E-03
    30  1.406506345E-02
    31 -2.989828794E-02
    32  2.748869119E-03
    33 -8.553335256E-02
    34  1.159674902E-01
    35 -1.758430506E-01
    36  3.431777028E-04
    37 -5.356019640E-03
    38 -3.935704643E-03
    39  2.220553739E-04
    40  1.931612848E-04
    41  6.184953167E-04
    42 -1.873705310E+00
    43  2.516490960E+00
    44 -5.145859650E+00
    45  3.861427107E-05
    46  9.032420965E-05
    47 -1.639912746E-03
    48 -7.073279741E-03
    49 -1.317171828E-04
    50 -9.300285441E-04
    51 -2.726764759E-03
    52 -7.377292824E-03
    53 -5.336670606E-05
    54  5.851950697E-03
    55 -1.357580592E-02
    56 -5.096701493E-02
    57 -2.796191213E-03
    58  3.224570815E-05
    59  1.038476617E-03
    60  9.091178482E-04
    61 -6.365004766E-04
    62 -1.847775649E-03
    63  5.292368553E-01
    64 -4.595559994E-01
    65 -1.321848309E+00
    66 -9.972302903E-02
    67  4.639140827E-05
    68  8.913891419E-05
    69  1.174591384E-02
    70 -4.163644799E-04
    71  2.531124727E-03
    72 -5.822998935E-04
    73  2.542196962E-02
    74 -8.134723046E-04
    75  5.065113721E-03
    76  2.933927481E-03
    77 -5.050839106E-02
    78  1.581122637E-03
    79 -4.584516956E-03
    80  8.106541036E-04
    81 -3.676038833E-04
    82 -3.110032962E-05
    83 -1.197078955E-03
    84 -2.942319149E-03
    85 -2.520297207E-01
    86 -3.087757357E+00
    87  1.256781738E-01
    88 -5.562123175E-01
    89  2.570761699E-04
    90  4.438134593E-04
    91  1.938476264E-02
    92  1.377715429E-02
    93  2.670399851E-02
    94 -1.993137866E-03
    95  1.792306773E-02
    96  1.230160956E-02
    97  3.227612908E-02
    98  3.890061293E-03
    99  1.370417530E-01
   100  1.011521487E-01
   101  1.975443230E-01
   102 -9.436480120E-05
   103  3.900843240E-03
   104 -5.306834103E-03
   105  8.260695577E-04
   106 -3.153588779E-04
   107  1.403005725E-02
   108  3.192898361E+00
   109  2.343817152E+00
   110  5.600271141E+00
   111 -4.300138526E-05
   112 -4.411076409E-05
   113 -5.136155830E-03
   114  2.248346635E-04
   115  9.134514832E-05
   116 -4.974099917E-04
   117 -5.921619966E-03
   118 -1.402015325E-03
   119 -5.558363729E-05
   120  6.723893607E-03
   121 -3.751991585E-02
   122  3.924625164E-04
   123  3.263660533E-03
   124  1.906488849E-05
   125 -9.601287259E-04
   126 -1.110203852E-03
   127  6.396432716E-04
   128  1.835529008E-03
   129  5.285401960E-01
   130 -9.710703142E-01
   131 -2.106839104E-01
   132  9.630581131E-02
   133  1.272155765E-04
   134  2.155005551E-04
   135 -1.534089045E-03
   136 -1.428510470E-02
   137 -1.677634729E-03
   138 -8.616295391E-04
   139 -2.991799929E-03
   140 -3.091982869E-02
   141 -3.229204913E-03
   142 -9.992975943E-04
   143  4.468230500E-03
   144  6.195050837E-02
   145  1.355406064E-03
   146  4.954100791E-04
   147  2.068246281E-05
   148 -4.977648220E-04
   149  1.339495745E-03
   150  3.675872537E-03
   151 -2.446144260E-01
   152  3.487080587E-01
   153  3.765716193E+00
   154  3.262037828E-01
   155  6.194970714E-05
   156  1.143337907E-04
   157  1.043527735E-02
   158 -1.453598577E-02
   159 -2.174853031E-02
   160 -6.166133702E-04
   161  8.120650578E-03
   162 -1.161869127E-02
   163 -2.804646349E-02
   164  1.607535268E-03
   165  7.596048659E-02
   166 -1.014287140E-01
   167 -1.627280276E-01
   168 -3.511301412E-04
   169  5.392395714E-03
   170  3.948085286E-03
   171  7.284543915E-04
   172 -4.351821355E-04
   173 -2.272351155E-02
   174  1.632543725E+00
   175 -2.157237559E+00
   176 -4.867216127E+00
   177  1.335575201E-04
   178  2.244277332E-04
   179 -1.346046341E-02
   180  4.056913625E-03
   181 -1.996712526E-03
   182 -8.350116141E-04
   183 -2.892010180E-02
   184  8.453175511E-03
   185 -4.728799364E-03
   186 -1.474089590E-03
   187  5.628519539E-02
   188 -1.569671208E-02
   189  1.462335388E-02
   190 -7.335552548E-04
   191  5.383989381E-04
   192  1.051650617E-04
   193 -1.207566239E-03
   194 -3.625756481E-03
   195 -2.919108140E-01
   196  3.499927203E+00
   197 -1.009824355E+00
   198  6.303918444E-01
   199 -4.187984981E-05
   200 -5.879264634E-05
   201 -1.171656639E-02
   202 -8.458940454E-03
   203  1.887518640E-02
   204  4.082610479E-05
   205 -7.997310658E-03
   206 -5.683740233E-03
   207  2.587624712E-02
   208  1.261766963E-03
   209 -8.116972169E-02
   210 -6.050481602E-02
   211  1.419417882E-01
   212  9.877240737E-05
   213 -3.994797722E-03
   214  5.494269582E-03
   215 -1.759821979E-03
   216  5.520766003E-04
   217  1.066423631E-01
   218 -1.520033769E+00
   219 -1.143917280E+00
   220  4.410051589E+00
   221  9.708778692E-05
   222 -2.005558302E-04
   223  1.273377005E-02
   224  2.539788757E-03
   225 -8.591704038E-04
   226  3.610979525E-04
   227  9.045235733E-02
   228  2.470137910E-04
   229 -5.609436541E-04
   230  8.415723273E-02
   231  1.303744519E-04
   232 -2.809826008E-03
   233 -5.766041995E-04
   234  9.161499010E-01
   235  9.519524360E-04
   236 -8.987201358E-03
   237  4.648947562E-01
   238  8.480013304E-04
   239 -2.480127408E-03
   240 -4.543993170E-03
   241  4.448538497E+00
   242 -9.672248878E-04
   243  1.032828508E-02
   244 -4.786929981E-01
   245 -2.388762238E-03
   246  1.533488248E-03
   247 -4.780303148E-03
   248 -4.560619758E+00
   249  9.624754387E-05
   250 -1.746647786E-04
   251  1.226165651E-02
   252  3.640017058E-04
   253  2.799297068E-03
   254  3.804409834E-04
   255  9.936228819E-02
   256  2.713389732E-04
   257 -2.294412929E-03
   258  1.332262916E-01
   259  4.197124334E-03
   260  1.770951966E-04
   261  8.433194303E-04
   262  1.366808133E+00
   263  1.067313856E-03
   264 -1.189778687E-02
   265  5.637931397E-01
   266  2.828926036E-03
   267  1.267683942E-03
   268  5.191544955E-03
   269  5.344633888E+00
   270 -1.124029570E-03
   271  1.247245386E-02
   272 -5.687908643E-01
   273 -2.661059222E-03
   274 -1.552147874E-03
   275  4.108287048E-03
   276 -5.425613152E+00
   277  9.658738897E-05
   278 -1.781074056E-04
   279  1.024395002E-02
   280 -2.327920002E-03
   281  1.845232618E-04
   282 -4.746452402E-04
   283  4.928579276E-02
   284 -2.136778680E-04
   285  2.475273971E-03
   286 -1.108043224E-01
   287  1.251607866E-03
   288  4.220925682E-03
   289  5.503740881E-04
   290 -9.786431256E-01
   291  1.355576292E-03
   292 -1.490292304E-02
   293  7.153498167E-01
   294 -3.162084661E-03
   295  2.642852837E-03
   296 -4.872365679E-03
   297  6.818402141E+00
   298 -1.506310695E-03
   299  1.481940865E-02
   300 -7.157235103E-01
   301  1.396693020E-03
   302 -3.679567766E-03
   303 -4.490110187E-03
   304 -6.818182001E+00
   305  1.052607558E-04
   306 -1.268539913E-04
   307  8.535442058E-03
   308 -6.354225641E-04
   309 -2.069317112E-03
   310 -2.618356212E-04
   311  1.255861295E-02
   312 -2.871045378E-04
   313  4.189608892E-03
   314 -1.592610049E-01
   315 -2.845149837E-03
   316  1.260810652E-03
   317 -7.464202617E-04
   318 -1.405809786E+00
   319  1.220637813E-03
   320 -1.244543898E-02
   321  6.192943193E-01
   322 -2.265080288E-03
   323 -2.714592159E-03
   324  4.197800099E-03
   325  5.893436154E+00
   326 -1.289685639E-03
   327  1.275007922E-02
   328 -6.196881038E-01
   329  2.534950777E-03
   330  2.225107328E-03
   331  5.129622151E-03
   332 -5.941769579E+00
Ene=    8.5500114701E-02
Spin= Alpha
Occup=   0.0000000
     1 -1.206669040E-02
     2 -2.041243092E-02
     3 -1.229039576E-02
     4  2.223198762E-03
     5  8.937642098E-03
     6  7.452666243E-02
     7 -1.413428142E-02
     8  2.729444290E-03
     9  1.023756489E-02
    10  1.812151264E-01
    11 -7.816276898E-02
    12  1.101670913E-02
    13  5.533799401E-02
    14 -4.471002775E-05
    15  8.259423070E-03
    16 -1.430750168E-03
    17 -5.688167071E-03
    18  1.970239403E-03
    19  2.790069629E+01
    20  3.640325642E+00
    21 -5.300476042E-01
    22 -2.590131036E+00
    23 -1.147559807E-02
    24 -1.994821455E-02
    25 -1.916352886E-02
    26 -1.385987018E-02
    27 -9.435076582E-06
    28  8.994929589E-02
    29 -2.613008768E-02
    30 -1.905828443E-02
    31 -2.386956387E-04
    32 -1.654012636E-01
    33 -1.442197216E-01
    34 -1.015000428E-01
    35  2.936164859E-03
    36  2.680244811E-04
    37 -5.091232978E-03
    38  7.197825655E-03
    39 -6.088115554E-05
    40 -4.543561130E-04
    41 -2.197841106E+01
    42 -2.911682335E+00
    43 -2.027811386E+00
    44  1.236050298E-01
    45 -1.128593898E-02
    46 -1.960630718E-02
    47 -4.618844014E-06
    48 -4.989409434E-05
    49  2.321485052E-02
    50  8.786446546E-02
    51 -7.802711833E-05
    52 -1.194496942E-04
    53  3.175051156E-02
    54 -1.536479029E-01
    55  8.357583415E-04
    56  3.191026371E-04
    57  1.687440129E-01
    58 -4.071049809E-04
    59 -1.557427580E-05
    60 -1.629433441E-05
    61  8.330506932E-03
    62 -2.870011501E-03
    63 -2.140502413E+01
    64  7.480648770E-03
    65  5.611892742E-04
    66  3.411996056E+00
    67 -1.217953293E-02
    68 -2.058768400E-02
    69  2.259155611E-03
    70  1.242808788E-02
    71 -8.746433844E-03
    72  7.456876610E-02
    73  2.745301908E-03
    74  1.459713797E-02
    75 -1.018282311E-02
    76  1.891368650E-01
    77  1.163006923E-02
    78  7.261124159E-02
    79 -5.330012051E-02
    80  1.004953520E-04
    81  1.478457016E-03
    82  8.401696016E-03
    83  5.622788627E-03
    84 -1.953654278E-03
    85  2.880547155E+01
    86 -5.640802488E-01
    87 -3.851810098E+00
    88  2.714610741E+00
    89 -1.144734528E-02
    90 -1.989419207E-02
    91 -1.373285500E-02
    92  1.918097695E-02
    93  4.322454402E-04
    94  8.956509143E-02
    95 -1.833496625E-02
    96  2.648520182E-02
    97  8.286528038E-04
    98 -1.623336426E-01
    99 -1.049889504E-01
   100  1.399727520E-01
   101  4.003671485E-03
   102  2.654909748E-04
   103 -7.122347689E-03
   104 -5.237173315E-03
   105  1.305851228E-04
   106  4.137678776E-04
   107 -2.179187002E+01
   108 -2.084445311E+00
   109  2.814576017E+00
   110 -1.081547587E-01
   111 -1.152411735E-02
   112 -2.004978739E-02
   113  3.140505695E-06
   114  9.895171443E-06
   115 -2.371727675E-02
   116  9.091042839E-02
   117 -4.864720370E-05
   118 -3.619219595E-05
   119 -3.253078459E-02
   120 -1.739689303E-01
   121  1.882449078E-04
   122  8.260645101E-04
   123 -1.798651814E-01
   124 -5.610267710E-04
   125  2.412856967E-05
   126 -1.370421894E-05
   127 -8.361943911E-03
   128  2.869594268E-03
   129 -2.256311475E+01
   130  8.923701377E-03
   131  2.439750089E-02
   132 -3.706126674E+00
   133 -1.206646816E-02
   134 -2.041289372E-02
   135  1.228480825E-02
   136 -2.227027752E-03
   137  8.892866346E-03
   138  7.460393742E-02
   139  1.406704706E-02
   140 -2.718381370E-03
   141  1.010044401E-02
   142  1.801399963E-01
   143  7.881794704E-02
   144 -1.205033528E-02
   145  5.630488124E-02
   146 -3.117615372E-05
   147 -8.231367451E-03
   148  1.457978798E-03
   149 -5.648828094E-03
   150  1.956673992E-03
   151  2.770495389E+01
   152 -3.593872014E+00
   153  5.328160503E-01
   154 -2.555029334E+00
   155 -1.140753970E-02
   156 -1.982473213E-02
   157  1.901510231E-02
   158  1.383508145E-02
   159  3.383933371E-05
   160  8.923829263E-02
   161  2.582133209E-02
   162  1.902784844E-02
   163 -1.381418321E-04
   164 -1.612117513E-01
   165  1.426586461E-01
   166  1.001426821E-01
   167  3.533405607E-03
   168  2.422425484E-04
   169  5.105061728E-03
   170 -7.213835961E-03
   171 -6.623671486E-05
   172 -4.195043472E-04
   173 -2.176169347E+01
   174  2.874318379E+00
   175  2.006146388E+00
   176  9.918527578E-02
   177 -1.220054600E-02
   178 -2.062246350E-02
   179 -2.224943301E-03
   180 -1.237763805E-02
   181 -8.827291707E-03
   182  7.466299417E-02
   183 -2.745212278E-03
   184 -1.455145059E-02
   185 -1.033142159E-02
   186  1.894737482E-01
   187 -1.103726005E-02
   188 -7.146166004E-02
   189 -5.245066077E-02
   190  6.898681060E-05
   191 -1.501467754E-03
   192 -8.436768355E-03
   193  5.657651371E-03
   194 -1.962041484E-03
   195  2.906759970E+01
   196  5.414036226E-01
   197  3.911401722E+00
   198  2.728413720E+00
   199 -1.142926455E-02
   200 -1.986527589E-02
   201  1.381616804E-02
   202 -1.909087657E-02
   203  3.690287697E-04
   204  8.952988232E-02
   205  1.840487747E-02
   206 -2.633830951E-02
   207  5.834051931E-04
   208 -1.636051208E-01
   209  1.065729608E-01
   210 -1.393390909E-01
   211  5.001835620E-03
   212  2.573950394E-04
   213  7.128656554E-03
   214  5.256426011E-03
   215  7.644309119E-05
   216  4.307223182E-04
   217 -2.173267358E+01
   218  2.078558425E+00
   219 -2.813506949E+00
   220 -8.859135934E-02
   221 -1.153203714E-02
   222 -5.804611913E-02
   223 -2.094631354E-01
   224  1.197608471E-03
   225  6.924488824E-03
   226  4.952818825E-03
   227 -8.051323445E-01
   228 -4.343294278E-03
   229 -6.561141759E-02
   230  4.396617208E-01
   231 -9.779114539E-03
   232  1.615772578E-03
   233 -2.823674623E-04
   234  1.471940560E+00
   235 -4.416057125E-03
   236 -6.369835224E-02
   237  4.209765872E-01
   238 -5.402047734E-03
   239 -4.456468646E-03
   240  6.926153025E-03
   241  1.480329586E+00
   242 -4.299938310E-03
   243 -6.626921301E-02
   244  4.397646701E-01
   245  5.816343591E-03
   246  3.808906012E-03
   247 -6.959042910E-03
   248  1.548627025E+00
   249 -1.152855475E-02
   250 -5.851202878E-02
   251 -2.002984629E-01
   252 -6.876467786E-03
   253  1.203834450E-03
   254 -4.931521670E-03
   255 -9.640767605E-01
   256 -4.347876331E-03
   257 -6.472654780E-02
   258  4.320916945E-01
   259 -1.557012265E-03
   260 -9.588009183E-03
   261  4.708082931E-04
   262  1.520874065E+00
   263 -4.518234807E-03
   264 -6.517904367E-02
   265  4.300736615E-01
   266  4.410277515E-03
   267 -5.450947306E-03
   268 -6.883607767E-03
   269  1.497526827E+00
   270 -4.163956244E-03
   271 -6.498750741E-02
   272  4.373529861E-01
   273 -3.730521992E-03
   274  5.836777216E-03
   275  6.949268043E-03
   276  1.524261428E+00
   277 -1.151128992E-02
   278 -5.848242824E-02
   279 -2.058121009E-01
   280 -1.199273054E-03
   281 -6.908555186E-03
   282  4.923196127E-03
   283 -8.312981123E-01
   284 -4.288567203E-03
   285 -6.568093458E-02
   286  4.413467705E-01
   287  9.774131081E-03
   288 -1.575273900E-03
   289 -2.975543299E-04
   290  1.474592870E+00
   291 -4.372352870E-03
   292 -6.354224694E-02
   293  4.221396981E-01
   294  5.386208483E-03
   295  4.465680205E-03
   296  6.912913527E-03
   297  1.479220460E+00
   298 -4.303391262E-03
   299 -6.684518041E-02
   300  4.431426554E-01
   301 -5.807441978E-03
   302 -3.842851877E-03
   303 -6.951996531E-03
   304  1.553701447E+00
   305 -1.153931018E-02
   306 -5.850307116E-02
   307 -2.011285241E-01
   308  6.891042129E-03
   309 -1.179675785E-03
   310 -4.938725093E-03
   311 -9.406507617E-01
   312 -4.290482549E-03
   313 -6.474615070E-02
   314  4.346018110E-01
   315  1.560937748E-03
   316  9.593520795E-03
   317  4.571328950E-04
   318  1.521267145E+00
   319 -4.501585975E-03
   320 -6.533698072E-02
   321  4.311037222E-01
   322 -4.403173598E-03
   323  5.490462594E-03
   324 -6.902611748E-03
   325  1.491524103E+00
   326 -4.112390922E-03
   327 -6.562038881E-02
   328  4.415006085E-01
   329  3.765969242E-03
   330 -5.816406457E-03
   331  6.989930778E-03
   332  1.526909765E+00
Ene=    1.0221935778E-01
Spin= Alpha
Occup=   0.0000000
     1 -1.349005150E-02
     2 -2.212102766E-02
     3 -8.158795139E-03
     4  8.907360509E-04
     5 -3.478604160E-03
     6  6.215128252E-02
     7 -2.480040303E-02
     8  4.517155542E-03
     9  7.050564193E-03
    10  2.991170413E-01
    11  2.472036708E-01
    12 -5.791509314E-02
    13 -5.414687143E-02
    14  8.867624155E-03
    15  1.760142276E-03
    16 -2.275177458E-04
    17 -1.863794024E-04
    18 -5.247607967E-05
    19  2.871498338E+01
    20  9.306820860E+00
    21 -1.925487803E+00
    22 -3.837534727E+00
    23  4.328806802E-04
    24  7.727359943E-04
    25  3.446950857E-03
    26 -1.813791365E-03
    27 -1.082473188E-02
    28 -4.750148029E-03
    29 -9.370228902E-04
    30  4.682519043E-03
    31 -9.932147504E-03
    32  2.835592152E-02
    33  6.428030839E-02
    34 -5.082333898E-02
    35 -2.501342654E-01
    36 -1.248542561E-04
    37 -1.248192120E-03
    38 -1.732702138E-03
    39 -1.155296562E-02
    40  4.060633764E-03
    41  8.024452809E-02
    42  1.014475175E+00
    43 -1.389822072E+00
    44 -9.660672349E-01
    45 -7.489355145E-03
    46 -1.370946393E-02
    47 -1.032227163E-03
    48  1.197942204E-04
    49  4.222865803E-02
    50  9.017363879E-02
    51 -3.446992386E-04
    52  1.018353477E-04
    53  5.812963111E-02
    54 -6.167529337E-01
    55 -2.377833456E-02
    56  8.761795250E-04
    57  5.210579295E-01
    58 -3.577082881E-03
    59 -6.389913791E-04
    60  2.920494792E-04
    61  9.887229927E-03
    62 -3.471158473E-03
    63 -3.517877775E+01
    64 -2.384238638E-01
    65  1.922715724E-02
    66  8.877795163E+00
    67  1.432022992E-02
    68  2.347466275E-02
    69 -1.552351959E-03
    70 -7.766017578E-03
    71 -3.445285897E-03
    72 -6.568275627E-02
    73 -5.432971076E-03
    74 -2.525919040E-02
    75  7.762817321E-03
    76 -3.197046981E-01
    77  6.984278790E-02
    78  2.607310496E-01
    79 -7.065389637E-02
    80 -8.583156362E-03
    81 -1.368987672E-04
    82 -1.720433092E-03
    83  4.656312829E-05
    84  7.278210650E-04
    85 -3.132857876E+01
    86  2.215435258E+00
    87  9.847199113E+00
    88 -4.412322716E+00
    89  5.876903315E-05
    90  1.735722697E-04
    91  3.719030163E-03
    92  3.985146135E-04
    93 -1.075898547E-02
    94 -2.926551546E-03
    95 -1.982754888E-03
    96 -5.251806800E-03
    97 -1.009941897E-02
    98  3.740741734E-02
    99  7.441816513E-02
   100  2.349380296E-02
   101 -2.477362744E-01
   102  5.129336705E-06
   103 -1.143880138E-03
   104  1.895573727E-03
   105 -1.166811092E-02
   106  3.905990184E-03
   107  3.173594254E+00
   108  1.901294685E+00
   109  3.515632730E-01
   110 -9.353460943E-01
   111  7.259102208E-03
   112  1.333070778E-02
   113 -5.724816211E-04
   114 -8.521826713E-05
   115  4.180591296E-02
   116 -8.905025359E-02
   117 -1.131395834E-03
   118  9.188350021E-05
   119  5.768570377E-02
   120  6.214137850E-01
   121 -1.144326463E-02
   122 -2.448084721E-03
   123  5.176737625E-01
   124  3.469441470E-03
   125 -8.972448565E-04
   126  3.180907868E-04
   127  9.805681323E-03
   128 -3.427717519E-03
   129  3.507229529E+01
   130  6.527467617E-02
   131 -1.090883268E-01
   132  8.860142926E+00
   133 -1.625703815E-02
   134 -2.665455828E-02
   135  8.448667360E-03
   136 -1.125627855E-03
   137 -2.503836977E-03
   138  7.478690085E-02
   139  2.811215743E-02
   140 -5.235910144E-03
   141  1.041731359E-02
   142  3.616123019E-01
   143 -2.812412159E-01
   144  6.705187685E-02
   145 -9.187716495E-02
   146  8.099589760E-03
   147 -1.988684127E-03
   148  2.468078039E-04
   149 -4.073728717E-04
   150  2.789950305E-04
   151  3.509778055E+01
   152 -1.088216735E+01
   153  2.259667290E+00
   154 -5.186261777E+00
   155 -3.972752884E-04
   156 -7.545211371E-04
   157 -4.568641828E-05
   158  5.162823415E-03
   159 -1.117334582E-02
   160  5.611197007E-03
   161  5.894719172E-03
   162 -6.013168161E-04
   163 -9.795579008E-03
   164 -4.555187127E-02
   165 -2.738729850E-02
   166  1.023787640E-01
   167 -2.567062108E-01
   168  8.867048653E-05
   169  1.145121834E-03
   170  2.062478920E-04
   171 -1.156259478E-02
   172  3.721084114E-03
   173 -3.734481401E+00
   174 -3.085268935E-01
   175  2.096173110E+00
   176 -1.129489919E+00
   177  1.485676368E-02
   178  2.434999949E-02
   179  2.823892318E-04
   180  7.924890547E-03
   181 -3.175930175E-03
   182 -6.805133482E-02
   183  3.950821552E-03
   184  2.599052292E-02
   185  8.543780492E-03
   186 -3.317164831E-01
   187 -5.515689581E-02
   188 -2.705767144E-01
   189 -7.806572191E-02
   190 -8.390177453E-03
   191  3.118911328E-04
   192  1.743878892E-03
   193 -4.697856308E-04
   194 -5.770884624E-04
   195 -3.251058827E+01
   196 -2.004963030E+00
   197 -1.024254506E+01
   198 -4.569207325E+00
   199 -5.388782973E-04
   200 -9.181800706E-04
   201 -2.841241692E-03
   202 -3.769582184E-03
   203 -1.121334552E-02
   204  4.162439588E-03
   205  3.648475752E-03
   206  8.500733092E-04
   207 -9.522569077E-03
   208 -1.076598421E-02
   209 -7.506598579E-02
   210 -7.285451764E-02
   211 -2.589931144E-01
   212  1.357331721E-04
   213  9.809222505E-04
   214 -3.459313730E-04
   215 -1.140131355E-02
   216  4.059275490E-03
   217  4.116868098E-01
   218 -1.586901536E+00
   219 -9.827555139E-01
   220 -1.206834923E+00
   221 -3.716417269E-03
   222  1.367823591E-02
   223 -2.339826551E-01
   224 -8.655191228E-04
   225 -6.158897305E-03
   226 -6.937964057E-04
   227 -6.525005929E+00
   228  8.451948119E-03
   229  5.140939874E-02
   230  6.297658675E-02
   231  1.144116923E-02
   232 -1.911090941E-03
   233 -2.718522756E-03
   234  1.658028828E+00
   235 -1.155916259E-02
   236 -4.857910545E-02
   237 -1.044303080E-01
   238 -5.616876927E-03
   239 -7.616400457E-04
   240 -5.525245469E-03
   241  1.874194106E-01
   242  1.069170113E-02
   243  4.891567178E-02
   244  5.279091090E-03
   245 -2.162895563E-03
   246 -4.596367352E-03
   247 -6.296411630E-03
   248 -6.767624926E-02
   249  3.748180690E-03
   250 -1.745773506E-02
   251  2.599329009E-01
   252 -6.545670819E-03
   253  1.209670891E-03
   254 -1.103627217E-03
   255  7.071002031E+00
   256 -7.209807865E-03
   257 -4.684165341E-02
   258 -5.184609182E-02
   259 -2.453132135E-03
   260 -1.151808774E-02
   261 -2.430714030E-03
   262 -1.660195554E+00
   263  1.091902600E-02
   264  4.465608120E-02
   265  9.376667072E-02
   266 -3.455502407E-04
   267  4.724909070E-03
   268 -6.290158517E-03
   269 -3.648124978E-01
   270 -1.170418484E-02
   271 -5.547395330E-02
   272 -7.673555905E-03
   273 -5.313097572E-03
   274  2.591186611E-03
   275 -5.370237186E-03
   276 -5.126058413E-02
   277 -3.608110478E-03
   278  1.361922471E-02
   279 -2.296614250E-01
   280  1.328445238E-03
   281  5.962259105E-03
   282 -5.284861088E-04
   283 -6.293806169E+00
   284  6.214947718E-03
   285  4.133251228E-02
   286  5.543950241E-02
   287 -1.163865041E-02
   288  1.632127764E-03
   289 -2.171381005E-03
   290  1.715516214E+00
   291 -1.234053794E-02
   292 -5.082458452E-02
   293 -1.063911622E-01
   294  4.631447031E-03
   295 -9.734733831E-05
   296 -5.655069996E-03
   297  3.480563249E-01
   298  1.255315619E-02
   299  5.882494171E-02
   300  1.068266032E-02
   301  1.873148274E-03
   302  5.016615885E-03
   303 -5.161279230E-03
   304  2.656174841E-02
   305  3.142638265E-03
   306 -1.563365645E-02
   307  2.275350135E-01
   308  5.860834703E-03
   309 -1.026695241E-03
   310 -3.214952942E-04
   311  5.848769948E+00
   312 -7.666855702E-03
   313 -4.818682574E-02
   314 -6.134161516E-02
   315  1.120032228E-03
   316  1.170825344E-02
   317 -2.506521954E-03
   318 -1.693209619E+00
   319  1.272302257E-02
   320  5.306580025E-02
   321  1.155001994E-01
   322  2.548900726E-04
   323 -5.403646331E-03
   324 -4.997111697E-03
   325 -1.585721973E-01
   326 -1.179250278E-02
   327 -5.435461075E-02
   328 -5.808975316E-03
   329  4.402902762E-03
   330 -1.516431320E-03
   331 -5.959324218E-03
   332  1.239218022E-01
Ene=    1.0283969687E-01
Spin= Alpha
Occup=   0.0000000
     1 -1.124002526E-02
     2 -1.843343187E-02
     3 -2.814132359E-03
     4 -7.300718666E-03
     5  4.129915573E-03
     6  5.222719703E-02
     7 -1.593555080E-02
     8 -6.304665376E-03
     9  1.396595646E-02
    10  2.404804919E-01
    11  1.536872985E-01
    12  7.502067359E-02
    13 -1.403839318E-01
    14 -2.869690648E-03
    15  6.665170848E-04
    16 -8.664774816E-04
    17 -3.564258256E-03
    18 -8.373691293E-03
    19  2.252456445E+01
    20  6.308793454E+00
    21  1.107839464E+00
    22 -5.305457236E+00
    23  1.888245023E-03
    24  3.436517785E-03
    25  1.435322848E-02
    26 -2.485194335E-03
    27 -4.494658466E-03
    28 -2.212662260E-02
    29  1.653598232E-02
    30  6.370552119E-04
    31  1.996880249E-03
    32  1.474463023E-01
    33  2.435082972E-01
    34 -1.212775579E-01
    35 -8.643793631E-02
    36 -4.904089706E-04
    37  1.136137536E-02
    38  4.939985302E-03
    39  1.190616748E-03
    40  3.368962910E-04
    41  7.884586396E+00
    42  2.286209923E+00
    43  2.880401367E-01
    44 -1.695682711E+00
    45 -1.629826022E-04
    46 -2.979065093E-04
    47  5.994503455E-03
    48 -7.282187229E-03
    49  9.280215619E-04
    50  2.048542927E-03
    51  9.217986086E-04
    52 -1.215141293E-02
    53  1.107214436E-03
    54 -1.478530662E-02
    55  1.389360142E-01
    56 -1.677576155E-01
    57  1.265014383E-02
    58 -7.455570206E-05
    59  7.715632005E-03
    60  1.079182291E-02
    61  3.041347495E-04
    62 -1.159279566E-04
    63 -3.520225064E-01
    64  1.459990973E+00
    65  4.312931024E-01
    66  1.047274858E-01
    67 -1.786307601E-02
    68 -2.927785718E-02
    69  4.738612060E-03
    70  1.203347453E-03
    71 -6.888177335E-03
    72  8.235180359E-02
    73  8.434207342E-03
    74  2.100122100E-02
    75 -2.230546727E-02
    76  3.937171579E-01
    77 -9.127665611E-02
    78 -2.030726989E-01
    79  2.332777016E-01
    80 -5.424844399E-03
    81 -1.067283578E-04
    82  1.063635026E-03
    83 -4.144659469E-04
    84 -5.506635139E-03
    85  3.695263955E+01
    86 -2.936593040E+00
    87 -9.311906428E+00
    88  8.525832321E+00
    89 -6.959654435E-03
    90 -1.273895837E-02
    91 -2.631975496E-02
    92  3.191575682E-02
    93  4.553021451E-04
    94  8.421341966E-02
    95 -3.517168763E-02
    96  4.440068891E-02
    97 -1.319570309E-03
    98 -5.815897035E-01
    99 -3.422192968E-01
   100  3.694599233E-01
   101  1.164727280E-02
   102  1.628504109E-03
   103 -1.035871753E-02
   104 -3.541439526E-03
   105  2.934364395E-04
   106  2.821406904E-03
   107 -3.238621286E+01
   108 -5.017609085E+00
   109  6.512185993E+00
   110  4.321045216E-01
   111  1.244870542E-04
   112  2.433809405E-04
   113  6.424855229E-04
   114 -1.336189007E-02
   115  9.600061543E-04
   116 -2.076218060E-03
   117  3.882897211E-03
   118 -7.065911911E-03
   119  1.294905369E-03
   120  1.806686104E-02
   121  3.615078014E-02
   122 -2.933079200E-01
   123  1.371088193E-02
   124  8.976278921E-05
   125  8.575159996E-03
   126  8.363415424E-03
   127  2.107297316E-04
   128 -7.556439400E-05
   129  1.017089903E+00
   130 -6.101444032E-01
   131 -2.412773121E+00
   132  2.794979785E-01
   133  1.049840525E-02
   134  1.722336020E-02
   135 -2.445135825E-03
   136 -7.312689515E-03
   137 -4.411596643E-03
   138 -4.892869203E-02
   139 -1.499953075E-02
   140 -6.744823730E-03
   141 -1.348702345E-02
   142 -2.234713943E-01
   143  1.437053430E-01
   144  8.242568725E-02
   145  1.316978192E-01
   146  3.282577795E-03
   147  6.039310584E-04
   148 -8.674467062E-04
   149  3.527401023E-03
   150  8.430568235E-03
   151 -2.096431363E+01
   152  5.975837902E+00
   153  1.268417585E+00
   154  4.931319597E+00
   155 -1.806862277E-03
   156 -3.314361527E-03
   157  1.441737022E-02
   158 -2.305221502E-03
   159  3.814569018E-03
   160  2.209126379E-02
   161  1.714883466E-02
   162  5.509229673E-04
   163 -2.896411999E-03
   164 -1.542729285E-01
   165  2.438217625E-01
   166 -1.162942795E-01
   167  7.456731583E-02
   168  4.911960218E-04
   169  1.138990944E-02
   170  5.020016336E-03
   171 -1.694041897E-03
   172 -1.120420795E-04
   173 -8.917512625E+00
   174  2.429805778E+00
   175  5.551815612E-01
   176  1.683283381E+00
   177  1.856764442E-02
   178  3.043351305E-02
   179  4.559163426E-03
   180  1.581816405E-03
   181  6.816060580E-03
   182 -8.563099998E-02
   183  8.666367998E-03
   184  2.240114961E-02
   185  2.256520667E-02
   186 -4.075480036E-01
   187 -1.006136003E-01
   188 -2.186833346E-01
   189 -2.313988657E-01
   190  5.023485680E-03
   191 -1.053742249E-04
   192  1.189213102E-03
   193  4.363450762E-04
   194  5.469103608E-03
   195 -3.837377469E+01
   196 -3.204706114E+00
   197 -9.777102513E+00
   198 -8.675277458E+00
   199  6.912564669E-03
   200  1.266282253E-02
   201 -2.652410124E-02
   202  3.176617326E-02
   203 -9.375492387E-04
   204 -8.399142142E-02
   205 -3.530593076E-02
   206  4.440383911E-02
   207  9.404654259E-04
   208  5.826607168E-01
   209 -3.444323441E-01
   210  3.675807555E-01
   211 -2.453161709E-02
   212 -1.607720955E-03
   213 -1.032305529E-02
   214 -3.539209955E-03
   215 -8.876125708E-04
   216 -2.668936958E-03
   217  3.263659222E+01
   218 -5.155224875E+00
   219  6.498974979E+00
   220 -5.495564060E-01
   221 -4.536365987E-03
   222  1.913320436E-02
   223 -3.081959761E-01
   224 -2.694686613E-03
   225 -4.118753420E-03
   226 -5.340791428E-03
   227 -7.933100023E+00
   228 -8.453178791E-03
   229 -3.403550988E-02
   230 -6.448748939E-02
   231 -5.262926992E-04
   232 -8.873984243E-03
   233  1.828324458E-03
   234  6.128459889E-02
   235  1.024118052E-02
   236  5.633354145E-02
   237  9.381063752E-02
   238  6.949794310E-03
   239  1.497018762E-03
   240 -9.334533379E-03
   241  1.614651988E+00
   242  4.649488550E-03
   243  3.223619249E-02
   244  6.010426445E-02
   245 -6.892235464E-03
   246 -6.918824087E-03
   247  6.739119581E-03
   248  1.634575484E+00
   249 -2.595615815E-03
   250  1.267070723E-02
   251 -1.947378179E-01
   252  2.955832020E-03
   253  2.858130960E-03
   254  3.256964887E-03
   255 -4.484388007E+00
   256  1.418274500E-02
   257  6.254362809E-02
   258  5.523901013E-02
   259  5.013157793E-03
   260 -2.213461882E-03
   261  3.313227627E-03
   262 -2.287507988E-01
   263  9.894148110E-03
   264  3.851856834E-02
   265  5.730070822E-02
   266  6.139761870E-03
   267 -4.937333001E-03
   268  2.189547518E-03
   269 -5.874709946E-01
   270 -1.362510600E-02
   271 -6.252463122E-02
   272 -6.628766837E-02
   273 -7.142547780E-04
   274 -4.690470658E-03
   275  6.244991623E-03
   276 -3.201765902E-01
   277  4.337144984E-03
   278 -1.850719411E-02
   279  2.958946101E-01
   280 -2.640616877E-03
   281 -3.830106383E-03
   282  5.288684209E-03
   283  7.615143588E+00
   284  8.783337696E-03
   285  3.619494160E-02
   286  5.703235215E-02
   287 -1.045747893E-03
   288 -8.836496210E-03
   289 -1.993852453E-03
   290  7.254544360E-02
   291 -1.083715694E-02
   292 -5.833900001E-02
   293 -1.078838313E-01
   294  7.165094219E-03
   295  1.552550167E-03
   296  9.090438512E-03
   297 -1.603063093E+00
   298 -4.120888069E-03
   299 -2.967814526E-02
   300 -6.180108083E-02
   301 -6.746993021E-03
   302 -6.661557574E-03
   303 -7.121488778E-03
   304 -1.597678772E+00
   305  2.740070975E-03
   306 -1.265655379E-02
   307  2.015262190E-01
   308  3.229224042E-03
   309  2.750786168E-03
   310 -3.325152692E-03
   311  4.779166833E+00
   312 -1.470685496E-02
   313 -6.299041882E-02
   314 -8.891794919E-02
   315  5.038896135E-03
   316 -1.612880252E-03
   317 -3.360331167E-03
   318  1.879498250E-01
   319 -9.311042257E-03
   320 -3.674511395E-02
   321 -3.389278943E-02
   322  6.156965981E-03
   323 -5.192257755E-03
   324 -2.481275392E-03
   325  4.880863201E-01
   326  1.317904130E-02
   327  5.833285315E-02
   328  9.624696466E-02
   329 -4.372542411E-04
   330 -4.764234641E-03
   331 -6.510026972E-03
   332  2.861863217E-01
Ene=    1.0306127386E-01
Spin= Alpha
Occup=   0.0000000
     1  1.923391925E-02
     2  3.153221848E-02
     3  1.914200366E-03
     4 -4.839510717E-03
     5 -6.604119410E-03
     6 -8.911969898E-02
     7  2.332026054E-02
     8 -8.847510247E-03
     9 -2.274778148E-02
    10 -4.179492185E-01
    11 -2.252059663E-01
    12  9.563260822E-02
    13  2.342683451E-01
    14  4.646792856E-03
    15 -1.088775156E-03
    16 -1.922873653E-05
    17 -5.543100917E-04
    18 -5.498825378E-03
    19 -3.865172709E+01
    20 -1.006108748E+01
    21  3.137694581E+00
    22  8.716849710E+00
    23  6.868111134E-03
    24  1.255809945E-02
    25  3.183774722E-02
    26  2.663311859E-02
    27  1.445517722E-03
    28 -8.272185354E-02
    29  4.465628277E-02
    30  3.505379873E-02
    31 -2.478493583E-04
    32  5.698794511E-01
    33  3.626997946E-01
    34  3.443595488E-01
    35  3.172587795E-02
    36 -1.560757973E-03
    37  3.672002076E-03
    38 -1.039924670E-02
    39  1.357490371E-03
    40  2.398377844E-03
    41  3.164994644E+01
    42  6.274462293E+00
    43  5.020579794E+00
    44  5.226190259E-01
    45  4.557335894E-04
    46  8.276864962E-04
    47 -1.327086037E-02
    48 -6.008106507E-04
    49 -2.788745360E-03
    50 -5.210689987E-03
    51 -7.347971410E-03
    52 -3.537932984E-03
    53 -3.956127018E-03
    54  3.409892836E-02
    55 -2.869276538E-01
    56 -3.760220388E-02
    57 -3.129758758E-02
    58  1.723451616E-04
    59 -8.511094444E-03
    60  8.618602226E-03
    61 -6.369825645E-04
    62  2.139332820E-04
    63  2.346327881E+00
    64 -2.346512871E+00
    65  5.601773584E-01
    66 -5.726879762E-01
    67 -1.192717564E-02
    68 -1.957649677E-02
    69 -7.186367585E-03
    70  3.294866013E-03
    71 -4.119063998E-03
    72  5.598705068E-02
    73 -6.325317538E-03
    74  1.736553471E-02
    75 -1.436719083E-02
    76  2.506608878E-01
    77  7.859728790E-02
    78 -1.620640386E-01
    79  1.390713078E-01
    80 -2.514263533E-03
    81  7.930930055E-04
    82  6.391611379E-04
    83  3.504559706E-03
    84  8.442241547E-03
    85  2.297374890E+01
    86  1.078411576E+00
    87 -6.701589390E+00
    88  5.344323370E+00
    89  1.757221503E-03
    90  3.225070663E-03
    91 -2.497220239E-03
    92 -1.434900082E-02
    93  4.877882230E-03
    94 -2.166760435E-02
    95  8.096949457E-04
    96 -1.648332411E-02
    97 -1.254110312E-03
    98  1.527029884E-01
    99 -1.194302540E-01
   100 -2.442691656E-01
   101  9.052453984E-02
   102 -4.550467787E-04
   103 -5.024283653E-03
   104  1.146646272E-02
   105 -5.052978363E-04
   106 -5.142696723E-04
   107  8.263784056E+00
   108  3.530360069E-01
   109 -2.393430126E+00
   110  1.670577338E+00
   111 -4.878528083E-04
   112 -8.783799371E-04
   113 -7.094616361E-03
   114 -6.001749846E-03
   115 -2.781242134E-03
   116  5.289157579E-03
   117 -1.166742262E-02
   118 -1.221673295E-03
   119 -3.915885525E-03
   120 -3.215061704E-02
   121 -1.675407047E-01
   122 -1.347217721E-01
   123 -3.062851445E-02
   124 -2.196251190E-04
   125 -1.074871067E-02
   126  7.830542472E-03
   127 -6.706352721E-04
   128  2.084499809E-04
   129 -2.167133954E+00
   130  4.190555991E-01
   131 -1.358587925E+00
   132 -5.286413450E-01
   133 -1.732845155E-02
   134 -2.840543872E-02
   135  9.987589752E-04
   136 -4.494034955E-03
   137  7.011492815E-03
   138  8.020405913E-02
   139  2.006461905E-02
   140 -8.276152026E-03
   141  2.175096606E-02
   142  3.762026735E-01
   143 -1.912582225E-01
   144  9.455320375E-02
   145 -2.262765079E-01
   146 -5.762695150E-03
   147 -1.032110086E-03
   148 -6.629648074E-05
   149  5.320275109E-04
   150  5.470437945E-03
   151  3.502888785E+01
   152 -8.696850661E+00
   153  3.057356106E+00
   154 -8.303805716E+00
   155 -6.866069598E-03
   156 -1.256279874E-02
   157  3.214604473E-02
   158  2.629508395E-02
   159 -3.177120214E-05
   160  8.291309359E-02
   161  4.452254966E-02
   162  3.551273873E-02
   163  1.623819612E-03
   164 -5.721055685E-01
   165  3.691599485E-01
   166  3.374979825E-01
   167 -2.184995497E-03
   168  1.577111248E-03
   169  3.529222923E-03
   170 -1.043173322E-02
   171  1.636462136E-04
   172 -2.948210279E-03
   173 -3.219073794E+01
   174  6.453325494E+00
   175  5.014791995E+00
   176 -4.882387268E-01
   177  9.946349394E-03
   178  1.631481915E-02
   179 -7.364734198E-03
   180  2.107826572E-03
   181  4.367766861E-03
   182 -4.641556193E-02
   183 -6.605902773E-03
   184  1.373315727E-02
   185  1.297415405E-02
   186 -2.104062364E-01
   187  7.919752261E-02
   188 -1.314334815E-01
   189 -1.297895123E-01
   190  3.641773413E-03
   191  7.410628608E-04
   192  5.337765031E-04
   193 -3.424054220E-03
   194 -8.438407140E-03
   195 -1.942738323E+01
   196  1.240672931E+00
   197 -5.375841009E+00
   198 -4.871097288E+00
   199 -1.831780779E-03
   200 -3.345444497E-03
   201 -1.982318426E-03
   202 -1.403599073E-02
   203 -3.677335952E-03
   204  2.195032235E-02
   205  7.642972169E-04
   206 -1.643092818E-02
   207  2.147732846E-03
   208 -1.495800451E-01
   209 -1.125307495E-01
   210 -2.387340677E-01
   211 -6.131864220E-02
   212  5.038967911E-04
   213 -5.058253796E-03
   214  1.155850488E-02
   215  2.137339721E-03
   216 -4.125669428E-06
   217 -7.872694784E+00
   218  3.706545290E-01
   219 -2.247221022E+00
   220 -1.529723427E+00
   221 -2.466004087E-03
   222  1.161806525E-02
   223 -1.859519166E-01
   224  2.870728229E-03
   225 -2.660272429E-03
   226 -3.280157678E-03
   227 -4.198420566E+00
   228  1.395878346E-02
   229  5.883409309E-02
   230  7.383417691E-02
   231 -2.658887455E-03
   232 -4.892902279E-03
   233 -3.190860702E-03
   234 -2.935363064E-01
   235  1.037220396E-02
   236  4.054667924E-02
   237  4.872963958E-02
   238 -4.775048872E-03
   239 -6.126098780E-03
   240 -1.980308993E-03
   241 -4.721619803E-01
   242 -1.430243589E-02
   243 -6.171781068E-02
   244 -1.095144007E-01
   245 -4.604005783E-03
   246  7.951388574E-04
   247 -6.046779754E-03
   248 -3.317319736E-01
   249  4.182902113E-03
   250 -1.797017433E-02
   251  2.903163653E-01
   252 -3.587536267E-03
   253  2.644790668E-03
   254 -5.314246810E-03
   255  7.330706412E+00
   256  9.111476904E-03
   257  3.851539122E-02
   258  6.107019407E-02
   259 -8.762179433E-03
   260  1.520378572E-03
   261  2.028860163E-03
   262  1.213955824E-01
   263 -1.132636858E-02
   264 -6.082088663E-02
   265 -1.034806686E-01
   266  1.595957563E-03
   267 -7.311546495E-03
   268 -8.839420307E-03
   269 -1.603548073E+00
   270 -3.694381732E-03
   271 -2.801388035E-02
   272 -5.440200202E-02
   273 -6.452102832E-03
   274  6.734199580E-03
   275  7.256257119E-03
   276 -1.624174455E+00
   277  2.980239254E-03
   278 -1.560986075E-02
   279  2.352861474E-01
   280  2.756934251E-03
   281 -3.528091713E-03
   282  3.331668094E-03
   283  5.023375747E+00
   284 -1.492631185E-02
   285 -6.574952382E-02
   286 -7.749461351E-02
   287 -1.205509475E-03
   288 -5.183674308E-03
   289  3.436954842E-03
   290  9.521360499E-02
   291 -8.844017181E-03
   292 -3.440775379E-02
   293 -4.432778812E-02
   294 -5.440001218E-03
   295 -6.202474261E-03
   296  2.755702715E-03
   297  5.209428529E-01
   298  1.268891215E-02
   299  5.609046149E-02
   300  8.501687775E-02
   301 -4.876974900E-03
   302  2.027558398E-04
   303  6.768011060E-03
   304  3.431774084E-01
   305 -4.746330277E-03
   306  2.064386051E-02
   307 -3.332350371E-01
   308 -4.379113142E-03
   309  2.785997992E-03
   310  5.325503495E-03
   311 -8.123488254E+00
   312 -8.212469952E-03
   313 -3.137642227E-02
   314 -6.697704305E-02
   315 -9.033934396E-03
   316  5.996260992E-05
   317 -1.774364264E-03
   318  9.417701992E-02
   319  9.868658424E-03
   320  5.318674967E-02
   321  1.134067574E-01
   322  1.609591380E-03
   323 -6.643615782E-03
   324  9.573827909E-03
   325  1.595263074E+00
   326  5.276177429E-03
   327  3.403847669E-02
   328  7.670486830E-02
   329 -7.016797394E-03
   330  7.014004490E-03
   331 -6.572460442E-03
   332  1.561011654E+00
Ene=    1.1585858210E-01
Spin= Alpha
Occup=   0.0000000
     1  5.426563394E-04
     2  1.874329296E-03
     3  2.622223166E-02
     4 -4.264315582E-03
     5 -1.848507349E-02
     6 -2.699320329E-02
     7  3.707290921E-02
     8 -5.986852698E-03
     9 -2.629272162E-02
    10  3.215601924E-01
    11  2.808196716E-01
    12 -4.841495034E-02
    13 -1.958220888E-01
    14  6.471225846E-05
    15 -1.130442026E-02
    16  1.747374046E-03
    17  7.542005308E-03
    18 -2.607921092E-03
    19  1.157687582E+01
    20 -1.636415386E-02
    21  3.912878428E-03
    22  1.256894046E-01
    23  7.014921266E-03
    24  1.207617320E-02
    25 -1.530768695E-03
    26 -1.803220986E-03
    27  1.922584476E-04
    28 -4.612588610E-02
    29 -5.390364210E-03
    30 -4.943935357E-03
    31  3.662260146E-04
    32 -1.138150850E-01
    33 -6.896127122E-02
    34 -5.111499716E-02
    35 -5.070275879E-05
    36 -7.146593805E-03
    37 -3.845396148E-03
    38  5.252619830E-03
    39  4.076262773E-03
    40  1.181614397E-02
    41 -4.164304834E+00
    42 -1.719670852E+00
    43 -1.210035844E+00
    44  4.795481909E-02
    45  7.143124056E-03
    46  1.227938879E-02
    47 -5.272654450E-05
    48 -1.871639562E-05
    49  2.660032102E-03
    50 -4.650624347E-02
    51 -1.207010773E-04
    52 -5.352451461E-05
    53  7.918559342E-03
    54 -1.207357890E-01
    55  2.827441807E-04
    56  7.067326307E-05
    57  8.928351473E-02
    58  1.434501168E-02
    59 -7.207538671E-05
    60  9.384600208E-06
    61  6.327838670E-03
    62 -2.118660743E-03
    63 -4.559002686E+00
    64  4.528392611E-03
    65  4.133729010E-03
    66  2.221008517E+00
    67  6.250386028E-04
    68  2.014340106E-03
    69 -4.204881088E-03
    70 -2.645931971E-02
    71  1.864070010E-02
    72 -2.757689187E-02
    73 -6.050346580E-03
    74 -3.754553374E-02
    75  2.669840104E-02
    76  3.229260294E-01
    77 -4.545445745E-02
    78 -2.798880395E-01
    79  1.963020976E-01
    80  6.639587912E-06
    81 -1.806719225E-03
    82 -1.129992625E-02
    83 -7.594319857E-03
    84  2.682378851E-03
    85  1.166519153E+01
    86  6.325962720E-02
    87  5.198688919E-02
    88 -1.168935868E-01
    89  6.955875036E-03
    90  1.198115292E-02
    91 -1.639399856E-03
    92  1.528654884E-03
    93  6.504229282E-05
    94 -4.588073719E-02
    95 -4.462784102E-03
    96  5.451673763E-03
    97  1.829904280E-04
    98 -1.115413182E-01
    99 -5.220833095E-02
   100  6.744473181E-02
   101 -4.005302540E-04
   102 -7.167419758E-03
   103 -5.274210036E-03
   104 -3.794896763E-03
   105 -4.166440380E-03
   106 -1.179220280E-02
   107 -3.951079678E+00
   108 -1.221362172E+00
   109  1.644494227E+00
   110 -7.081795288E-02
   111  7.225886800E-03
   112  1.241753098E-02
   113 -2.847693866E-05
   114 -1.169559038E-06
   115 -2.003573954E-03
   116 -4.703737040E-02
   117 -3.670487861E-05
   118  2.163813400E-06
   119 -6.980774021E-03
   120 -1.197954191E-01
   121 -6.906604076E-04
   122 -2.244523600E-05
   123 -8.535225376E-02
   124  1.438995579E-02
   125 -2.829892256E-05
   126  4.421152318E-09
   127 -6.186899876E-03
   128  2.104906400E-03
   129 -4.617934033E+00
   130  4.456715338E-04
   131 -2.011862102E-04
   132 -2.257545918E+00
   133  3.968869123E-04
   134  1.632442337E-03
   135 -2.624700410E-02
   136  4.263442974E-03
   137 -1.848189623E-02
   138 -2.616164654E-02
   139 -3.705977876E-02
   140  5.978101090E-03
   141 -2.626387003E-02
   142  3.230478302E-01
   143 -2.811403888E-01
   144  4.824776836E-02
   145 -1.963570570E-01
   146  2.719535273E-05
   147  1.133941976E-02
   148 -1.755748093E-03
   149  7.588034726E-03
   150 -2.620520952E-03
   151  1.151111519E+01
   152  8.893063354E-03
   153 -1.983390993E-03
   154  1.133265608E-01
   155  7.031927112E-03
   156  1.210588797E-02
   157  1.581600017E-03
   158  1.879970077E-03
   159  1.661307316E-04
   160 -4.622884578E-02
   161  5.417469663E-03
   162  5.024244553E-03
   163  2.647749857E-04
   164 -1.139379874E-01
   165  6.957801661E-02
   166  5.168381455E-02
   167  9.263294158E-04
   168 -7.158611220E-03
   169  3.819703732E-03
   170 -5.352959884E-03
   171  4.045901626E-03
   172  1.184630417E-02
   173 -4.131580806E+00
   174  1.720150722E+00
   175  1.218313409E+00
   176  5.008593887E-02
   177  6.149427049E-04
   178  1.996071451E-03
   179  4.157381966E-03
   180  2.643387258E-02
   181  1.861350608E-02
   182 -2.746446088E-02
   183  5.966144962E-03
   184  3.748140331E-02
   185  2.665060346E-02
   186  3.222760219E-01
   187  4.612671878E-02
   188  2.798537267E-01
   189  1.962777557E-01
   190  7.002806326E-06
   191  1.780832860E-03
   192  1.129646846E-02
   193 -7.618202485E-03
   194  2.613907586E-03
   195  1.164627925E+01
   196 -6.963028601E-02
   197 -4.942208872E-02
   198 -1.165858599E-01
   199  6.960812646E-03
   200  1.199121491E-02
   201  1.675117363E-03
   202 -1.693039517E-03
   203  5.438973627E-05
   204 -4.593662565E-02
   205  4.477681687E-03
   206 -5.663230534E-03
   207  1.296661112E-04
   208 -1.115788702E-01
   209  5.251241731E-02
   210 -6.858555975E-02
   211  1.895350621E-04
   212 -7.176636745E-03
   213  5.289315211E-03
   214  3.896381416E-03
   215 -4.197437538E-03
   216 -1.179144434E-02
   217 -3.891887343E+00
   218  1.214612552E+00
   219 -1.642384826E+00
   220 -6.986316172E-02
   221  6.125890864E-03
   222  1.192664921E-01
   223 -2.845735062E-01
   224 -6.494718045E-04
   225 -4.215770432E-03
   226 -3.076963403E-03
   227 -3.642967454E+00
   228 -2.596680137E-03
   229  1.202748029E-02
   230 -1.576510874E-01
   231 -4.309878875E-03
   232  6.817490774E-04
   233 -8.076259628E-03
   234 -3.167807170E-01
   235 -2.907578842E-03
   236  1.226063757E-02
   237 -1.850464743E-01
   238  2.013622640E-03
   239 -8.402071553E-03
   240  3.045833248E-03
   241 -3.103882260E-01
   242 -2.514290560E-03
   243  1.180759691E-02
   244 -1.699901721E-01
   245  7.262482139E-03
   246 -4.824173324E-03
   247 -3.207833706E-03
   248 -1.895792611E-01
   249  6.173110513E-03
   250  1.185445809E-01
   251 -2.729033734E-01
   252  4.125367090E-03
   253 -6.053915395E-04
   254  3.008140052E-03
   255 -3.579885482E+00
   256 -2.731053078E-03
   257  1.147104773E-02
   258 -1.636914141E-01
   259 -6.925548923E-04
   260 -4.428600869E-03
   261  8.072072887E-03
   262 -3.125723819E-01
   263 -2.821480572E-03
   264  1.159812460E-02
   265 -1.736381579E-01
   266  8.353227655E-03
   267  2.048182915E-03
   268 -3.129151968E-03
   269 -3.062552965E-01
   270 -2.579034759E-03
   271  1.211640034E-02
   272 -1.698594515E-01
   273  4.790691578E-03
   274  7.333018632E-03
   275  3.080393611E-03
   276 -2.350716175E-01
   277  6.125286546E-03
   278  1.192964121E-01
   279 -2.856734370E-01
   280  6.794602923E-04
   281  4.227060817E-03
   282 -3.088749885E-03
   283 -3.647479399E+00
   284 -2.673143843E-03
   285  1.158747960E-02
   286 -1.581531395E-01
   287  4.300654289E-03
   288 -6.717857852E-04
   289 -8.064429133E-03
   290 -3.175264705E-01
   291 -2.890456328E-03
   292  1.207238077E-02
   293 -1.823949883E-01
   294 -2.041940653E-03
   295  8.347377902E-03
   296  3.041984838E-03
   297 -3.066090644E-01
   298 -2.420030784E-03
   299  1.198027009E-02
   300 -1.661978254E-01
   301 -7.255419915E-03
   302  4.812477447E-03
   303 -3.154622818E-03
   304 -1.805909594E-01
   305  6.111568643E-03
   306  1.188493035E-01
   307 -2.786889869E-01
   308 -4.139533290E-03
   309  6.140894929E-04
   310  3.038833438E-03
   311 -3.610401639E+00
   312 -2.719132492E-03
   313  1.136157673E-02
   314 -1.622142122E-01
   315  6.167401816E-04
   316  4.444598027E-03
   317  8.065307838E-03
   318 -3.065854970E-01
   319 -2.721338936E-03
   320  1.167340160E-02
   321 -1.698777272E-01
   322 -8.349034401E-03
   323 -2.026895521E-03
   324 -3.077933270E-03
   325 -2.926477925E-01
   326 -2.564199205E-03
   327  1.186583660E-02
   328 -1.680048805E-01
   329 -4.808332865E-03
   330 -7.270082122E-03
   331  3.086702667E-03
   332 -2.287379503E-01
Ene=    1.1975438183E-01
Spin= Alpha
Occup=   0.0000000
     1  8.134953172E-04
     2  1.252977110E-03
     3 -6.330091157E-03
     4  6.855909631E-03
     5  1.449520376E-02
     6 -1.400859099E-03
     7 -1.170451117E-02
     8  1.618785941E-02
     9  3.162303847E-02
    10 -9.938187968E-02
    11  3.069417432E-02
    12  1.421481895E-02
    13  1.482478157E-02
    14 -6.577880765E-03
    15  2.237623546E-03
    16  4.927732330E-04
    17 -1.335035166E-03
    18  6.268187487E-03
    19 -2.606120951E+00
    20  1.943832250E+00
    21  9.669664553E-01
    22  7.922093074E-01
    23  6.436975993E-03
    24  1.095156521E-02
    25  1.885532019E-02
    26  1.193759172E-02
    27  2.643896393E-02
    28 -4.387505373E-02
    29  3.489004583E-02
    30  1.397656016E-02
    31  4.426955349E-02
    32  5.233441254E-02
    33  8.024502359E-02
    34  7.782899629E-02
    35  9.407200169E-02
    36 -2.730752366E-03
    37 -5.226101680E-03
    38 -1.961456756E-03
    39  7.986430138E-03
    40  2.609720147E-03
    41 -1.232680533E+00
    42 -3.652829596E+00
    43  3.986044224E-01
    44 -3.260984066E-01
    45 -7.732577822E-03
    46 -1.318586681E-02
    47  1.149921416E-02
    48  3.413890422E-02
    49  2.843900846E-02
    50  5.365879949E-02
    51  1.940812379E-02
    52  6.606006624E-02
    53  4.657169651E-02
    54 -7.759246250E-02
    55  3.979816982E-02
    56  9.243948653E-02
    57  1.408483835E-01
    58 -7.447198107E-03
    59  2.531209925E-03
    60 -2.198948435E-03
    61 -1.418510230E-03
    62  7.311672414E-04
    63  1.304197066E+00
    64 -1.481992555E-01
    65 -3.611709260E+00
    66 -3.372466547E+00
    67  2.845992779E-04
    68  4.443125790E-04
    69  4.181292853E-03
    70  8.378060834E-03
    71  5.563342272E-03
    72 -6.832466972E-04
    73  9.099305337E-03
    74  1.893571783E-02
    75  1.385643861E-02
    76 -2.965460330E-02
    77  1.332240867E-02
    78  1.479303333E-02
    79  3.001012024E-02
    80  8.540444226E-03
    81 -3.873194245E-04
    82  1.971900389E-03
    83 -1.477002565E-03
    84 -1.619303286E-03
    85 -7.523703422E-01
    86  7.104677231E-01
    87  8.932548194E-01
    88  1.861010305E+00
    89 -3.153591299E-03
    90 -5.358620554E-03
    91  2.413063943E-02
    92  3.013391301E-02
    93  4.082676468E-02
    94  2.134367046E-02
    95  4.908228306E-02
    96  5.598328990E-02
    97  7.753766612E-02
    98 -2.174239884E-02
    99  4.974775841E-02
   100  1.010543407E-01
   101  1.157854441E-01
   102  1.232306286E-03
   103  1.107808289E-03
   104 -4.761902799E-04
   105  3.380225764E-03
   106  1.300595903E-03
   107  9.242424619E-01
   108 -2.550598827E+00
   109 -3.513134898E+00
   110 -3.772017272E+00
   111  7.856926617E-03
   112  1.338277413E-02
   113  1.550410782E-02
   114  1.270321389E-02
   115  2.838976403E-02
   116 -5.408717903E-02
   117  2.838537798E-02
   118  1.676890429E-02
   119  4.634068424E-02
   120  7.286531325E-02
   121  4.917343557E-02
   122  5.897843204E-02
   123  1.416842827E-01
   124  7.349404550E-03
   125 -4.994309320E-04
   126 -7.365340618E-03
   127 -1.420428254E-03
   128  7.305485085E-04
   129 -1.550612201E+00
   130 -1.073460785E+00
   131  1.476973657E+00
   132 -3.428006055E+00
   133  2.703495981E-03
   134  4.239870545E-03
   135  2.696969021E-02
   136  2.238206103E-03
   137  2.463090414E-02
   138 -7.158506010E-03
   139  5.525516502E-02
   140  6.147115451E-03
   141  5.203578135E-02
   142 -2.529345034E-01
   143 -3.369668009E-02
   144  3.150707537E-02
   145 -3.879196523E-03
   146 -4.172015027E-03
   147 -6.537706080E-03
   148  2.614294677E-03
   149 -7.494975069E-03
   150 -3.053290352E-03
   151 -5.930603893E+00
   152 -2.333885074E+00
   153  1.798874188E+00
   154 -4.945879071E-01
   155 -5.941261839E-03
   156 -1.014247917E-02
   157  4.327016246E-03
   158  3.236920816E-02
   159  3.555267995E-02
   160  4.153508214E-02
   161  1.476678529E-03
   162  6.104563742E-02
   163  6.547392411E-02
   164 -6.518813995E-02
   165  5.671876464E-02
   166  1.091750027E-01
   167  1.059339077E-01
   168  3.139818660E-03
   169  4.344052220E-04
   170  1.875209312E-03
   171  2.461229378E-03
   172 -6.274335193E-03
   173  9.948205844E-01
   174 -1.110800032E-01
   175 -4.390401768E+00
   176 -2.517571118E+00
   177 -3.706995329E-03
   178 -5.792102922E-03
   179  8.814684390E-03
   180  4.175021526E-02
   181  3.310503821E-02
   182  9.022079858E-03
   183  1.916383201E-02
   184  8.596870991E-02
   185  6.939111584E-02
   186  3.762165795E-01
   187 -4.122529659E-03
   188 -4.990676792E-02
   189 -2.537199147E-02
   190  2.292284402E-03
   191  1.738733872E-03
   192  1.076953098E-02
   193 -7.110740597E-03
   194  4.751269670E-03
   195  9.270244352E+00
   196 -1.073838342E-01
   197 -3.323190478E+00
   198 -1.662987005E+00
   199  2.480913999E-03
   200  4.249702853E-03
   201  3.545194084E-03
   202  1.579581563E-02
   203  2.116739902E-02
   204 -1.792777811E-02
   205  1.747851174E-03
   206  2.290901697E-02
   207  3.221675826E-02
   208  3.790833580E-02
   209  1.674925240E-02
   210  7.967063955E-02
   211  8.415185209E-02
   212 -1.468410342E-03
   213  4.805525123E-03
   214 -6.240341579E-03
   215  7.076775998E-03
   216 -4.943830647E-03
   217 -4.654548459E-01
   218  2.191437226E+00
   219  9.800393115E-02
   220  9.317900924E-01
   221  8.839524315E-03
   222  5.817159169E-02
   223 -5.112055207E-01
   224 -3.172256986E-03
   225 -1.026097026E-02
   226 -9.261833314E-03
   227 -2.861470224E+00
   228 -2.703703258E-03
   229 -5.466023387E-03
   230  1.491807134E-01
   231  2.472618564E-03
   232  1.467046850E-03
   233 -2.909258862E-03
   234 -1.182663093E+00
   235 -7.380198389E-04
   236  1.987226985E-02
   237 -6.289503627E-02
   238  3.605001415E-03
   239  2.340926238E-04
   240  7.896424182E-04
   241 -1.067996068E+00
   242 -8.275446530E-04
   243 -5.233702420E-03
   244  7.895294076E-02
   245  1.631551115E-03
   246  7.895102054E-05
   247  2.377885587E-03
   248 -2.814892825E-01
   249 -5.874715079E-03
   250 -3.814625736E-02
   251  3.293479890E-01
   252 -6.478993953E-03
   253 -2.145443785E-03
   254 -7.417749061E-03
   255  1.858444789E+00
   256  2.174840746E-03
   257 -9.309768389E-02
   258  3.985529993E-01
   259 -6.155809387E-05
   260 -5.571438358E-03
   261 -6.962318308E-03
   262  4.164107064E+00
   263  1.655807455E-03
   264 -1.011223740E-01
   265  4.736995998E-01
   266 -2.765298558E-03
   267 -7.504590730E-03
   268 -2.943887602E-03
   269  4.169223925E+00
   270  2.441974410E-03
   271  6.760421629E-02
   272 -4.640012688E-01
   273  7.571803918E-04
   274 -7.034159445E-04
   275  2.505450460E-04
   276 -1.065097436E+00
   277 -6.516012239E-04
   278 -4.449344511E-03
   279  3.955303522E-02
   280 -1.721893955E-03
   281 -3.703067430E-03
   282 -3.746773107E-03
   283  2.171638227E-01
   284 -2.264130083E-03
   285  4.841644506E-02
   286 -1.423364182E-01
   287 -3.660021889E-03
   288  2.205236264E-03
   289 -5.094166059E-03
   290 -2.803398921E+00
   291  1.439546914E-03
   292  1.036533551E-01
   293 -6.257507015E-01
   294 -3.455092107E-03
   295  1.273419163E-03
   296 -1.639635575E-03
   297 -2.660617143E+00
   298  3.488209689E-04
   299 -1.193674499E-01
   300  6.082993423E-01
   301  5.439988754E-04
   302 -7.053537124E-03
   303 -3.304317893E-03
   304  4.186197057E+00
   305 -2.322073262E-03
   306 -1.596084178E-02
   307  1.397238513E-01
   308  1.662025252E-04
   309 -3.609633649E-03
   310 -5.474393405E-03
   311  8.015105203E-01
   312  2.861290644E-03
   313  4.999354786E-02
   314 -3.910628081E-01
   315  6.655311416E-04
   316  4.946108508E-04
   317 -1.123955869E-03
   318 -2.242963137E-01
   319 -2.262467398E-03
   320 -2.230554435E-02
   321  2.150342063E-01
   322 -1.661089364E-03
   323 -3.478471332E-04
   324  2.219513813E-03
   325 -4.064253386E-01
   326 -1.870888298E-03
   327  5.707725723E-02
   328 -2.231352818E-01
   329 -6.258420476E-03
   330  4.127137892E-04
   331 -1.306046070E-03
   332 -2.806943056E+00
Ene=    1.1976280145E-01
Spin= Alpha
Occup=   0.0000000
     1 -3.726360173E-03
     2 -5.835765330E-03
     3  4.390296664E-02
     4 -8.577471204E-03
     5 -2.630490531E-02
     6  9.545038185E-03
     7  9.150352884E-02
     8 -1.827406068E-02
     9 -5.367523245E-02
    10  3.640445993E-01
    11 -3.316839670E-02
    12  1.943655370E-03
    13  4.298632757E-02
    14 -3.636345866E-03
    15 -1.111682393E-02
    16  1.709433552E-03
    17  6.127791859E-03
    18 -3.523599999E-03
    19  8.750945875E+00
    20 -2.334142790E+00
    21  1.013220677E-01
    22  2.757229355E+00
    23  5.964491995E-03
    24  1.017811205E-02
    25  3.535491054E-02
    26 -1.097383581E-02
    27  5.546443887E-03
    28 -4.170616287E-02
    29  5.925488274E-02
    30 -1.993403347E-02
    31  1.671065832E-02
    32  6.490966038E-02
    33  1.497207235E-01
    34 -1.603854281E-02
    35 -2.404418240E-03
    36 -2.916466407E-03
    37  4.797366827E-03
    38  4.806162948E-03
    39 -3.081609860E-03
    40  6.436473118E-03
    41 -1.248188909E+00
    42 -2.656317218E+00
    43 -9.108353332E-01
    44 -2.737500517E+00
    45  1.926223831E-03
    46  3.281448704E-03
    47  2.222016841E-02
    48 -1.198199461E-02
    49 -6.658206428E-03
    50 -1.326408136E-02
    51  3.069629876E-02
    52 -2.083207119E-02
    53 -1.085654835E-02
    54  1.708675611E-02
    55  9.834474210E-02
    56 -4.238072350E-02
    57 -3.325905539E-02
    58  1.771946757E-03
    59  1.160420280E-02
    60 -1.467606058E-03
    61  4.024675795E-04
    62 -1.847031902E-04
    63 -4.249259375E-01
    64  2.085160139E+00
    65  4.345243997E-01
    66  8.370203498E-01
    67 -2.631273294E-04
    68 -4.267039932E-04
    69  9.303348441E-03
    70 -3.399545002E-03
    71 -1.610383319E-03
    72  1.182043430E-03
    73  2.203039461E-02
    74 -7.608829468E-03
    75 -3.770539945E-03
    76  6.897982563E-03
    77  3.304175664E-02
    78 -1.208930087E-02
    79 -6.962479612E-03
    80 -2.051193069E-03
    81 -1.800821669E-03
    82 -1.182939530E-04
    83 -2.553055447E-03
    84 -8.240538226E-03
    85 -9.218106659E-02
    86  2.024108433E+00
    87 -6.135560703E-01
    88 -4.418875222E-01
    89  8.204153574E-03
    90  1.398137395E-02
    91  3.432244765E-02
    92 -1.153070980E-02
    93  2.335554288E-03
    94 -5.660071360E-02
    95  5.727095248E-02
    96 -1.828986412E-02
    97  9.398026502E-03
    98  7.721024047E-02
    99  1.434581150E-01
   100 -7.489048130E-02
   101 -9.276494211E-03
   102 -3.821830926E-03
   103  1.508759318E-03
   104 -5.316176281E-03
   105 -5.942725221E-03
   106 -5.097608382E-03
   107 -1.399142277E+00
   108 -2.390026567E+00
   109  2.639898491E+00
   110 -1.996971236E+00
   111 -1.793148604E-03
   112 -3.060323363E-03
   113  5.481788577E-02
   114 -1.279126101E-02
   115 -6.804146500E-03
   116  1.254950950E-02
   117  1.055571769E-01
   118 -2.302703365E-02
   119 -1.116639294E-02
   120 -2.016795754E-02
   121  1.508926728E-01
   122 -4.015539768E-02
   123 -3.411890471E-02
   124 -1.768970603E-03
   125  3.072957953E-03
   126  1.341269063E-03
   127  3.150569046E-04
   128 -1.559066943E-04
   129  2.498018417E-01
   130 -5.623416217E+00
   131  6.728502632E-01
   132  7.822731483E-01
   133  2.827265538E-03
   134  4.426948361E-03
   135  3.582536673E-02
   136 -7.468780210E-03
   137  1.717178101E-02
   138 -7.187417299E-03
   139  7.543791654E-02
   140 -1.589470919E-02
   141  3.394594263E-02
   142 -2.787621705E-01
   143 -1.955655838E-02
   144 -1.720714003E-03
   145 -4.366585716E-02
   146  6.268258204E-03
   147 -8.902544324E-03
   148  1.223163554E-03
   149 -4.110643694E-03
   150  2.814732778E-03
   151 -6.791188361E+00
   152 -1.358983613E+00
   153 -8.723654051E-02
   154 -2.764049401E+00
   155 -6.137767525E-03
   156 -1.045861160E-02
   157  3.881041588E-02
   158 -1.584438588E-02
   159 -2.036977096E-02
   160  4.245871034E-02
   161  6.716868773E-02
   162 -3.119965809E-02
   163 -4.297561889E-02
   164 -5.977335993E-02
   165  1.557594271E-01
   166 -2.362031127E-02
   167 -4.488274134E-02
   168  2.886952267E-03
   169  3.441411825E-03
   170  3.891757309E-03
   171  5.929870960E-04
   172 -5.490108900E-03
   173  1.387104798E+00
   174 -3.509064940E+00
   175  2.091912752E-01
   176  3.439559825E+00
   177  1.093650866E-03
   178  1.728782356E-03
   179  8.112155704E-03
   180 -1.118789200E-02
   181 -7.794383703E-03
   182 -3.337424137E-03
   183  1.953090040E-02
   184 -2.342303257E-02
   185 -1.625986305E-02
   186 -8.871084536E-02
   187  3.663605858E-02
   188  5.442025417E-03
   189  4.166619978E-03
   190 -5.030148061E-04
   191 -2.279262268E-03
   192 -2.159762603E-03
   193  4.692990811E-03
   194  7.456934329E-03
   195 -1.877220369E+00
   196  2.199443494E+00
   197  4.222739335E-01
   198  3.592311920E-01
   199 -8.157445811E-03
   200 -1.390009344E-02
   201  3.917208262E-02
   202 -8.079236849E-03
   203 -1.706637955E-02
   204  5.624996716E-02
   205  6.832873256E-02
   206 -1.032540939E-02
   207 -3.546119307E-02
   208 -7.728817421E-02
   209  1.519145593E-01
   210 -6.955705412E-02
   211 -3.831387831E-02
   212  3.921078752E-03
   213  5.813938544E-04
   214 -3.930844896E-03
   215  3.369016461E-03
   216  5.918281784E-03
   217  1.462477731E+00
   218 -3.527288809E+00
   219  1.827512527E+00
   220  2.660286010E+00
   221 -2.079729363E-03
   222 -1.287377775E-02
   223  1.101598779E-01
   224 -4.815045237E-03
   225  3.257754799E-03
   226  2.086522342E-03
   227  6.205898855E-01
   228 -1.190885680E-05
   229 -1.183766970E-01
   230  6.245740749E-01
   231 -4.614950542E-03
   232  2.586591393E-04
   233  5.566429198E-03
   234  3.930097779E+00
   235  2.362035002E-03
   236 -8.536432271E-02
   237  3.526111930E-01
   238 -6.563974583E-03
   239  3.593773361E-03
   240  4.264767674E-03
   241  4.026673505E+00
   242  3.079698970E-03
   243  4.036447182E-02
   244 -3.396993199E-01
   245  4.595681275E-05
   246  2.122605773E-03
   247 -1.106142114E-04
   248  1.418732122E-01
   249 -6.542919079E-03
   250 -4.267783747E-02
   251  3.747041501E-01
   252 -1.042859478E-02
   253  2.511734378E-03
   254 -2.751862069E-03
   255  2.091540545E+00
   256 -4.657788219E-04
   257  2.180359108E-02
   258 -8.860512495E-02
   259  2.898719378E-03
   260  7.841719499E-04
   261  1.658130627E-03
   262 -9.770447664E-01
   263  2.309853505E-03
   264  6.380302368E-02
   265 -4.531405263E-01
   266  5.321132329E-04
   267 -4.860835071E-04
   268  1.091681516E-03
   269 -8.966213707E-01
   270  1.507170222E-03
   271 -9.668761308E-02
   272  4.331709282E-01
   273 -6.812227995E-03
   274 -1.500526089E-03
   275  4.469314436E-03
   276  4.014300955E+00
   277  9.972398683E-05
   278  2.625363240E-04
   279  5.235017258E-05
   280 -5.166788002E-03
   281  1.657765362E-03
   282  9.558149092E-04
   283  3.889386038E-03
   284  1.189790794E-03
   285  1.081786253E-01
   286 -6.222227163E-01
   287 -3.163494308E-03
   288  7.569142623E-05
   289 -3.669381452E-03
   290 -3.006550872E+00
   291 -2.567963243E-03
   292  5.603149346E-02
   293 -1.947967285E-01
   294 -4.834365957E-03
   295  3.393155933E-03
   296 -4.119802410E-03
   297 -3.136048620E+00
   298 -2.943911101E-03
   299 -1.077663577E-02
   300  1.745609022E-01
   301  2.768822714E-04
   302  3.803893803E-03
   303  3.433191542E-04
   304 -1.037469852E+00
   305  8.506860815E-03
   306  5.530769381E-02
   307 -4.826781754E-01
   308 -1.194990915E-02
   309  2.813397809E-03
   310  5.900852379E-03
   311 -2.720228272E+00
   312 -7.905454853E-04
   313 -1.173340867E-02
   314  9.034141204E-02
   315  2.703704284E-03
   316 -6.355356053E-04
   317  3.124898027E-04
   318  5.276150210E-03
   319 -2.163278887E-03
   320 -3.422179129E-02
   321  2.857152776E-01
   322  2.213045553E-04
   323 -2.151685289E-03
   324 -8.774217272E-04
   325 -1.798344122E-03
   326 -1.669730708E-03
   327  6.676798215E-02
   328 -2.703442252E-01
   329 -5.105073836E-03
   330 -1.819659379E-03
   331 -4.270315171E-03
   332 -3.073025529E+00
Ene=    1.1976346041E-01
Spin= Alpha
Occup=   0.0000000
     1  1.745886263E-03
     2  2.750976020E-03
     3 -1.513515744E-02
     4 -6.146395825E-03
     5  1.617652032E-02
     6 -5.072301029E-03
     7 -3.052086244E-02
     8 -1.431775100E-02
     9  3.472577360E-02
    10 -1.493141751E-01
    11  1.964602690E-02
    12 -3.855188107E-02
    13  4.362395991E-03
    14 -4.511654682E-03
    15  3.454622500E-03
    16 -2.527358883E-03
    17 -5.886685446E-03
    18 -5.067284122E-03
    19 -3.262550298E+00
    20  1.456731284E+00
    21 -2.073137814E+00
    22  9.663385402E-02
    23 -5.174369763E-03
    24 -8.854596017E-03
    25  2.719199322E-03
    26 -3.878727321E-02
    27  3.513494117E-02
    28  3.681499412E-02
    29  9.929312248E-03
    30 -7.180357210E-02
    31  6.711478930E-02
    32 -6.711938869E-02
    33 -2.837232654E-02
    34 -1.307361422E-01
    35  9.735279826E-02
    36  2.914428154E-03
    37  1.620978024E-03
    38 -2.601258084E-04
    39  5.861183001E-04
    40 -5.194363325E-03
    41  4.259798195E-01
    42 -1.987704043E-01
    43  4.194268175E+00
    44 -3.370966375E+00
    45 -6.580593146E-03
    46 -1.121769940E-02
    47 -7.386631932E-03
    48 -4.405672217E-02
    49  2.372169667E-02
    50  4.555862942E-02
    51 -1.443555274E-02
    52 -8.454730787E-02
    53  3.879254226E-02
    54 -6.373818962E-02
    55 -1.914494768E-02
    56 -1.225218558E-01
    57  1.178616676E-01
    58 -6.258541055E-03
    59  2.211550178E-04
    60  2.246147972E-03
    61 -1.203249195E-03
    62  7.794974979E-04
    63  1.259083519E+00
    64  7.700384661E-01
    65  4.420326716E+00
    66 -2.874743889E+00
    67 -4.115370283E-03
    68 -6.447334903E-03
    69 -6.780610645E-03
    70 -4.586546404E-02
    71  3.361979264E-02
    72  1.059034162E-02
    73 -1.471552929E-02
    74 -9.489901003E-02
    75  6.986944460E-02
    76  4.017835429E-01
    77  1.626627701E-02
    78  4.780402552E-02
    79 -3.145965747E-02
    80  5.968561770E-04
    81 -2.500031523E-03
    82 -1.156341472E-02
    83 -8.032322288E-03
    84  2.990998945E-03
    85  9.663547756E+00
    86  7.176947018E-01
    87  3.190669439E+00
    88 -2.089602282E+00
    89  5.192924402E-03
    90  8.883057575E-03
    91  2.624506809E-03
    92 -2.420148881E-02
    93  1.711793729E-02
    94 -3.702764458E-02
    95  7.545864286E-03
    96 -3.742963901E-02
    97  2.556797634E-02
    98  6.993525219E-02
    99  1.666758551E-02
   100 -1.190699883E-01
   101  6.869173466E-02
   102 -2.928806124E-03
   103 -4.756752108E-03
   104  5.205227438E-03
   105  5.343128744E-03
   106 -6.801055684E-03
   107 -7.514348435E-01
   108 -2.551005940E+00
   109  1.097633050E+00
   110  9.214670331E-01
   111  6.502506107E-03
   112  1.108454200E-02
   113 -2.895055356E-03
   114 -1.879279408E-02
   115  2.382003701E-02
   116 -4.505841133E-02
   117 -3.762986224E-03
   118 -2.660849026E-02
   119  3.897088479E-02
   120  6.499925269E-02
   121 -1.603203588E-02
   122 -8.092696810E-02
   123  1.190963018E-01
   124  6.192903559E-03
   125  1.462285514E-03
   126  9.214107136E-03
   127 -1.130900500E-03
   128  7.581662166E-04
   129 -1.165346233E+00
   130 -3.353915438E-01
   131 -1.533120292E+00
   132 -2.837536722E+00
   133  1.285074006E-03
   134  1.989531833E-03
   135  1.312145322E-02
   136 -9.285522182E-03
   137  1.653338770E-02
   138 -2.539376999E-03
   139  2.597952110E-02
   140 -2.204983067E-02
   141  3.542147662E-02
   142 -1.480847162E-01
   143 -3.102232838E-02
   144 -1.569044204E-02
   145  2.531513582E-03
   146 -4.613516988E-03
   147 -3.985296140E-03
   148 -3.022605358E-04
   149 -1.389767918E-03
   150  7.887252010E-03
   151 -3.833527366E+00
   152 -2.042812538E+00
   153 -1.184732698E+00
   154  6.900529264E-02
   155  6.124349786E-03
   156  1.040286588E-02
   157 -9.111710735E-03
   158 -2.137816008E-02
   159  1.697412131E-02
   160 -4.120468442E-02
   161 -1.714445342E-02
   162 -3.168198187E-02
   163  2.511736254E-02
   164  4.043158337E-02
   165 -4.767274191E-02
   166 -1.030813855E-01
   167  7.051998496E-02
   168 -2.439967673E-03
   169  6.529691417E-03
   170  2.802746776E-03
   171  8.250555391E-03
   172  2.008017547E-03
   173 -1.491138514E+00
   174  2.952454356E+00
   175  3.257468725E-01
   176  9.822938355E-01
   177  1.167569094E-03
   178  1.832120044E-03
   179 -3.689457893E-03
   180 -1.789612659E-02
   181 -9.320227407E-04
   182 -3.113244794E-03
   183 -7.038897690E-03
   184 -3.866184754E-02
   185  2.380154817E-04
   186 -1.101754858E-01
   187 -7.258286419E-03
   188 -7.413246531E-03
   189  3.748836126E-02
   190  8.498740672E-03
   191 -2.966595033E-04
   192 -4.293808613E-03
   193  7.778750372E-04
   194 -1.808262672E-04
   195 -2.598928113E+00
   196 -1.843386133E-01
   197 -3.389512069E-01
   198  2.291525644E+00
   199 -6.146007094E-03
   200 -1.044862692E-02
   201 -1.482939826E-02
   202 -3.598093658E-02
   203  3.498536063E-02
   204  4.171270967E-02
   205 -3.259049033E-02
   206 -6.451302508E-02
   207  6.666156484E-02
   208 -4.530964488E-02
   209 -1.213537364E-02
   210 -1.366865139E-01
   211  9.920096217E-02
   212  2.493860992E-03
   213 -1.773927174E-03
   214  2.425219061E-04
   215  3.546399666E-03
   216  3.772815171E-03
   217  1.703010650E+00
   218  1.318164592E+00
   219  4.242063721E+00
   220 -3.316381695E+00
   221 -2.544267983E-03
   222 -1.641451390E-02
   223  1.427944847E-01
   224  7.559948638E-04
   225  6.259156125E-03
   226 -2.005170895E-03
   227  8.039438310E-01
   228 -1.982726525E-03
   229  1.778902422E-02
   230  5.442173261E-03
   231  2.178108681E-03
   232 -2.342415298E-03
   233 -3.349166724E-03
   234 -1.625969840E+00
   235  2.376065425E-03
   236  8.198233298E-02
   237 -5.505106508E-01
   238  1.311599009E-03
   239 -2.867646116E-04
   240 -5.450842991E-04
   241 -1.461747535E+00
   242  1.312962707E-03
   243 -1.130301015E-01
   244  5.242561425E-01
   245 -8.801296116E-04
   246  7.962164308E-03
   247 -3.902436616E-03
   248  4.496960444E+00
   249 -3.465501233E-03
   250 -2.354184262E-02
   251  2.063410948E-01
   252 -2.136612505E-03
   253  4.950398047E-03
   254 -5.552934482E-03
   255  1.172173980E+00
   256  2.638715058E-03
   257  7.224169444E-02
   258 -4.950558636E-01
   259  2.340043726E-04
   260  4.901340406E-04
   261  2.558211322E-04
   262 -1.081675777E+00
   263 -2.004808233E-03
   264  8.477210790E-03
   265  4.015156664E-02
   266  2.328825328E-03
   267  1.262913625E-03
   268  3.084415270E-03
   269 -1.312759234E+00
   270 -1.909986652E-03
   271  2.270982490E-02
   272 -3.799952299E-02
   273  4.560853827E-03
   274 -7.442937067E-04
   275 -1.140399480E-04
   276 -1.718494315E+00
   277  9.441384459E-03
   278  6.110819018E-02
   279 -5.347415960E-01
   280  2.251791373E-03
   281  1.173758959E-02
   282 -8.864485370E-03
   283 -3.010631436E+00
   284 -2.213545254E-03
   285  1.803345179E-02
   286 -5.109034574E-03
   287 -2.985336279E-03
   288 -1.985128488E-03
   289 -3.372035218E-03
   290 -1.691589639E+00
   291 -1.696603953E-03
   292  2.201906750E-02
   293 -3.704325678E-02
   294 -4.732911470E-03
   295  4.661196552E-04
   296  2.442513674E-06
   297 -1.599792746E+00
   298 -1.742907277E-03
   299  8.400101632E-03
   300  4.118576762E-02
   301 -1.669584662E-03
   302  2.002890877E-03
   303  3.004433339E-03
   304 -1.153898874E+00
   305 -3.463892943E-03
   306 -2.169775486E-02
   307  1.832402742E-01
   308  3.325929303E-03
   309  3.459653383E-03
   310 -5.371473557E-03
   311  1.054935006E+00
   312  1.636474935E-03
   313 -1.079847269E-01
   314  4.950452272E-01
   315  5.854364476E-04
   316  5.597091308E-03
   317 -7.091048066E-03
   318  4.427037298E+00
   319  1.408911676E-03
   320 -1.125785909E-01
   321  5.541528108E-01
   322  3.210112648E-03
   323  7.304804572E-03
   324 -3.612579290E-03
   325  4.371652610E+00
   326  2.415599620E-03
   327  8.180381162E-02
   328 -5.206044520E-01
   329 -1.359379718E-03
   330  1.715632525E-04
   331 -7.976230811E-04
   332 -1.627474534E+00
Ene=    1.2162153729E-01
Spin= Alpha
Occup=   0.0000000
     1  3.762478101E-04
     2  6.302212112E-04
     3 -4.366583556E-03
     4 -3.306855339E-02
     5  2.138890229E-04
     6 -2.303342442E-03
     7 -4.342860040E-03
     8 -3.773681179E-02
     9 -4.783005071E-04
    10  3.828604167E-05
    11 -4.300952888E-02
    12 -2.671814503E-01
    13  6.154394440E-03
    14  1.643147930E-04
    15 -3.557540428E-03
    16 -2.045177560E-02
    17  2.229197436E-03
    18  7.133561906E-03
    19  3.932301497E-01
    20 -1.138590957E+00
    21 -6.470885144E+00
    22  8.884572494E-02
    23  2.008339278E-02
    24  3.289690163E-02
    25 -1.377759791E-02
    26 -8.698557098E-03
    27 -7.652256400E-04
    28 -9.685002567E-02
    29 -3.388600407E-02
    30 -2.175628359E-02
    31 -1.387966524E-03
    32 -5.371962789E-01
    33 -1.099311358E-02
    34 -8.723716497E-03
    35 -3.275104070E-03
    36  9.117598548E-03
    37 -5.992497534E-03
    38  7.998070383E-03
    39  1.423472705E-04
    40 -3.490778813E-04
    41 -1.914927273E+01
    42 -4.188525711E+00
    43 -3.210853167E+00
    44  7.765862206E-02
    45  6.746984892E-04
    46  1.106632033E-03
    47  6.281465121E-05
    48  5.234063304E-04
    49 -1.529544830E-03
    50 -3.308210452E-03
    51  1.002924681E-04
    52  8.470371653E-04
    53 -1.712335007E-03
    54 -1.512032783E-02
    55  4.525374542E-04
    56  3.420677509E-03
    57 -9.653398258E-03
    58  1.945703342E-05
    59  2.901418283E-06
    60 -8.150270376E-05
    61  4.936147496E-03
    62  1.415274556E-02
    63 -6.190337996E-01
    64 -1.166359525E-02
    65 -3.052481189E-02
    66  2.393573580E-01
    67 -1.951181699E-04
    68 -3.363470572E-04
    69  3.311412639E-02
    70 -4.661781027E-03
    71 -1.116578736E-03
    72  1.468893155E-03
    73  3.794817114E-02
    74 -4.405173649E-03
    75 -2.098212872E-03
    76 -5.556073022E-03
    77  2.658699766E-01
    78 -4.776114267E-02
    79 -4.200409916E-03
    80  2.207886340E-04
    81 -2.048392153E-02
    82  3.253890988E-03
    83  2.961002102E-03
    84  6.736956996E-03
    85 -3.209187421E-01
    86  6.453721793E+00
    87 -1.304429592E+00
    88 -8.374112433E-02
    89 -2.061552931E-02
    90 -3.377036592E-02
    91  9.364077709E-03
    92 -1.362138740E-02
    93 -6.270687723E-04
    94  9.941661890E-02
    95  2.304704679E-02
    96 -3.385351281E-02
    97 -1.171579303E-03
    98  5.515665272E-01
    99  1.107000348E-02
   100 -1.054571131E-02
   101 -9.253898126E-04
   102 -8.700736749E-03
   103  8.336253046E-03
   104  5.949222761E-03
   105 -6.309779559E-05
   106 -6.188739138E-04
   107  1.957728481E+01
   108  3.272300729E+00
   109 -4.314252077E+00
   110  4.708424278E-02
   111  2.525956545E-04
   112  4.082090507E-04
   113 -1.504631630E-05
   114  3.069841681E-04
   115 -2.265887687E-03
   116 -1.066018847E-03
   117 -4.620831747E-05
   118  5.711758890E-04
   119 -3.603335741E-03
   120 -1.049961602E-02
   121 -1.437235137E-04
   122 -1.281878917E-04
   123 -9.492512284E-03
   124 -3.066517992E-04
   125 -2.422070731E-05
   126 -2.782948525E-04
   127  4.524796903E-03
   128  1.429311879E-02
   129 -3.376360233E-01
   130  1.257206932E-02
   131  2.515055522E-02
   132 -1.361507819E-02
   133  4.108989997E-04
   134  6.885741918E-04
   135  4.398218127E-03
   136  3.329955561E-02
   137  2.155983057E-04
   138 -2.539472780E-03
   139  4.430967119E-03
   140  3.820960523E-02
   141 -4.557106705E-04
   142 -3.854607101E-04
   143  4.270243433E-02
   144  2.664699463E-01
   145  5.873384501E-03
   146  1.689181709E-04
   147  3.568518284E-03
   148  2.042439136E-02
   149  2.132434393E-03
   150  6.875306090E-03
   151  3.950807840E-01
   152  1.136451317E+00
   153  6.538511905E+00
   154  1.103236855E-01
   155  1.994590372E-02
   156  3.265767492E-02
   157  1.343835681E-02
   158  9.323665231E-03
   159 -5.579419072E-04
   160 -9.579558318E-02
   161  3.339266306E-02
   162  2.294860260E-02
   163 -1.005902101E-03
   164 -5.390919030E-01
   165  9.828859762E-03
   166  1.078410848E-02
   167 -9.833353464E-04
   168  9.201829906E-03
   169  5.717883086E-03
   170 -7.963225371E-03
   171 -2.028916713E-05
   172 -4.418721198E-04
   173 -1.933197843E+01
   174  4.196402777E+00
   175  3.172195990E+00
   176  2.062539233E-02
   177 -5.488199439E-04
   178 -9.191257181E-04
   179 -3.297714667E-02
   180  5.468548543E-03
   181 -8.019093191E-04
   182  3.373355808E-03
   183 -3.766466093E-02
   184  5.916671654E-03
   185 -1.469530716E-03
   186  1.749506781E-03
   187 -2.660319559E-01
   188  4.808274698E-02
   189 -4.177246501E-03
   190  4.277427202E-05
   191  2.054529986E-02
   192 -3.012050605E-03
   193  2.768115170E-03
   194  6.819639465E-03
   195 -4.895910416E-01
   196 -6.482342894E+00
   197  1.279471206E+00
   198 -1.690861087E-01
   199 -2.042213253E-02
   200 -3.344146074E-02
   201 -9.150918562E-03
   202  1.425230860E-02
   203 -7.353273122E-04
   204  9.819041828E-02
   205 -2.277134699E-02
   206  3.504644879E-02
   207 -1.317077635E-03
   208  5.513529537E-01
   209 -1.008100769E-02
   210  1.196101756E-02
   211 -3.297934999E-03
   212 -8.769903618E-03
   213 -8.058809985E-03
   214 -6.085733129E-03
   215  5.231543623E-06
   216 -7.727030741E-04
   217  1.984351279E+01
   218 -3.270862119E+00
   219  4.292574250E+00
   220  7.981637615E-02
   221  1.929089263E-04
   222 -2.071742526E-03
   223  2.865589853E-02
   224 -1.226236967E-02
   225  2.371313710E-03
   226  7.672673210E-06
   227  1.370332965E-01
   228 -1.364061566E-04
   229 -9.759517753E-04
   230 -4.390545682E-03
   231  1.623639332E-03
   232  1.096342498E-02
   233  1.044785276E-05
   234 -3.814095676E-02
   235  2.469492216E-03
   236 -5.979621339E-03
   237 -2.667847477E-01
   238  1.630391776E-03
   239  3.951462368E-03
   240  4.183962666E-03
   241  2.926074930E+00
   242  2.323477462E-03
   243 -2.148960751E-03
   244 -2.961399833E-01
   245 -3.964147627E-03
   246 -3.455195101E-04
   247 -3.690315077E-03
   248  2.756286497E+00
   249 -7.024124532E-05
   250  2.064689402E-03
   251 -2.708343556E-02
   252  2.141426902E-03
   253  1.221944717E-02
   254  4.228570238E-04
   255 -1.274380201E-01
   256 -7.125247713E-05
   257 -5.515315305E-05
   258  2.095690771E-02
   259  1.085106361E-02
   260 -1.591796028E-03
   261  2.901666058E-05
   262 -8.103295887E-02
   263 -2.459080536E-03
   264  4.696530557E-03
   265  2.653144346E-01
   266  3.939611280E-03
   267 -1.862020311E-03
   268  4.389928309E-03
   269 -2.820661634E+00
   270 -2.163408444E-03
   271  3.725417538E-03
   272  2.839373673E-01
   273 -5.518042183E-04
   274  4.190863818E-03
   275 -4.097837733E-03
   276 -2.726721007E+00
   277 -7.208020939E-05
   278 -2.501326960E-03
   279  2.371889967E-02
   280  1.221513445E-02
   281 -2.532007404E-03
   282  8.232344752E-06
   283  1.286479234E-01
   284 -6.998102315E-05
   285 -1.114758441E-03
   286 -1.596178972E-03
   287 -1.572448331E-03
   288 -1.073046062E-02
   289  1.287689417E-05
   290 -3.033884390E-02
   291  2.731120589E-03
   292 -5.763419174E-03
   293 -2.586069278E-01
   294 -1.529351765E-03
   295 -3.948460299E-03
   296  4.094374626E-03
   297  2.951508383E+00
   298  2.345828527E-03
   299 -4.246727400E-03
   300 -2.837053239E-01
   301  4.099334121E-03
   302  2.460473517E-04
   303 -3.799567102E-03
   304  2.824456871E+00
   305 -9.966001542E-05
   306  2.000469589E-03
   307 -2.685382496E-02
   308 -2.159825068E-03
   309 -1.234014182E-02
   310  4.047202412E-04
   311 -1.222579686E-01
   312  1.003478830E-04
   313  2.456215998E-03
   314  1.589937474E-02
   315 -1.084796919E-02
   316  1.536379254E-03
   317  1.182343395E-04
   318 -1.151848598E-01
   319 -2.580020011E-03
   320  6.573948666E-03
   321  2.514282874E-01
   322 -4.120620333E-03
   323  1.820695090E-03
   324  4.450125349E-03
   325 -2.900969743E+00
   326 -2.369716925E-03
   327  2.535077815E-03
   328  2.830684739E-01
   329  4.914009116E-04
   330 -4.213896400E-03
   331 -3.968845502E-03
   332 -2.728490281E+00
Ene=    1.2205203211E-01
Spin= Alpha
Occup=   0.0000000
     1 -3.341467179E-05
     2 -4.854148882E-05
     3 -1.896162938E-02
     4  1.870320780E-03
     5 -2.748138658E-02
     6 -1.604850987E-05
     7 -2.213142202E-02
     8  2.044210647E-03
     9 -3.222603810E-02
    10  3.831941270E-03
    11 -1.440324944E-01
    12  1.663457001E-02
    13 -2.092567818E-01
    14 -7.465584378E-03
    15  1.188738967E-02
    16 -2.459020487E-03
    17  1.646062268E-02
    18 -5.530729027E-03
    19  5.194505420E-03
    20 -3.598016850E+00
    21  3.663630274E-01
    22 -5.094217876E+00
    23  1.230015488E-02
    24  2.016582623E-02
    25 -7.747337163E-03
    26 -5.883138699E-03
    27  2.720133042E-04
    28 -5.983056109E-02
    29 -1.922911397E-02
    30 -1.460880565E-02
    31  6.559999579E-04
    32 -3.238334571E-01
    33 -4.172845481E-03
    34 -3.316929959E-03
    35 -2.841339380E-04
    36 -9.885175909E-03
    37 -3.552347185E-03
    38  5.172258437E-03
    39 -3.067699522E-03
    40 -8.517227641E-03
    41 -1.058280084E+01
    42 -2.385023464E+00
    43 -1.681499165E+00
    44 -1.182398644E-01
    45 -2.355862825E-02
    46 -3.859255700E-02
    47  1.145830987E-04
    48  9.298553736E-05
    49 -1.893471085E-02
    50  1.137067446E-01
    51  1.507493844E-04
    52  9.030819235E-05
    53 -4.684132856E-02
    54  6.302315808E-01
    55  7.302374471E-04
    56  9.162079209E-04
    57 -1.056385537E-02
    58  5.949842040E-03
    59  9.332697839E-06
    60 -5.288759929E-05
    61 -1.108415167E-02
    62  4.229449880E-03
    63  2.049935399E+01
    64  1.267690865E-02
    65  1.938102846E-02
    66 -5.594649943E+00
    67  3.266835968E-05
    68  6.153477852E-05
    69  3.322775100E-03
    70  1.902037415E-02
    71  2.747776434E-02
    72 -4.005700683E-04
    73  3.805939776E-03
    74  2.236359200E-02
    75  3.220107718E-02
    76  1.988242702E-03
    77  2.655339450E-02
    78  1.417877122E-01
    79  2.094720682E-01
    80 -7.393267695E-03
    81  1.577482512E-03
    82  1.213912232E-02
    83 -1.630272460E-02
    84  5.832032153E-03
    85  1.259885764E-01
    86  6.451543841E-01
    87  3.572172628E+00
    88  5.157901354E+00
    89  1.141717018E-02
    90  1.871111355E-02
    91 -5.281214044E-03
    92  7.323214711E-03
    93 -7.947197908E-05
    94 -5.530991711E-02
    95 -1.327299339E-02
    96  1.815085755E-02
    97 -2.754748878E-04
    98 -3.037221184E-01
    99 -2.683044841E-03
   100  4.752182397E-03
   101  1.244529491E-03
   102 -1.024523731E-02
   103 -4.750732085E-03
   104 -3.267098053E-03
   105  3.067829387E-03
   106  8.553768277E-03
   107 -9.930200892E+00
   108 -1.607114139E+00
   109  2.197153299E+00
   110  1.099255250E-01
   111 -2.355657338E-02
   112 -3.859380459E-02
   113  2.453555825E-04
   114  1.983233602E-05
   115  1.896245568E-02
   116  1.139001245E-01
   117  4.716261980E-04
   118  8.529956281E-05
   119  4.695955346E-02
   120  6.274910841E-01
   121  5.704074763E-04
   122 -7.419288060E-04
   123  9.265548259E-03
   124  5.943927085E-03
   125 -2.812070711E-05
   126 -1.526308494E-04
   127  1.130002488E-02
   128 -3.627421060E-03
   129  2.055676170E+01
   130 -2.300894734E-02
   131  1.609721288E-02
   132  5.597810343E+00
   133 -3.942819413E-05
   134 -6.175901041E-05
   135  1.921640808E-02
   136 -1.915436627E-03
   137 -2.733366982E-02
   138  1.302446264E-04
   139  2.261332722E-02
   140 -2.085855702E-03
   141 -3.197534108E-02
   142  2.115778567E-03
   143  1.443438084E-01
   144 -1.684119703E-02
   145 -2.090729594E-01
   146 -7.441933605E-03
   147 -1.195915321E-02
   148  2.447466560E-03
   149  1.640710887E-02
   150 -5.615551111E-03
   151 -6.102193835E-02
   152  3.590319277E+00
   153 -4.123609213E-01
   154 -5.118942397E+00
   155  1.220370904E-02
   156  1.999947794E-02
   157  7.931827077E-03
   158  6.031974787E-03
   159  2.162215367E-04
   160 -5.911290294E-02
   161  1.955651732E-02
   162  1.488054407E-02
   163  5.440487379E-04
   164 -3.251969550E-01
   165  5.201581472E-03
   166  3.651202698E-03
   167  2.835899038E-04
   168 -9.851027385E-03
   169  3.462955994E-03
   170 -5.157695708E-03
   171 -3.098773073E-03
   172 -8.594626961E-03
   173 -1.060004231E+01
   174  2.375274081E+00
   175  1.638582737E+00
   176 -9.336492531E-02
   177 -1.260245670E-04
   178 -2.008802096E-04
   179 -3.198773327E-03
   180 -1.869686418E-02
   181  2.745764875E-02
   182  4.798760327E-04
   183 -3.579107368E-03
   184 -2.178093028E-02
   185  3.221039579E-02
   186  5.386996785E-03
   187 -2.623562402E-02
   188 -1.420884373E-01
   189  2.091172434E-01
   190 -7.500024243E-03
   191 -1.587551234E-03
   192 -1.204432082E-02
   193 -1.638587040E-02
   194  5.908709775E-03
   195 -2.124015428E-03
   196 -6.203412735E-01
   197 -3.576259080E+00
   198  5.121784248E+00
   199  1.139507990E-02
   200  1.867909720E-02
   201  5.816361962E-03
   202 -7.283176858E-03
   203 -2.199532611E-04
   204 -5.536881065E-02
   205  1.417971025E-02
   206 -1.800694641E-02
   207 -6.060748557E-04
   208 -3.011474728E-01
   209  4.195352151E-03
   210 -4.256843177E-03
   211  5.404150803E-04
   212 -1.025455429E-02
   213  4.859751198E-03
   214  3.241102435E-03
   215  3.099622594E-03
   216  8.512302337E-03
   217 -9.921181830E+00
   218  1.555109583E+00
   219 -2.221365135E+00
   220  1.282746242E-01
   221  7.640884876E-05
   222  4.989493957E-04
   223  1.907840908E-03
   224 -1.517233713E-03
   225 -7.184918857E-03
   226  1.031069170E-02
   227 -8.342933924E-03
   228  2.933785925E-03
   229 -8.404187409E-03
   230 -2.591480493E-01
   231 -3.384054405E-04
   232  3.765975216E-04
   233  2.556187118E-03
   234  3.147795646E+00
   235 -1.447573508E-03
   236  2.199573168E-03
   237  1.363221960E-01
   238  6.429080545E-03
   239  3.003216992E-03
   240  6.841098326E-03
   241 -1.431092240E+00
   242 -1.412102575E-03
   243  5.179561010E-03
   244  1.138369143E-01
   245 -4.774369948E-03
   246 -5.068832103E-03
   247 -6.645802246E-03
   248 -1.599843855E+00
   249 -5.461324704E-06
   250  9.343987089E-05
   251  3.645882585E-03
   252  7.184397973E-03
   253 -1.004386266E-03
   254 -1.030048284E-02
   255 -6.624420238E-03
   256  2.862949174E-03
   257 -8.434802964E-03
   258 -2.610901152E-01
   259  1.342219625E-04
   260 -4.088104149E-04
   261 -2.540364185E-03
   262  3.118905487E+00
   263 -1.532730481E-03
   264  2.929606665E-03
   265  1.423937287E-01
   266 -2.861971319E-03
   267  6.344433614E-03
   268 -6.635681636E-03
   269 -1.534490717E+00
   270 -1.453476430E-03
   271  5.399328861E-03
   272  1.239553752E-01
   273  5.029634060E-03
   274 -4.633303377E-03
   275  6.483267238E-03
   276 -1.688090651E+00
   277 -2.261087223E-05
   278  7.721530581E-04
   279 -3.562260932E-03
   280  1.483611841E-03
   281  7.109018250E-03
   282  1.027436769E-02
   283 -1.567960491E-02
   284  2.900458268E-03
   285 -7.545162307E-03
   286 -2.650494570E-01
   287  3.232258758E-04
   288 -2.441681456E-04
   289  2.520273127E-03
   290  3.116298352E+00
   291 -1.368929461E-03
   292  3.681565456E-03
   293  1.308682993E-01
   294 -6.458829781E-03
   295 -3.014243395E-03
   296  6.764046242E-03
   297 -1.468288306E+00
   298 -1.386923187E-03
   299  4.457565322E-03
   300  1.194456790E-01
   301  4.835401451E-03
   302  5.042349576E-03
   303 -6.630533535E-03
   304 -1.560546263E+00
   305  6.052249506E-05
   306  4.863120406E-04
   307  1.002280785E-03
   308 -7.261785464E-03
   309  9.620106317E-04
   310 -1.025874293E-02
   311 -2.373010383E-02
   312  2.984052195E-03
   313 -8.071193392E-03
   314 -2.573602875E-01
   315 -1.323526260E-04
   316  3.973836559E-04
   317 -2.507842581E-03
   318  3.147014676E+00
   319 -1.533542564E-03
   320  3.343733639E-03
   321  1.408724057E-01
   322  2.808084553E-03
   323 -6.378716604E-03
   324 -6.621467462E-03
   325 -1.570779675E+00
   326 -1.571845622E-03
   327  5.379158819E-03
   328  1.221598446E-01
   329 -5.097488295E-03
   330  4.630847951E-03
   331  6.479640389E-03
   332 -1.704455815E+00
Ene=    1.3021318422E-01
Spin= Alpha
Occup=   0.0000000
     1  1.152879301E-04
     2  1.763284000E-04
     3  4.166741157E-03
     4  3.086573527E-02
     5 -8.154409760E-04
     6 -2.724990321E-04
     7  5.586239387E-03
     8  4.153611630E-02
     9 -1.232437760E-03
    10 -6.664033978E-03
    11  9.348715934E-03
    12  8.584639458E-02
    13  7.450579502E-04
    14  6.420511048E-05
    15 -6.918013784E-04
    16 -5.505670978E-03
    17  1.645459801E-03
    18  4.778839338E-03
    19 -2.153380629E-02
    20  3.316613820E-01
    21  2.392692856E+00
    22 -8.346368636E-02
    23  1.490907971E-04
    24  2.328371427E-04
    25  8.492428991E-03
    26 -1.179768478E-02
    27 -1.049077369E-02
    28 -4.908145257E-04
    29  7.586207275E-03
    30 -1.077931616E-02
    31 -1.354719552E-02
    32 -5.004946854E-03
    33  4.257113876E-02
    34 -5.456324832E-02
    35 -3.459970796E-02
    36 -5.158173944E-05
    37 -7.725706429E-03
    38 -5.543079032E-03
    39  8.917293967E-03
    40 -3.348754689E-03
    41  6.384957245E-02
    42 -2.845928717E-01
    43  5.077830016E-01
    44  4.774295472E+00
    45 -2.325084054E-04
    46 -3.945217327E-04
    47  4.655859033E-04
    48 -3.474725556E-04
    49 -4.788300175E-04
    50  1.463378848E-03
    51  4.729407427E-04
    52  8.331378920E-06
    53 -9.591901346E-04
    54  3.769400029E-03
    55  2.615241798E-03
    56 -2.983212456E-03
    57 -8.361745546E-04
    58 -7.402168304E-05
    59 -5.062837641E-04
    60  8.414164353E-05
    61 -4.674719777E-04
    62 -4.899564978E-04
    63 -1.808201712E-02
    64 -1.766778679E-01
    65 -2.831841783E-01
    66 -4.299527228E-03
    67  3.562770411E-05
    68  4.411701830E-05
    69  2.957376667E-02
    70 -6.007370346E-03
    71 -2.000854849E-03
    72  2.026356054E-04
    73  3.983490376E-02
    74 -8.074592302E-03
    75 -2.572252884E-03
    76 -6.539844446E-03
    77  8.182870323E-02
    78 -1.445430241E-02
    79 -8.450968796E-03
    80 -4.972995385E-04
    81  5.309866107E-03
    82 -3.370413199E-04
    83 -2.059347398E-03
    84 -4.408834400E-03
    85 -1.587989194E-01
    86  2.276446548E+00
    87 -4.540455383E-01
    88 -1.579969497E-01
    89  1.036833809E-04
    90  1.556491465E-04
    91 -1.210564212E-02
    92 -8.745031532E-03
    93  1.099667027E-02
    94 -1.679028671E-04
    95 -1.122430727E-02
    96 -7.991916082E-03
    97  1.411560221E-02
    98 -5.196723223E-03
    99 -5.538194063E-02
   100 -4.232578940E-02
   101  3.566133489E-02
   102 -1.250372853E-05
   103  5.699611601E-03
   104 -7.874928167E-03
   105 -9.153189710E-03
   106  3.399495861E-03
   107  2.442263132E-03
   108  6.242253193E-01
   109  3.902204698E-01
   110 -4.788787600E+00
   111 -2.061944864E-04
   112 -3.503853912E-04
   113  1.647130509E-04
   114  1.721774871E-03
   115  4.794884732E-04
   116  1.330597283E-03
   117  3.314857399E-04
   118  1.827565896E-03
   119  9.903148278E-04
   120  3.292821494E-03
   121 -5.822181917E-04
   122  7.048705354E-03
   123  6.541924318E-04
   124 -6.890051508E-05
   125  1.931154896E-04
   126  1.281566626E-03
   127  4.531040161E-04
   128  5.381514176E-04
   129  7.221553607E-02
   130 -1.691580334E-01
   131 -3.592811027E-01
   132  1.693730913E-02
   133 -3.448224043E-07
   134 -1.669567194E-05
   135 -4.746875497E-03
   136 -2.773436517E-02
   137  5.653233716E-04
   138  4.591317105E-04
   139 -6.410113828E-03
   140 -3.730980370E-02
   141  5.986575993E-04
   142 -6.390774612E-03
   143 -1.047677514E-02
   144 -7.708698851E-02
   145  4.628722660E-03
   146 -2.481705644E-04
   147  4.760341098E-04
   148  4.994903894E-03
   149  1.763261141E-03
   150  4.207434820E-03
   151 -2.503428983E-01
   152 -3.459889403E-01
   153 -2.172301246E+00
   154  7.024769068E-02
   155  1.701886697E-04
   156  2.692132924E-04
   157 -8.096951059E-03
   158  1.133984588E-02
   159 -9.539252385E-03
   160 -6.066234429E-04
   161 -7.124193784E-03
   162  1.016599486E-02
   163 -1.279616521E-02
   164 -5.488049506E-03
   165 -4.079740961E-02
   166  5.319023669E-02
   167 -2.860308850E-02
   168  1.280567864E-05
   169  7.177919311E-03
   170  5.093484604E-03
   171  8.305092116E-03
   172 -3.072456666E-03
   173  2.621596367E-01
   174  6.772753567E-02
   175 -2.644870268E-01
   176  4.754591009E+00
   177  2.324905577E-05
   178  2.282143227E-05
   179 -2.913902927E-02
   180  2.918436072E-03
   181  2.251479098E-03
   182  2.993918983E-04
   183 -3.925704138E-02
   184  3.927440162E-03
   185  3.166476754E-03
   186 -6.366048422E-03
   187 -8.012228549E-02
   188  5.517093308E-03
   189  2.934057624E-03
   190  3.346245360E-04
   191 -5.075203797E-03
   192  8.463663266E-04
   193 -1.342092326E-03
   194 -4.543365576E-03
   195 -2.294826489E-01
   196 -2.271654511E+00
   197  2.013066504E-01
   198  1.795765229E-01
   199  1.382590082E-04
   200  2.175571494E-04
   201  1.100917332E-02
   202  7.901334297E-03
   203  9.082055101E-03
   204 -4.912189319E-04
   205  9.730353428E-03
   206  6.877285397E-03
   207  1.232827124E-02
   208 -3.976769397E-03
   209  5.182348367E-02
   210  4.005453136E-02
   211  2.763352465E-02
   212 -7.593321174E-05
   213 -4.963241415E-03
   214  6.958706478E-03
   215 -8.031121227E-03
   216  3.004400231E-03
   217  1.846595567E-01
   218 -1.291041796E-01
   219  5.248795643E-03
   220 -4.741079329E+00
   221 -4.010503215E-06
   222 -6.306378035E-04
   223 -1.552104800E-03
   224  7.369670531E-03
   225 -8.865516351E-04
   226 -3.896202430E-04
   227  2.458164533E-03
   228  1.523370270E-04
   229 -6.002472545E-04
   230  1.368724832E-02
   231 -4.995789731E-04
   232 -3.639819401E-03
   233  4.637832275E-05
   234  1.643476142E-01
   235 -3.666772423E-04
   236  2.419806910E-02
   237 -2.922166772E-01
   238 -4.917858610E-03
   239 -7.871722109E-04
   240 -3.684043106E-03
   241 -4.338361276E+00
   242  5.084747213E-04
   243 -2.329551728E-02
   244  2.884217910E-01
   245 -2.491309920E-03
   246 -4.398600577E-03
   247 -3.654238157E-03
   248  4.325584382E+00
   249  6.241754276E-07
   250 -4.593513617E-04
   251 -2.123746306E-03
   252  1.343360116E-03
   253  7.047610984E-03
   254 -3.271682831E-04
   255  3.210646950E-03
   256  1.692510564E-04
   257 -2.497571181E-03
   258  3.395896001E-02
   259  2.803040439E-03
   260 -3.139322415E-04
   261  7.366978563E-05
   262  4.368602271E-01
   263 -3.933087563E-04
   264  2.343999637E-02
   265 -2.869147023E-01
   266  7.847605654E-04
   267 -4.798275627E-03
   268  3.615610112E-03
   269 -4.204546291E+00
   270  5.175572615E-04
   271 -2.215258736E-02
   272  2.771724254E-01
   273  4.533683661E-03
   274 -2.791605107E-03
   275  4.010818975E-03
   276  4.198933416E+00
   277 -1.896644898E-05
   278 -4.438994043E-04
   279 -3.585462949E-03
   280 -7.484204824E-03
   281  1.664025447E-03
   282  6.814415456E-04
   283  6.671523871E-03
   284  6.373726154E-05
   285  6.122127942E-04
   286 -6.320884772E-03
   287  3.245496365E-04
   288  2.400103694E-03
   289  1.848154563E-04
   290 -1.169650206E-01
   291 -2.913579020E-04
   292  2.090811444E-02
   293 -2.522289313E-01
   294  5.059120047E-03
   295  1.172962669E-03
   296 -4.166575298E-03
   297 -3.788808503E+00
   298  5.300374430E-04
   299 -2.032487733E-02
   300  2.562089538E-01
   301  3.210531293E-03
   302  4.536985067E-03
   303 -4.405790571E-03
   304  3.791165010E+00
   305 -5.913122130E-05
   306 -4.575082204E-04
   307 -6.438930448E-03
   308 -1.227822450E-03
   309 -7.854877183E-03
   310  4.295434863E-05
   311 -2.916673280E-03
   312  9.259291664E-05
   313  2.095754203E-03
   314 -2.135460390E-02
   315 -3.272233103E-03
   316  5.048299843E-04
   317 -3.289717220E-04
   318 -3.813684759E-01
   319 -2.921097450E-04
   320  2.183480102E-02
   321 -2.625406752E-01
   322 -1.212155074E-03
   323  5.193600309E-03
   324  4.270087612E-03
   325 -3.922328294E+00
   326  4.959216831E-04
   327 -2.109725087E-02
   328  2.628955075E-01
   329 -4.421147615E-03
   330  2.906535420E-03
   331  4.061957845E-03
   332  3.924531566E+00
Ene=    1.3022812509E-01
Spin= Alpha
Occup=   0.0000000
     1 -7.647574248E-08
     2 -1.242275922E-06
     3 -2.104246203E-02
     4  1.574077028E-03
     5 -2.977219390E-02
     6  2.460338663E-05
     7 -2.830914330E-02
     8  2.117535203E-03
     9 -4.008188770E-02
    10  7.526254289E-04
    11 -5.848769230E-02
    12  5.210969486E-03
    13 -8.184916986E-02
    14  5.915010228E-03
    15 -3.626120818E-03
    16  9.772713354E-04
    17 -5.058454999E-03
    18  1.334466891E-03
    19 -4.700661600E-02
    20 -1.642092206E+00
    21  1.312509235E-01
    22 -2.321352630E+00
    23 -5.274417311E-05
    24 -8.679751409E-05
    25 -4.375518463E-03
    26  6.357814776E-03
    27  1.080232451E-02
    28  2.056372014E-04
    29 -5.802680837E-03
    30  8.210253450E-03
    31  9.712653439E-03
    32  2.203342532E-03
    33 -1.243390407E-02
    34  2.169514883E-02
    35  5.135777489E-02
    36 -4.053662373E-04
    37  5.859642010E-03
    38  4.113422544E-03
    39 -6.787743894E-03
    40  2.118811749E-03
    41 -3.047857497E-02
    42  2.090460762E+00
    43 -2.902784593E+00
    44 -4.021474158E-01
    45  3.141362468E-05
    46  5.563651555E-05
    47  2.382966195E-02
    48 -3.789272536E-03
    49  3.863165553E-05
    50 -2.794650343E-04
    51  2.544476399E-02
    52 -4.256654365E-03
    53  4.928469890E-05
    54  8.886109123E-04
    55  9.735539028E-02
    56 -1.530352823E-02
    57 -1.694042831E-04
    58  2.003192345E-05
    59 -1.814698101E-02
    60  3.104260443E-03
    61  5.075993003E-05
    62 -3.145969480E-06
    63  6.006502812E-02
    64 -5.104401141E+00
    65  1.137468516E+00
    66 -8.467953090E-03
    67 -1.569388586E-04
    68 -2.573341115E-04
    69  2.038632720E-02
    70 -1.911741258E-03
    71  1.815177026E-03
    72  7.401417610E-04
    73  2.749397082E-02
    74 -2.432108719E-03
    75  2.363137503E-03
    76  3.541411261E-03
    77  5.646799770E-02
    78 -6.170598146E-03
    79  6.563335161E-03
    80  3.282828481E-04
    81  3.522444406E-03
    82 -8.287392315E-04
    83 -8.092798856E-04
    84 -3.236799012E-03
    85  1.293279022E-01
    86  1.532357667E+00
    87 -1.883400024E-01
    88  2.277137304E-01
    89  2.262971096E-05
    90  3.986004832E-05
    91 -5.310407980E-03
    92 -3.644502461E-03
    93  9.216851832E-03
    94 -2.324591321E-04
    95 -7.060366296E-03
    96 -4.872571353E-03
    97  8.235053120E-03
    98  1.024075615E-03
    99 -1.759625392E-02
   100 -1.133990079E-02
   101  4.379008070E-02
   102 -4.096104696E-04
   103  3.385546727E-03
   104 -4.826515345E-03
   105 -5.493782950E-03
   106  2.143735415E-03
   107 -1.983263601E-01
   108  2.512652931E+00
   109  1.862504919E+00
   110 -1.774495356E-01
   111 -1.159549699E-05
   112 -2.157765049E-05
   113 -4.278153689E-03
   114 -9.176336621E-04
   115  9.362982209E-06
   116  1.403296905E-04
   117  3.608050231E-04
   118 -1.946165947E-03
   119 -9.105043154E-06
   120 -1.019684874E-03
   121 -3.700631578E-02
   122  1.590058738E-04
   123 -1.946713461E-04
   124 -1.591419234E-05
   125 -2.045073239E-04
   126 -1.022825402E-03
   127  1.710552664E-05
   128 -1.932599068E-05
   129 -4.882151498E-02
   130 -4.216444881E+00
   131  1.075626122E+00
   132 -8.274805218E-03
   133 -8.156379970E-05
   134 -1.333905015E-04
   135 -2.091199096E-02
   136  2.687651590E-03
   137  2.975628374E-02
   138  4.298776154E-04
   139 -2.812156847E-02
   140  3.624846595E-03
   141  4.007556418E-02
   142  4.995227895E-04
   143 -5.812148833E-02
   144  8.061530053E-03
   145  8.193607615E-02
   146 -5.860074368E-03
   147 -3.574448334E-03
   148  7.693057050E-04
   149  4.997135210E-03
   150 -1.505605703E-03
   151 -1.245424717E-01
   152 -1.623015439E+00
   153  2.154736292E-01
   154  2.344466159E+00
   155  3.509667873E-05
   156  5.928321595E-05
   157 -4.045537305E-03
   158  5.917441160E-03
   159 -1.051252552E-02
   160 -1.672613695E-04
   161 -5.555375247E-03
   162  7.883403237E-03
   163 -9.386702860E-03
   164 -1.344254160E-03
   165 -1.005041775E-02
   166  1.859155537E-02
   167 -4.994506721E-02
   168  4.112023496E-04
   169  5.532265563E-03
   170  3.882385195E-03
   171  6.381919194E-03
   172 -1.962994627E-03
   173  3.440026335E-02
   174  2.094179893E+00
   175 -2.909210393E+00
   176  2.327084815E-01
   177  2.230147164E-04
   178  3.685344085E-04
   179  2.150374948E-02
   180 -2.096488513E-03
   181 -1.875900911E-03
   182 -1.164036814E-03
   183  2.899560778E-02
   184 -2.677903586E-03
   185 -2.450820544E-03
   186 -3.787421824E-03
   187  5.968621405E-02
   188 -6.284681128E-03
   189 -6.218900347E-03
   190 -3.679818850E-04
   191  3.711279830E-03
   192 -9.070584660E-04
   193  8.921145323E-04
   194  3.400539419E-03
   195  4.453559321E-02
   196  1.622577071E+00
   197 -1.961645512E-01
   198 -2.044108762E-01
   199 -3.530081432E-05
   200 -5.952153346E-05
   201 -5.748305374E-03
   202 -3.966413693E-03
   203 -9.678324285E-03
   204  2.635717200E-04
   205 -7.541545207E-03
   206 -5.219394940E-03
   207 -8.881599335E-03
   208 -4.502505833E-04
   209 -1.852064080E-02
   210 -1.224653950E-02
   211 -4.490544934E-02
   212  4.142129890E-04
   213  3.559057644E-03
   214 -5.068559634E-03
   215  5.736829353E-03
   216 -2.245250924E-03
   217  1.829960856E-01
   218  2.551287960E+00
   219  1.882213769E+00
   220  3.694525065E-01
   221 -8.338858426E-05
   222  9.316475130E-04
   223 -1.042414377E-02
   224 -5.496449158E-03
   225  5.219102847E-04
   226  4.307228087E-04
   227 -5.457463613E-02
   228  6.024383682E-04
   229 -3.149686558E-02
   230  3.864467525E-01
   231  8.720276192E-04
   232  4.043935188E-04
   233 -2.856032522E-03
   234  5.742484154E+00
   235 -2.050538463E-04
   236  1.474882699E-02
   237 -1.772188890E-01
   238  2.709832173E-03
   239  3.549368602E-03
   240  4.806310224E-03
   241 -2.616641441E+00
   242  2.957508810E-04
   243 -1.404658106E-02
   244  1.728321789E-01
   245  1.631392665E-03
   246 -4.116686454E-04
   247  1.614434806E-03
   248  2.616590039E+00
   249  3.606635745E-05
   250  3.658633362E-05
   251  2.462327880E-03
   252  5.276399209E-03
   253 -6.284972033E-04
   254 -7.530024296E-03
   255  1.827993588E-02
   256 -1.206077971E-05
   257  2.166288144E-03
   258 -2.377343325E-02
   259 -8.763813617E-03
   260  1.419596800E-03
   261 -1.534615865E-04
   262 -3.922337330E-01
   263  2.674681997E-04
   264 -1.686653239E-02
   265  2.052606782E-01
   266  2.139789473E-03
   267 -2.602257003E-04
   268  2.079545479E-03
   269  3.123763804E+00
   270 -3.813747106E-04
   271  1.707167500E-02
   272 -2.158600944E-01
   273  1.256953322E-03
   274 -4.427608499E-03
   275  4.995464724E-03
   276 -3.119074083E+00
   277  2.924957166E-05
   278 -5.752668072E-04
   279  5.379705935E-03
   280 -5.213366561E-03
   281  4.834459301E-04
   282 -4.159171592E-04
   283  5.020337354E-02
   284 -5.691415140E-04
   285  3.147419479E-02
   286 -3.849255738E-01
   287  8.446741376E-04
   288  2.926260615E-04
   289  2.881773108E-03
   290 -5.736352318E+00
   291  1.809431712E-04
   292 -1.580944632E-02
   293  1.869873726E-01
   294  2.544589758E-03
   295  3.525896885E-03
   296 -4.682994667E-03
   297  2.766220997E+00
   298 -2.841631745E-04
   299  1.498480356E-02
   300 -1.819249638E-01
   301  1.537270160E-03
   302 -5.636332427E-04
   303 -1.484552332E-03
   304 -2.767599987E+00
   305  9.760046119E-06
   306 -3.706634605E-04
   307  3.412509733E-03
   308  5.346639092E-03
   309 -3.508049527E-04
   310  7.562092874E-03
   311 -1.370269577E-02
   312 -5.539454698E-05
   313 -2.083254220E-03
   314  2.059919138E-02
   315 -8.646814443E-03
   316  1.421758975E-03
   317  2.033228860E-04
   318  3.808105589E-01
   319 -2.231011989E-04
   320  1.614928152E-02
   321 -1.945122336E-01
   322  2.184001463E-03
   323 -4.748381451E-04
   324 -2.252495124E-03
   325 -2.965548318E+00
   326  3.327717258E-04
   327 -1.649325833E-02
   328  2.050131389E-01
   329  1.447573682E-03
   330 -4.556356970E-03
   331 -5.177037943E-03
   332  2.964854608E+00
Ene=    1.3023471919E-01
Spin= Alpha
Occup=   0.0000000
     1  1.265587049E-04
     2  2.053774974E-04
     3 -1.648849214E-03
     4 -1.874118514E-02
     5  1.843226665E-03
     6 -5.107861512E-04
     7 -2.039610485E-03
     8 -2.527008989E-02
     9  2.433682123E-03
    10 -3.829669258E-03
    11 -6.152139611E-03
    12 -5.208848122E-02
    13  6.353838786E-03
    14 -3.191033033E-04
    15  7.448154201E-04
    16  3.275672056E-03
    17 -7.675456065E-04
    18 -2.983595185E-03
    19 -1.897831470E-01
    20 -1.847655121E-01
    21 -1.392591811E+00
    22  2.154483755E-01
    23 -7.237379483E-05
    24 -1.224489333E-04
    25 -3.203733649E-03
    26  4.656227704E-03
    27  8.690670683E-03
    28  4.974841018E-04
    29 -4.459133533E-03
    30  6.460931987E-03
    31  7.531097446E-03
    32  4.016251245E-06
    33 -9.489622252E-03
    34  1.449258445E-02
    35  4.245785412E-02
    36  4.295778266E-04
    37  4.461441746E-03
    38  3.092524513E-03
    39 -5.023619249E-03
    40  2.004407811E-03
    41  1.633043824E-01
    42  1.840522624E+00
    43 -2.491992883E+00
    44  8.541168483E-02
    45  5.852066378E-05
    46  9.800266706E-05
    47 -8.610221331E-04
    48  4.264790450E-03
    49  3.298017655E-05
    50 -3.539244849E-04
    51 -1.826891809E-03
    52 -3.220975972E-04
    53  5.032218063E-05
    54 -4.382500974E-04
    55 -3.866457668E-04
    56  3.680021787E-02
    57 -4.803707710E-04
    58 -1.267206249E-05
    59  1.050081813E-03
    60 -2.052293568E-04
    61  2.545621869E-05
    62 -7.358935045E-05
    63  1.318421276E-01
    64  1.058518082E+00
    65  4.195823503E+00
    66 -3.104219486E-02
    67  7.376101284E-05
    68  1.192868212E-04
    69  4.254277223E-03
    70  2.052163586E-02
    71  2.965365362E-02
    72 -3.494909829E-04
    73  5.716784095E-03
    74  2.754933503E-02
    75  3.991602814E-02
    76 -7.260395953E-04
    77  1.261653611E-02
    78  5.778126754E-02
    79  8.174480159E-02
    80  5.862618632E-03
    81 -4.559231050E-04
    82 -3.671403094E-03
    83  4.926979831E-03
    84 -1.786524776E-03
    85  5.753393705E-02
    86  3.331203250E-01
    87  1.606120815E+00
    88  2.329992230E+00
    89 -3.301071577E-05
    90 -5.403642273E-05
    91  5.252249729E-03
    92  3.603287005E-03
    93 -9.943212166E-03
    94  7.584804367E-05
    95  7.242977339E-03
    96  5.157385649E-03
    97 -8.680346406E-03
    98  2.495667836E-03
    99  1.586761129E-02
   100  7.622891254E-03
   101 -4.786155788E-02
   102 -3.732581157E-04
   103 -3.582165102E-03
   104  5.095878505E-03
   105  5.883997278E-03
   106 -1.831157915E-03
   107 -1.988489275E-02
   108 -2.867316064E+00
   109 -2.071093946E+00
   110 -2.399819205E-02
   111  2.894500612E-05
   112  4.468107553E-05
   113 -3.795873106E-03
   114 -2.379049508E-02
   115  3.169718226E-05
   116 -6.612595170E-05
   117 -4.308686492E-03
   118 -2.541753822E-02
   119  8.785046363E-06
   120 -1.632452659E-03
   121 -1.492994005E-02
   122 -9.697047295E-02
   123  4.879658968E-04
   124 -3.627143794E-05
   125 -3.073411559E-03
   126 -1.808309561E-02
   127  1.923452939E-05
   128  2.619352893E-05
   129  1.057648761E-02
   130  1.138337787E+00
   131  5.092307583E+00
   132  1.063666548E-02
   133 -1.643497417E-04
   134 -2.716137121E-04
   135 -2.405579340E-03
   136 -2.302791538E-02
   137 -1.765868411E-03
   138  8.372583645E-04
   139 -3.119904382E-03
   140 -3.105470363E-02
   141 -2.284334672E-03
   142  2.742709360E-03
   143 -7.004724455E-03
   144 -6.385414815E-02
   145 -6.246394689E-03
   146  3.830688083E-04
   147  9.474754656E-04
   148  3.973041864E-03
   149  9.119117582E-04
   150  3.655327681E-03
   151  5.840957980E-02
   152 -2.117176032E-01
   153 -1.723946742E+00
   154 -2.207430404E-01
   155  7.200354514E-06
   156  1.120236160E-05
   157 -4.489407464E-03
   158  6.295720344E-03
   159 -1.019381860E-02
   160 -6.695879601E-05
   161 -5.722592770E-03
   162  7.972902824E-03
   163 -9.535446953E-03
   164  7.303969052E-04
   165 -1.478901851E-02
   166  2.145886765E-02
   167 -4.693790705E-02
   168 -3.889474603E-04
   169  5.462418988E-03
   170  3.899876023E-03
   171  6.229180230E-03
   172 -2.390188501E-03
   173 -2.626847910E-01
   174  1.898834155E+00
   175 -2.541795406E+00
   176  6.088858958E-01
   177  1.391379949E-05
   178  2.388116359E-05
   179  5.930261565E-05
   180  2.126268414E-02
   181 -2.976558085E-02
   182 -9.429992107E-05
   183  9.997129472E-05
   184  2.861731944E-02
   185 -4.010216951E-02
   186 -1.158936012E-03
   187  6.754240614E-04
   188  5.881967445E-02
   189 -8.136072165E-02
   190 -5.865894988E-03
   191 -1.249461016E-03
   192 -3.547053071E-03
   193 -5.068538223E-03
   194  1.086019587E-03
   195  7.015705665E-02
   196  2.098219891E-03
   197  1.655492010E+00
   198 -2.306031813E+00
   199  2.934895428E-05
   200  4.437341217E-05
   201  6.905088897E-03
   202  4.829219713E-03
   203  1.134741455E-02
   204  2.794218533E-05
   205  8.668508495E-03
   206  6.204997813E-03
   207  1.049395452E-02
   208 -3.099670459E-03
   209  2.447100556E-02
   210  1.437252160E-02
   211  5.262229686E-02
   212  4.515374536E-04
   213 -4.407323625E-03
   214  6.189749928E-03
   215 -7.215129598E-03
   216  2.263771753E-03
   217 -2.779252280E-02
   218 -2.903986132E+00
   219 -2.100714475E+00
   220 -6.624497507E-01
   221 -1.025600704E-05
   222  4.271759625E-04
   223 -4.113685603E-03
   224  4.485644520E-05
   225 -5.373549829E-03
   226  7.513619918E-03
   227  1.313591810E-02
   228  1.213494215E-05
   229  2.168465022E-03
   230 -2.328631131E-02
   231  1.397973937E-03
   232  8.450154412E-03
   233  1.875168397E-04
   234 -3.757104999E-01
   235  2.258701535E-04
   236 -1.486197358E-02
   237  1.801405939E-01
   238 -7.457890628E-04
   239 -2.210584003E-03
   240 -2.470156841E-03
   241  2.736410095E+00
   242 -2.585078129E-04
   243  1.514567664E-02
   244 -1.868380639E-01
   245 -4.695853992E-03
   246 -1.650985218E-03
   247 -5.348220036E-03
   248 -2.727688271E+00
   249  6.121423027E-05
   250 -6.594642796E-04
   251  6.666859823E-03
   252  5.821436912E-04
   253  5.884726715E-03
   254  4.421888492E-04
   255  4.912833902E-02
   256 -6.051168929E-04
   257  3.155849231E-02
   258 -3.872497077E-01
   259  5.697554850E-04
   260 -8.932998927E-04
   261 -2.850284898E-03
   262 -5.719947304E+00
   263  2.217318962E-04
   264 -1.355835426E-02
   265  1.653767135E-01
   266  3.596588770E-03
   267 -2.989456167E-03
   268  5.034634887E-03
   269  2.395196082E+00
   270 -2.516774332E-04
   271  1.272583963E-02
   272 -1.551561412E-01
   273 -1.754304699E-04
   274 -1.798281716E-03
   275  1.820584789E-03
   276 -2.397964444E+00
   277 -1.747458559E-05
   278 -1.428176789E-04
   279 -1.113553211E-03
   280 -1.056753874E-03
   281 -5.198766540E-03
   282 -7.542540044E-03
   283 -2.242750005E-02
   284  2.316506695E-05
   285 -1.926069172E-03
   286  2.200859035E-02
   287  1.442669627E-03
   288  8.908022482E-03
   289 -1.631386618E-04
   290  3.876018334E-01
   291 -2.733404396E-04
   292  1.790772745E-02
   293 -2.177061400E-01
   294  3.143607718E-05
   295 -2.049090666E-03
   296  1.838174629E-03
   297 -3.328349717E+00
   298  3.818889173E-04
   299 -1.828505564E-02
   300  2.294567881E-01
   301 -4.282320688E-03
   302 -1.013966429E-03
   303  4.773888116E-03
   304  3.320418988E+00
   305 -1.649375536E-05
   306  4.812982673E-04
   307 -4.024662205E-03
   308  4.460934994E-04
   309  4.817716045E-03
   310 -3.981801713E-04
   311 -4.665833607E-02
   312  5.562825922E-04
   313 -3.113716887E-02
   314  3.802754182E-01
   315  1.478425903E-04
   316 -8.231360561E-04
   317  2.882845682E-03
   318  5.720732049E+00
   319 -2.109071005E-04
   320  1.672709135E-02
   321 -1.996653284E-01
   322  3.473241171E-03
   323 -2.252643446E-03
   324 -4.464451739E-03
   325 -2.980723142E+00
   326  3.372201168E-04
   327 -1.623066465E-02
   328  1.984629117E-01
   329 -7.802515315E-04
   330 -1.404622911E-03
   331 -1.284659082E-03
   332  2.984279252E+00
Ene=    1.4094210172E-01
Spin= Alpha
Occup=   0.0000000
     1  5.483654566E-03
     2  8.919554029E-03
     3  3.043992824E-02
     4 -4.170638652E-03
     5 -1.377310165E-02
     6 -2.083102175E-02
     7  5.313416279E-02
     8 -8.049873244E-03
     9 -3.250748761E-02
    10 -1.034241057E-01
    11 -2.446352032E-02
    12 -4.500248653E-03
    13 -4.310049376E-02
    14 -3.474945013E-03
    15 -3.483504540E-03
    16  1.594962186E-03
    17 -5.111252779E-03
    18  2.154075545E-03
    19  2.953071875E-01
    20 -1.418888610E+00
    21  5.755813122E-01
    22  4.310749917E+00
    23 -2.811485421E-04
    24 -5.463021455E-04
    25  9.086775843E-03
    26 -9.992380398E-03
    27  4.096150712E-02
    28  4.292087354E-03
    29  1.427907763E-02
    30 -1.476594519E-02
    31  6.629028210E-02
    32 -3.134237099E-02
    33  7.100429990E-02
    34 -1.186849833E-01
    35  2.294927994E-01
    36  4.898139019E-04
    37 -3.447617598E-04
    38 -1.119859314E-03
    39 -6.910033505E-04
    40 -7.562210046E-04
    41 -1.435298641E-01
    42 -1.054858069E+00
    43  1.380489601E+00
    44 -2.564697739E+00
    45  2.344894362E-03
    46  4.823420434E-03
    47  1.239579521E-03
    48  5.908824853E-03
    49  1.744526030E-02
    50 -4.466179025E-02
    51  2.026652152E-03
    52  9.426212111E-03
    53  3.159842322E-02
    54  4.020923439E-01
    55  7.238649017E-03
    56  3.973333787E-02
    57 -1.231773026E-01
    58  1.350922776E-02
    59  4.428452745E-05
    60  1.555298469E-04
    61  7.497251348E-03
    62 -2.711574756E-03
    63 -1.136678841E+00
    64 -9.079473256E-02
    65 -4.758591744E-01
    66  5.449786946E-01
    67 -4.760144085E-03
    68 -7.745671590E-03
    69  4.510372585E-03
    70  2.696650045E-02
    71 -1.084715399E-02
    72  1.819023027E-02
    73  7.564791964E-03
    74  4.639632585E-02
    75 -2.739869099E-02
    76  8.847602463E-02
    77 -2.218341517E-03
    78 -2.503822799E-02
    79 -4.482719704E-02
    80  3.711404417E-03
    81  7.286206616E-04
    82  3.897925279E-03
    83 -5.577369583E-03
    84  1.807081452E-03
    85 -3.161967412E-01
    86 -1.034357702E-01
    87 -9.682426050E-01
    88  4.166945887E+00
    89  2.753513675E-04
    90  5.198203871E-04
    91  1.518188710E-02
    92  1.248052253E-02
    93  4.331923981E-02
    94 -3.692090870E-03
    95  2.319498655E-02
    96  1.974456668E-02
    97  6.996123674E-02
    98  2.387453434E-02
    99  1.461497798E-01
   100  9.292884578E-02
   101  2.511655336E-01
   102 -3.833522335E-04
   103 -1.080345705E-03
   104  4.838667886E-04
   105 -7.655532678E-04
   106 -5.667047285E-04
   107  1.621701993E-01
   108 -1.697054076E+00
   109 -1.290493017E+00
   110 -2.867016126E+00
   111 -2.329673446E-03
   112 -4.800817888E-03
   113  1.044332633E-03
   114  2.537156361E-03
   115  1.742828571E-02
   116  4.463728480E-02
   117  1.683512886E-03
   118  4.216629666E-03
   119  3.154195872E-02
   120 -4.030271159E-01
   121  5.821046108E-03
   122  8.608346260E-03
   123 -1.226745572E-01
   124 -1.352704267E-02
   125 -2.634884961E-05
   126 -3.118232220E-05
   127  7.502449630E-03
   128 -2.706451733E-03
   129  1.174329532E+00
   130 -5.887493709E-02
   131 -6.599684768E-02
   132  5.665946468E-01
   133  5.691738562E-03
   134  9.259471979E-03
   135 -3.090409809E-02
   136  5.926071469E-03
   137 -1.435849634E-02
   138 -2.171417193E-02
   139 -5.442769141E-02
   140  9.454654156E-03
   141 -3.354905141E-02
   142 -1.063877746E-01
   143  2.210101677E-02
   144 -7.139606751E-03
   145 -4.225796800E-02
   146 -3.434698931E-03
   147  3.718317364E-03
   148  8.762896392E-05
   149 -5.343919026E-03
   150  1.334207642E-03
   151  3.864364704E-01
   152  1.635437319E+00
   153  7.703199339E-02
   154  4.335331991E+00
   155  6.380727210E-05
   156  1.782346560E-04
   157 -1.006180278E-02
   158  1.618182399E-02
   159  4.313449609E-02
   160 -2.793495535E-03
   161 -1.542960036E-02
   162  2.508875307E-02
   163  6.970975590E-02
   164  3.506883999E-02
   165 -1.056776922E-01
   166  1.327079046E-01
   167  2.487102267E-01
   168 -5.867281947E-04
   169  1.169293797E-03
   170  1.289768836E-04
   171 -1.609329595E-04
   172  1.054762334E-03
   173 -3.460393302E-01
   174  1.337550782E+00
   175 -1.619285482E+00
   176 -2.828495566E+00
   177 -6.352136935E-03
   178 -1.033258041E-02
   179 -5.568472163E-03
   180 -3.432196569E-02
   181 -1.728337609E-02
   182  2.411415176E-02
   183 -9.915792772E-03
   184 -6.097509348E-02
   185 -3.867456692E-02
   186  1.191157381E-01
   187  3.539883025E-04
   188  2.039482899E-02
   189 -4.002003689E-02
   190  3.216641710E-03
   191 -7.589853741E-04
   192 -3.285559445E-03
   193 -4.819279054E-03
   194  1.653697355E-03
   195 -2.693483702E-01
   196  3.673316645E-01
   197  2.078469454E+00
   198  4.496743224E+00
   199 -7.889920345E-05
   200 -1.922406743E-04
   201 -1.107786756E-02
   202 -6.643314459E-03
   203  4.078397793E-02
   204  2.463161970E-03
   205 -1.680243279E-02
   206 -9.986183582E-03
   207  6.609834858E-02
   208 -2.876304142E-02
   209 -1.054826972E-01
   210 -8.325231425E-02
   211  2.269063088E-01
   212  5.151880923E-04
   213  1.328282344E-04
   214 -1.058739615E-03
   215 -9.588280836E-05
   216  8.426020085E-04
   217  1.877330595E-01
   218  1.319103071E+00
   219  1.080777065E+00
   220 -2.551011381E+00
   221  9.178118654E-03
   222 -5.107779812E-02
   223  4.767322771E-01
   224  7.728815031E-04
   225  3.835079010E-03
   226  9.345947686E-03
   227  2.969216088E+00
   228  8.901354650E-03
   229  3.196282888E-02
   230 -6.559868362E-02
   231  7.858427472E-03
   232 -1.061938339E-03
   233  7.186251555E-03
   234  1.422170441E+00
   235 -1.503347122E-03
   236  7.503993809E-02
   237 -3.329364368E-01
   238  4.439905409E-03
   239  1.746309962E-03
   240 -1.400832003E-03
   241 -2.454356209E+00
   242  2.870733137E-03
   243 -7.018817921E-02
   244  3.187648700E-01
   245  1.948065782E-03
   246  3.951814929E-03
   247 -5.285683097E-04
   248  2.668198320E+00
   249 -8.107761782E-03
   250  4.552035467E-02
   251 -4.255703738E-01
   252  2.965043971E-03
   253  1.899223329E-04
   254  9.113306599E-03
   255 -2.638188984E+00
   256 -8.468978875E-03
   257 -4.459131019E-02
   258  1.225871411E-01
   259 -1.435907479E-03
   260 -8.448819964E-03
   261  6.897979357E-03
   262 -9.649140414E-01
   263  1.760905356E-03
   264 -8.713163690E-02
   265  3.902168387E-01
   266  1.772827149E-03
   267 -4.778835974E-03
   268 -2.107355519E-03
   269  2.846763408E+00
   270 -3.342532515E-03
   271  8.084782647E-02
   272 -3.643092528E-01
   273  4.288525595E-03
   274 -1.848522404E-03
   275 -1.091994096E-03
   276 -3.091259338E+00
   277  6.829269600E-03
   278 -3.825436849E-02
   279  3.574474050E-01
   280 -2.677759203E-04
   281 -1.615386480E-03
   282  8.783674920E-03
   283  2.210171343E+00
   284  8.811860104E-03
   285  3.434521629E-02
   286 -7.654364765E-02
   287 -7.867628942E-03
   288  1.687024727E-03
   289  7.139314380E-03
   290  1.343115847E+00
   291 -3.147580601E-03
   292  8.340107870E-02
   293 -3.846535150E-01
   294 -4.721437546E-03
   295 -4.270151453E-04
   296 -1.360627866E-03
   297 -3.088488652E+00
   298  2.120827968E-03
   299 -8.686981271E-02
   300  3.814544679E-01
   301 -3.131551465E-03
   302 -3.944032668E-03
   303 -1.991067285E-03
   304  2.926001338E+00
   305 -7.873960360E-03
   306  4.424078150E-02
   307 -4.122497310E-01
   308 -2.486030850E-03
   309  1.239089255E-03
   310  9.047829216E-03
   311 -2.555079786E+00
   312 -9.205611937E-03
   313 -2.157781290E-02
   314  1.832095549E-02
   315  1.319005316E-03
   316  7.268169063E-03
   317  7.409635058E-03
   318 -1.782440299E+00
   319  2.924056681E-03
   320 -7.125315501E-02
   321  3.303513030E-01
   322 -3.931374994E-04
   323  4.398639132E-03
   324 -6.382156768E-04
   325  2.689248935E+00
   326 -1.608582741E-03
   327  7.595739535E-02
   328 -3.297018490E-01
   329 -3.571046521E-03
   330  3.244001093E-03
   331 -1.440751511E-03
   332 -2.495764257E+00
