 [Molden Format]
 [Cell]
25.00000000     0.00000000    0.00000000
 0.00000000    25.00000000    0.00000000
 0.00000000     0.00000000   25.00000000 
 [Nval]
 C 4 
 H 1
 [Atoms] AU
 C        1       6      27.843758      31.425020      27.973365
 C        2       6      26.159171      31.531727      30.357789
 C        3       6      26.303410      29.020083      31.817233
 C        4       6      29.053603      28.523849      32.623218
 C        5       6      30.790593      28.362561      30.279801
 C        6       6      30.588930      30.877363      28.807727
 C        7       6      25.387799      26.852039      30.108121
 C        8       6      27.058415      26.660424      27.719143
 C        9       6      29.819782      26.211176      28.558751
 C       10       6      26.933863      29.210415      26.299844
 C       11       6      33.529271      27.868443      31.077918
 C       12       6      26.149943      24.502955      26.015501
 C       13       6      27.702617      33.923904      26.518214
 H       14       1      24.199351      31.925652      29.809112
 H       15       1      26.768900      33.097209      31.572063
 H       16       1      25.100009      29.128615      33.498891
 H       17       1      29.713262      30.037721      33.876320
 H       18       1      29.172588      26.757548      33.701799
 H       19       1      31.819647      30.804965      27.139144
 H       20       1      31.281367      32.434196      29.990500
 H       21       1      23.414727      27.165410      29.555144
 H       22       1      25.443357      25.056894      31.143266
 H       23       1      31.037439      26.058345      26.886026
 H       24       1      29.957305      24.401052      29.562069
 H       25       1      24.988802      29.564560      25.672471
 H       26       1      28.101884      29.109197      24.588234
 H       27       1      34.233075      29.384008      32.298397
 H       28       1      34.777768      27.750270      29.432071
 H       29       1      33.689830      26.089766      32.123071
 H       30       1      27.320431      24.348798      24.316175
 H       31       1      24.194134      24.805747      25.411433
 H       32       1      26.231488      22.688557      27.006944
 H       33       1      28.889777      33.870793      24.824291
 H       34       1      28.343320      35.503938      27.690706
 H       35       1      25.763384      34.327220      25.919443
 [GTO]
        1       0
                         s       6    1.00
                                                       4563.240000000        0.001966650
                                                        682.024000000        0.015230600
                                                        154.973000000        0.076126900
                                                         44.455300000        0.260801000
                                                         13.029000000        0.616462000
                                                          1.827730000        0.221006000
                         s       3    1.00
                                                         20.964200000        0.114660000
                                                          4.803310000        0.919999000
                                                          1.459330000       -0.003030680
                         p       3    1.00
                                                         20.964200000        0.040248700
                                                          4.803310000        0.237594000
                                                          1.459330000        0.815854000
                         s       1    1.00
                                                          0.483456000        1.000000000
                         p       1    1.00
                                                          0.483456000        1.000000000
                         s       1    1.00
                                                          0.145585000        1.000000000
                         p       1    1.00
                                                          0.145585000        1.000000000
                         d       1    1.00
                                                          0.626000000        1.000000000
                         s       1    1.00
                                                          0.043800000        1.000000000
                         p       1    1.00
                                                          0.043800000        1.000000000
    
        2       0
                         s       6    1.00
                                                       4563.240000000        0.001966650
                                                        682.024000000        0.015230600
                                                        154.973000000        0.076126900
                                                         44.455300000        0.260801000
                                                         13.029000000        0.616462000
                                                          1.827730000        0.221006000
                         s       3    1.00
                                                         20.964200000        0.114660000
                                                          4.803310000        0.919999000
                                                          1.459330000       -0.003030680
                         p       3    1.00
                                                         20.964200000        0.040248700
                                                          4.803310000        0.237594000
                                                          1.459330000        0.815854000
                         s       1    1.00
                                                          0.483456000        1.000000000
                         p       1    1.00
                                                          0.483456000        1.000000000
                         s       1    1.00
                                                          0.145585000        1.000000000
                         p       1    1.00
                                                          0.145585000        1.000000000
                         d       1    1.00
                                                          0.626000000        1.000000000
                         s       1    1.00
                                                          0.043800000        1.000000000
                         p       1    1.00
                                                          0.043800000        1.000000000
    
        3       0
                         s       6    1.00
                                                       4563.240000000        0.001966650
                                                        682.024000000        0.015230600
                                                        154.973000000        0.076126900
                                                         44.455300000        0.260801000
                                                         13.029000000        0.616462000
                                                          1.827730000        0.221006000
                         s       3    1.00
                                                         20.964200000        0.114660000
                                                          4.803310000        0.919999000
                                                          1.459330000       -0.003030680
                         p       3    1.00
                                                         20.964200000        0.040248700
                                                          4.803310000        0.237594000
                                                          1.459330000        0.815854000
                         s       1    1.00
                                                          0.483456000        1.000000000
                         p       1    1.00
                                                          0.483456000        1.000000000
                         s       1    1.00
                                                          0.145585000        1.000000000
                         p       1    1.00
                                                          0.145585000        1.000000000
                         d       1    1.00
                                                          0.626000000        1.000000000
                         s       1    1.00
                                                          0.043800000        1.000000000
                         p       1    1.00
                                                          0.043800000        1.000000000
    
        4       0
                         s       6    1.00
                                                       4563.240000000        0.001966650
                                                        682.024000000        0.015230600
                                                        154.973000000        0.076126900
                                                         44.455300000        0.260801000
                                                         13.029000000        0.616462000
                                                          1.827730000        0.221006000
                         s       3    1.00
                                                         20.964200000        0.114660000
                                                          4.803310000        0.919999000
                                                          1.459330000       -0.003030680
                         p       3    1.00
                                                         20.964200000        0.040248700
                                                          4.803310000        0.237594000
                                                          1.459330000        0.815854000
                         s       1    1.00
                                                          0.483456000        1.000000000
                         p       1    1.00
                                                          0.483456000        1.000000000
                         s       1    1.00
                                                          0.145585000        1.000000000
                         p       1    1.00
                                                          0.145585000        1.000000000
                         d       1    1.00
                                                          0.626000000        1.000000000
                         s       1    1.00
                                                          0.043800000        1.000000000
                         p       1    1.00
                                                          0.043800000        1.000000000
    
        5       0
                         s       6    1.00
                                                       4563.240000000        0.001966650
                                                        682.024000000        0.015230600
                                                        154.973000000        0.076126900
                                                         44.455300000        0.260801000
                                                         13.029000000        0.616462000
                                                          1.827730000        0.221006000
                         s       3    1.00
                                                         20.964200000        0.114660000
                                                          4.803310000        0.919999000
                                                          1.459330000       -0.003030680
                         p       3    1.00
                                                         20.964200000        0.040248700
                                                          4.803310000        0.237594000
                                                          1.459330000        0.815854000
                         s       1    1.00
                                                          0.483456000        1.000000000
                         p       1    1.00
                                                          0.483456000        1.000000000
                         s       1    1.00
                                                          0.145585000        1.000000000
                         p       1    1.00
                                                          0.145585000        1.000000000
                         d       1    1.00
                                                          0.626000000        1.000000000
                         s       1    1.00
                                                          0.043800000        1.000000000
                         p       1    1.00
                                                          0.043800000        1.000000000
    
        6       0
                         s       6    1.00
                                                       4563.240000000        0.001966650
                                                        682.024000000        0.015230600
                                                        154.973000000        0.076126900
                                                         44.455300000        0.260801000
                                                         13.029000000        0.616462000
                                                          1.827730000        0.221006000
                         s       3    1.00
                                                         20.964200000        0.114660000
                                                          4.803310000        0.919999000
                                                          1.459330000       -0.003030680
                         p       3    1.00
                                                         20.964200000        0.040248700
                                                          4.803310000        0.237594000
                                                          1.459330000        0.815854000
                         s       1    1.00
                                                          0.483456000        1.000000000
                         p       1    1.00
                                                          0.483456000        1.000000000
                         s       1    1.00
                                                          0.145585000        1.000000000
                         p       1    1.00
                                                          0.145585000        1.000000000
                         d       1    1.00
                                                          0.626000000        1.000000000
                         s       1    1.00
                                                          0.043800000        1.000000000
                         p       1    1.00
                                                          0.043800000        1.000000000
    
        7       0
                         s       6    1.00
                                                       4563.240000000        0.001966650
                                                        682.024000000        0.015230600
                                                        154.973000000        0.076126900
                                                         44.455300000        0.260801000
                                                         13.029000000        0.616462000
                                                          1.827730000        0.221006000
                         s       3    1.00
                                                         20.964200000        0.114660000
                                                          4.803310000        0.919999000
                                                          1.459330000       -0.003030680
                         p       3    1.00
                                                         20.964200000        0.040248700
                                                          4.803310000        0.237594000
                                                          1.459330000        0.815854000
                         s       1    1.00
                                                          0.483456000        1.000000000
                         p       1    1.00
                                                          0.483456000        1.000000000
                         s       1    1.00
                                                          0.145585000        1.000000000
                         p       1    1.00
                                                          0.145585000        1.000000000
                         d       1    1.00
                                                          0.626000000        1.000000000
                         s       1    1.00
                                                          0.043800000        1.000000000
                         p       1    1.00
                                                          0.043800000        1.000000000
    
        8       0
                         s       6    1.00
                                                       4563.240000000        0.001966650
                                                        682.024000000        0.015230600
                                                        154.973000000        0.076126900
                                                         44.455300000        0.260801000
                                                         13.029000000        0.616462000
                                                          1.827730000        0.221006000
                         s       3    1.00
                                                         20.964200000        0.114660000
                                                          4.803310000        0.919999000
                                                          1.459330000       -0.003030680
                         p       3    1.00
                                                         20.964200000        0.040248700
                                                          4.803310000        0.237594000
                                                          1.459330000        0.815854000
                         s       1    1.00
                                                          0.483456000        1.000000000
                         p       1    1.00
                                                          0.483456000        1.000000000
                         s       1    1.00
                                                          0.145585000        1.000000000
                         p       1    1.00
                                                          0.145585000        1.000000000
                         d       1    1.00
                                                          0.626000000        1.000000000
                         s       1    1.00
                                                          0.043800000        1.000000000
                         p       1    1.00
                                                          0.043800000        1.000000000
    
        9       0
                         s       6    1.00
                                                       4563.240000000        0.001966650
                                                        682.024000000        0.015230600
                                                        154.973000000        0.076126900
                                                         44.455300000        0.260801000
                                                         13.029000000        0.616462000
                                                          1.827730000        0.221006000
                         s       3    1.00
                                                         20.964200000        0.114660000
                                                          4.803310000        0.919999000
                                                          1.459330000       -0.003030680
                         p       3    1.00
                                                         20.964200000        0.040248700
                                                          4.803310000        0.237594000
                                                          1.459330000        0.815854000
                         s       1    1.00
                                                          0.483456000        1.000000000
                         p       1    1.00
                                                          0.483456000        1.000000000
                         s       1    1.00
                                                          0.145585000        1.000000000
                         p       1    1.00
                                                          0.145585000        1.000000000
                         d       1    1.00
                                                          0.626000000        1.000000000
                         s       1    1.00
                                                          0.043800000        1.000000000
                         p       1    1.00
                                                          0.043800000        1.000000000
    
       10       0
                         s       6    1.00
                                                       4563.240000000        0.001966650
                                                        682.024000000        0.015230600
                                                        154.973000000        0.076126900
                                                         44.455300000        0.260801000
                                                         13.029000000        0.616462000
                                                          1.827730000        0.221006000
                         s       3    1.00
                                                         20.964200000        0.114660000
                                                          4.803310000        0.919999000
                                                          1.459330000       -0.003030680
                         p       3    1.00
                                                         20.964200000        0.040248700
                                                          4.803310000        0.237594000
                                                          1.459330000        0.815854000
                         s       1    1.00
                                                          0.483456000        1.000000000
                         p       1    1.00
                                                          0.483456000        1.000000000
                         s       1    1.00
                                                          0.145585000        1.000000000
                         p       1    1.00
                                                          0.145585000        1.000000000
                         d       1    1.00
                                                          0.626000000        1.000000000
                         s       1    1.00
                                                          0.043800000        1.000000000
                         p       1    1.00
                                                          0.043800000        1.000000000
    
       11       0
                         s       6    1.00
                                                       4563.240000000        0.001966650
                                                        682.024000000        0.015230600
                                                        154.973000000        0.076126900
                                                         44.455300000        0.260801000
                                                         13.029000000        0.616462000
                                                          1.827730000        0.221006000
                         s       3    1.00
                                                         20.964200000        0.114660000
                                                          4.803310000        0.919999000
                                                          1.459330000       -0.003030680
                         p       3    1.00
                                                         20.964200000        0.040248700
                                                          4.803310000        0.237594000
                                                          1.459330000        0.815854000
                         s       1    1.00
                                                          0.483456000        1.000000000
                         p       1    1.00
                                                          0.483456000        1.000000000
                         s       1    1.00
                                                          0.145585000        1.000000000
                         p       1    1.00
                                                          0.145585000        1.000000000
                         d       1    1.00
                                                          0.626000000        1.000000000
                         s       1    1.00
                                                          0.043800000        1.000000000
                         p       1    1.00
                                                          0.043800000        1.000000000
    
       12       0
                         s       6    1.00
                                                       4563.240000000        0.001966650
                                                        682.024000000        0.015230600
                                                        154.973000000        0.076126900
                                                         44.455300000        0.260801000
                                                         13.029000000        0.616462000
                                                          1.827730000        0.221006000
                         s       3    1.00
                                                         20.964200000        0.114660000
                                                          4.803310000        0.919999000
                                                          1.459330000       -0.003030680
                         p       3    1.00
                                                         20.964200000        0.040248700
                                                          4.803310000        0.237594000
                                                          1.459330000        0.815854000
                         s       1    1.00
                                                          0.483456000        1.000000000
                         p       1    1.00
                                                          0.483456000        1.000000000
                         s       1    1.00
                                                          0.145585000        1.000000000
                         p       1    1.00
                                                          0.145585000        1.000000000
                         d       1    1.00
                                                          0.626000000        1.000000000
                         s       1    1.00
                                                          0.043800000        1.000000000
                         p       1    1.00
                                                          0.043800000        1.000000000
    
       13       0
                         s       6    1.00
                                                       4563.240000000        0.001966650
                                                        682.024000000        0.015230600
                                                        154.973000000        0.076126900
                                                         44.455300000        0.260801000
                                                         13.029000000        0.616462000
                                                          1.827730000        0.221006000
                         s       3    1.00
                                                         20.964200000        0.114660000
                                                          4.803310000        0.919999000
                                                          1.459330000       -0.003030680
                         p       3    1.00
                                                         20.964200000        0.040248700
                                                          4.803310000        0.237594000
                                                          1.459330000        0.815854000
                         s       1    1.00
                                                          0.483456000        1.000000000
                         p       1    1.00
                                                          0.483456000        1.000000000
                         s       1    1.00
                                                          0.145585000        1.000000000
                         p       1    1.00
                                                          0.145585000        1.000000000
                         d       1    1.00
                                                          0.626000000        1.000000000
                         s       1    1.00
                                                          0.043800000        1.000000000
                         p       1    1.00
                                                          0.043800000        1.000000000
    
       14       0
                         s       3    1.00
                                                         33.865000000        0.025493800
                                                          5.094790000        0.190373000
                                                          1.158790000        0.852161000
                         s       1    1.00
                                                          0.325840000        1.000000000
                         s       1    1.00
                                                          0.102741000        1.000000000
                         p       1    1.00
                                                          0.750000000        1.000000000
                         s       1    1.00
                                                          0.036000000        1.000000000
    
       15       0
                         s       3    1.00
                                                         33.865000000        0.025493800
                                                          5.094790000        0.190373000
                                                          1.158790000        0.852161000
                         s       1    1.00
                                                          0.325840000        1.000000000
                         s       1    1.00
                                                          0.102741000        1.000000000
                         p       1    1.00
                                                          0.750000000        1.000000000
                         s       1    1.00
                                                          0.036000000        1.000000000
    
       16       0
                         s       3    1.00
                                                         33.865000000        0.025493800
                                                          5.094790000        0.190373000
                                                          1.158790000        0.852161000
                         s       1    1.00
                                                          0.325840000        1.000000000
                         s       1    1.00
                                                          0.102741000        1.000000000
                         p       1    1.00
                                                          0.750000000        1.000000000
                         s       1    1.00
                                                          0.036000000        1.000000000
    
       17       0
                         s       3    1.00
                                                         33.865000000        0.025493800
                                                          5.094790000        0.190373000
                                                          1.158790000        0.852161000
                         s       1    1.00
                                                          0.325840000        1.000000000
                         s       1    1.00
                                                          0.102741000        1.000000000
                         p       1    1.00
                                                          0.750000000        1.000000000
                         s       1    1.00
                                                          0.036000000        1.000000000
    
       18       0
                         s       3    1.00
                                                         33.865000000        0.025493800
                                                          5.094790000        0.190373000
                                                          1.158790000        0.852161000
                         s       1    1.00
                                                          0.325840000        1.000000000
                         s       1    1.00
                                                          0.102741000        1.000000000
                         p       1    1.00
                                                          0.750000000        1.000000000
                         s       1    1.00
                                                          0.036000000        1.000000000
    
       19       0
                         s       3    1.00
                                                         33.865000000        0.025493800
                                                          5.094790000        0.190373000
                                                          1.158790000        0.852161000
                         s       1    1.00
                                                          0.325840000        1.000000000
                         s       1    1.00
                                                          0.102741000        1.000000000
                         p       1    1.00
                                                          0.750000000        1.000000000
                         s       1    1.00
                                                          0.036000000        1.000000000
    
       20       0
                         s       3    1.00
                                                         33.865000000        0.025493800
                                                          5.094790000        0.190373000
                                                          1.158790000        0.852161000
                         s       1    1.00
                                                          0.325840000        1.000000000
                         s       1    1.00
                                                          0.102741000        1.000000000
                         p       1    1.00
                                                          0.750000000        1.000000000
                         s       1    1.00
                                                          0.036000000        1.000000000
    
       21       0
                         s       3    1.00
                                                         33.865000000        0.025493800
                                                          5.094790000        0.190373000
                                                          1.158790000        0.852161000
                         s       1    1.00
                                                          0.325840000        1.000000000
                         s       1    1.00
                                                          0.102741000        1.000000000
                         p       1    1.00
                                                          0.750000000        1.000000000
                         s       1    1.00
                                                          0.036000000        1.000000000
    
       22       0
                         s       3    1.00
                                                         33.865000000        0.025493800
                                                          5.094790000        0.190373000
                                                          1.158790000        0.852161000
                         s       1    1.00
                                                          0.325840000        1.000000000
                         s       1    1.00
                                                          0.102741000        1.000000000
                         p       1    1.00
                                                          0.750000000        1.000000000
                         s       1    1.00
                                                          0.036000000        1.000000000
    
       23       0
                         s       3    1.00
                                                         33.865000000        0.025493800
                                                          5.094790000        0.190373000
                                                          1.158790000        0.852161000
                         s       1    1.00
                                                          0.325840000        1.000000000
                         s       1    1.00
                                                          0.102741000        1.000000000
                         p       1    1.00
                                                          0.750000000        1.000000000
                         s       1    1.00
                                                          0.036000000        1.000000000
    
       24       0
                         s       3    1.00
                                                         33.865000000        0.025493800
                                                          5.094790000        0.190373000
                                                          1.158790000        0.852161000
                         s       1    1.00
                                                          0.325840000        1.000000000
                         s       1    1.00
                                                          0.102741000        1.000000000
                         p       1    1.00
                                                          0.750000000        1.000000000
                         s       1    1.00
                                                          0.036000000        1.000000000
    
       25       0
                         s       3    1.00
                                                         33.865000000        0.025493800
                                                          5.094790000        0.190373000
                                                          1.158790000        0.852161000
                         s       1    1.00
                                                          0.325840000        1.000000000
                         s       1    1.00
                                                          0.102741000        1.000000000
                         p       1    1.00
                                                          0.750000000        1.000000000
                         s       1    1.00
                                                          0.036000000        1.000000000
    
       26       0
                         s       3    1.00
                                                         33.865000000        0.025493800
                                                          5.094790000        0.190373000
                                                          1.158790000        0.852161000
                         s       1    1.00
                                                          0.325840000        1.000000000
                         s       1    1.00
                                                          0.102741000        1.000000000
                         p       1    1.00
                                                          0.750000000        1.000000000
                         s       1    1.00
                                                          0.036000000        1.000000000
    
       27       0
                         s       3    1.00
                                                         33.865000000        0.025493800
                                                          5.094790000        0.190373000
                                                          1.158790000        0.852161000
                         s       1    1.00
                                                          0.325840000        1.000000000
                         s       1    1.00
                                                          0.102741000        1.000000000
                         p       1    1.00
                                                          0.750000000        1.000000000
                         s       1    1.00
                                                          0.036000000        1.000000000
    
       28       0
                         s       3    1.00
                                                         33.865000000        0.025493800
                                                          5.094790000        0.190373000
                                                          1.158790000        0.852161000
                         s       1    1.00
                                                          0.325840000        1.000000000
                         s       1    1.00
                                                          0.102741000        1.000000000
                         p       1    1.00
                                                          0.750000000        1.000000000
                         s       1    1.00
                                                          0.036000000        1.000000000
    
       29       0
                         s       3    1.00
                                                         33.865000000        0.025493800
                                                          5.094790000        0.190373000
                                                          1.158790000        0.852161000
                         s       1    1.00
                                                          0.325840000        1.000000000
                         s       1    1.00
                                                          0.102741000        1.000000000
                         p       1    1.00
                                                          0.750000000        1.000000000
                         s       1    1.00
                                                          0.036000000        1.000000000
    
       30       0
                         s       3    1.00
                                                         33.865000000        0.025493800
                                                          5.094790000        0.190373000
                                                          1.158790000        0.852161000
                         s       1    1.00
                                                          0.325840000        1.000000000
                         s       1    1.00
                                                          0.102741000        1.000000000
                         p       1    1.00
                                                          0.750000000        1.000000000
                         s       1    1.00
                                                          0.036000000        1.000000000
    
       31       0
                         s       3    1.00
                                                         33.865000000        0.025493800
                                                          5.094790000        0.190373000
                                                          1.158790000        0.852161000
                         s       1    1.00
                                                          0.325840000        1.000000000
                         s       1    1.00
                                                          0.102741000        1.000000000
                         p       1    1.00
                                                          0.750000000        1.000000000
                         s       1    1.00
                                                          0.036000000        1.000000000
    
       32       0
                         s       3    1.00
                                                         33.865000000        0.025493800
                                                          5.094790000        0.190373000
                                                          1.158790000        0.852161000
                         s       1    1.00
                                                          0.325840000        1.000000000
                         s       1    1.00
                                                          0.102741000        1.000000000
                         p       1    1.00
                                                          0.750000000        1.000000000
                         s       1    1.00
                                                          0.036000000        1.000000000
    
       33       0
                         s       3    1.00
                                                         33.865000000        0.025493800
                                                          5.094790000        0.190373000
                                                          1.158790000        0.852161000
                         s       1    1.00
                                                          0.325840000        1.000000000
                         s       1    1.00
                                                          0.102741000        1.000000000
                         p       1    1.00
                                                          0.750000000        1.000000000
                         s       1    1.00
                                                          0.036000000        1.000000000
    
       34       0
                         s       3    1.00
                                                         33.865000000        0.025493800
                                                          5.094790000        0.190373000
                                                          1.158790000        0.852161000
                         s       1    1.00
                                                          0.325840000        1.000000000
                         s       1    1.00
                                                          0.102741000        1.000000000
                         p       1    1.00
                                                          0.750000000        1.000000000
                         s       1    1.00
                                                          0.036000000        1.000000000
    
       35       0
                         s       3    1.00
                                                         33.865000000        0.025493800
                                                          5.094790000        0.190373000
                                                          1.158790000        0.852161000
                         s       1    1.00
                                                          0.325840000        1.000000000
                         s       1    1.00
                                                          0.102741000        1.000000000
                         p       1    1.00
                                                          0.750000000        1.000000000
                         s       1    1.00
                                                          0.036000000        1.000000000
    
 [5D7F]
 [9G]
 [MO]
Ene=   -1.0175809594E+01
Spin= Alpha
Occup=   2.0000000
     1 -3.896771956E-01
     2 -3.204931049E-01
     3 -2.387030265E-05
     4 -1.198970988E-04
     5 -3.738970909E-06
     6 -1.591081966E-02
     7  1.337040065E-04
     8  1.024803851E-03
     9 -9.024566890E-05
    10  3.377261966E-02
    11  7.189663254E-04
    12 -1.077681205E-02
    13  6.398161732E-03
    14 -2.221952104E-05
    15 -8.056235424E-05
    16  7.967276920E-05
    17  2.062314355E-04
    18 -3.616035786E-05
    19  3.929704239E-02
    20 -7.019846286E-03
    21  2.465733182E-02
    22 -2.075030719E-02
    23 -2.199630620E-03
    24 -1.839130581E-03
    25 -8.169595466E-05
    26 -1.311953697E-05
    27  1.659975949E-04
    28  9.050812092E-04
    29  8.316874949E-05
    30 -2.211920995E-04
    31 -1.078585898E-04
    32 -1.422964568E-02
    33 -2.797015141E-03
    34  3.660869477E-03
    35  5.412479062E-03
    36  3.712961092E-04
    37 -4.141262628E-04
    38 -2.077028422E-04
    39 -9.386621962E-07
    40  1.613560922E-04
    41 -1.733051314E-03
    42  9.180824892E-04
    43 -1.468977897E-03
    44  6.588251193E-03
    45 -8.123013932E-06
    46 -5.450386179E-06
    47 -2.117230772E-05
    48 -1.155260298E-04
    49 -8.006934026E-06
    50 -1.690385997E-05
    51  1.428327539E-04
    52  7.917120423E-04
    53  5.752463266E-05
    54  9.403034591E-05
    55  5.078969835E-05
    56  5.641521638E-05
    57 -5.005454441E-05
    58 -1.035661408E-05
    59 -3.042082547E-05
    60 -1.333429592E-04
    61 -6.070858376E-05
    62 -1.715004686E-04
    63  1.681123783E-03
    64 -1.195132338E-03
    65 -7.424834579E-03
    66 -7.924913785E-04
    67 -3.871864001E-05
    68 -3.325116721E-05
    69  3.524592484E-06
    70  3.877374497E-05
    71  3.083939507E-06
    72  3.494314395E-05
    73 -2.269056689E-05
    74 -1.338005626E-04
    75 -8.322474369E-06
    76 -4.357728921E-04
    77  6.254988286E-04
    78  3.776679648E-03
    79  4.005297996E-04
    80  1.146605671E-05
    81  1.727746221E-05
    82  1.589176668E-04
    83  3.067724162E-05
    84  4.096947758E-05
    85 -5.926676308E-04
    86  1.109142369E-03
    87  6.932486388E-03
    88  5.143435040E-04
    89 -7.280415990E-03
    90 -5.986633360E-03
    91 -2.178278235E-05
    92 -1.184256931E-04
    93 -8.436026265E-06
    94 -3.120839553E-04
    95  1.513796319E-04
    96  7.856230568E-04
    97  5.819867150E-05
    98  6.959874645E-04
    99 -2.650240608E-04
   100  3.342730372E-04
   101 -6.849729204E-05
   102 -1.915734728E-05
   103 -4.191153767E-05
   104 -2.401609919E-04
   105 -8.308728466E-06
   106  1.793474818E-05
   107  1.260723195E-03
   108 -1.864342185E-03
   109 -1.473627315E-02
   110 -6.775056633E-04
   111 -2.193562398E-03
   112 -1.836885471E-03
   113  1.620672802E-04
   114 -4.821791183E-05
   115  8.345987888E-05
   116  9.696151533E-04
   117 -2.110613305E-04
   118 -1.829221040E-04
   119 -2.533665383E-05
   120 -1.496539056E-02
   121  6.532491920E-03
   122  2.494539345E-03
   123  2.123135925E-03
   124 -1.828981901E-04
   125  4.070795015E-04
   126 -1.776546960E-04
   127  1.759311737E-04
   128 -3.578529516E-04
   129  2.876693009E-02
   130 -1.992461962E-03
   131 -5.386265457E-03
   132  8.145989114E-03
   133  2.297543169E-03
   134  1.919366010E-03
   135  8.295556735E-05
   136 -2.208085704E-05
   137 -1.747086678E-04
   138 -9.088923697E-04
   139 -1.681609924E-04
   140 -1.997192802E-04
   141  8.734555566E-05
   142  1.451856330E-02
   143  4.099247307E-03
   144  3.004900264E-03
   145 -5.130901062E-03
   146 -4.265793127E-04
   147  3.636154431E-04
   148 -2.780880874E-04
   149  5.473395207E-05
   150  9.799028564E-05
   151  6.192918673E-04
   152 -1.187331669E-03
   153 -9.042186196E-04
   154 -6.799365580E-03
   155  4.063434072E-01
   156  3.342029796E-01
   157 -1.937154642E-05
   158 -1.200104177E-04
   159 -1.328557320E-05
   160  1.655911468E-02
   161  2.259035560E-04
   162  9.971254410E-04
   163  2.288620520E-04
   164 -3.506628492E-02
   165 -4.135095531E-03
   166 -9.542403351E-03
   167 -7.665120380E-03
   168  3.252787526E-05
   169  1.101692607E-04
   170  7.711728912E-05
   171 -1.782092665E-04
   172  8.583559239E-05
   173 -4.057116370E-02
   174  1.392778076E-02
   175  1.954375035E-02
   176  2.312232411E-02
   177  2.209190311E-03
   178  1.848741425E-03
   179 -1.806066151E-04
   180  1.255544435E-05
   181 -9.092116380E-05
   182 -9.431627656E-04
   183  1.493086916E-04
   184 -2.467088984E-04
   185 -1.177387285E-06
   186  1.475145934E-02
   187 -5.534820188E-03
   188  4.437182993E-03
   189 -1.863668278E-03
   190  1.691635363E-04
   191 -4.682140822E-04
   192 -2.750926841E-05
   193 -3.672484590E-04
   194 -1.159886656E-04
   195 -2.801773512E-02
   196 -2.724565066E-04
   197 -5.034604852E-03
   198 -8.778862525E-03
   199  9.421811025E-05
   200  7.840942496E-05
   201 -5.524513481E-05
   202 -3.474060324E-04
   203 -1.389803666E-05
   204 -2.582835613E-05
   205  2.464440154E-06
   206  5.256570742E-05
   207 -1.105113568E-05
   208  4.952669721E-04
   209 -1.061964607E-03
   210 -7.030155865E-03
   211 -2.072836077E-04
   212  5.337580018E-05
   213  8.540943801E-05
   214  4.869853135E-04
   215  9.823319675E-05
   216  1.496471395E-04
   217 -3.723353889E-04
   218 -2.001249084E-03
   219 -1.251994570E-02
   220 -7.655891732E-04
   221 -4.031965218E-05
   222 -3.219471255E-05
   223  2.188720465E-06
   224 -1.415841136E-05
   225  5.303913098E-07
   226 -1.668391430E-05
   227  2.543926125E-06
   228  5.005645330E-05
   229  1.179913458E-06
   230  8.899340641E-05
   231 -9.121667105E-05
   232 -3.877050904E-04
   233 -3.235629915E-05
   234 -8.651316033E-06
   235 -5.786991844E-06
   236 -6.193242081E-05
   237  5.828688142E-06
   238  4.212023689E-06
   239 -6.635898069E-04
   240  2.046076890E-04
   241  3.328070670E-04
   242  5.171134870E-05
   243  2.177190203E-03
   244  1.750220698E-03
   245  9.451720457E-05
   246  2.127033398E-04
   247  1.753033932E-04
   248  6.696760541E-04
   249 -1.776955496E-04
   250 -3.800310687E-04
   251 -3.277045728E-04
   252 -1.647393496E-03
   253  8.089007861E-05
   254 -2.479327943E-04
   255 -3.450205117E-05
   256 -3.496682110E-07
   257 -1.706074484E-04
   258 -4.390021063E-04
   259  1.963986133E-04
   260 -2.210243221E-04
   261  3.444605722E-02
   262  1.973656251E-03
   263  5.287114550E-03
   264  4.121054843E-03
   265 -2.091200763E-03
   266 -1.680625373E-03
   267 -1.826245983E-05
   268  2.372180167E-04
   269 -1.443269578E-04
   270 -6.515172359E-04
   271  4.125016869E-05
   272 -4.228512537E-04
   273  2.697817791E-04
   274  1.685560262E-03
   275 -1.642742563E-04
   276 -2.526573833E-04
   277  1.690212458E-05
   278 -7.906365312E-05
   279  9.570513510E-06
   280 -4.139534301E-04
   281 -3.203528953E-04
   282 -4.870721706E-05
   283 -3.408235637E-02
   284 -8.633683653E-05
   285  6.010896528E-03
   286 -3.506261616E-03
   287 -8.086159148E-05
   288  2.247456588E-03
   289 -5.532204160E-04
   290  4.004393355E-04
   291 -2.133640961E-04
   292  1.198086082E-05
   293  2.309155814E-03
   294  1.418860252E-05
   295  9.808058881E-04
   296 -2.116527323E-03
   297  4.469061198E-07
   298 -2.407872773E-04
   299 -1.603307200E-04
   300 -1.169025499E-03
   301 -1.805849586E-06
   302  6.967374976E-06
   303 -2.212615161E-05
   304 -3.115713616E-06
   305 -1.344413726E-05
   306 -2.199248959E-07
   307  5.400638401E-05
   308  9.012423257E-05
   309 -1.178774945E-03
   310 -1.555822904E-03
   311  4.951685260E-05
   312  4.994696973E-05
   313  1.338953570E-04
   314 -3.309611071E-03
   315 -9.315246539E-05
   316  1.262341106E-03
   317  1.436394621E-03
   318 -3.116295661E-05
   319  8.642179266E-05
   320 -1.418619095E-04
   321  3.352067269E-03
   322 -8.976736217E-05
   323  2.343782535E-03
   324 -1.428317848E-03
   325 -3.499636261E-04
   326 -1.095610021E-04
   327  2.786941902E-04
   328  3.481672704E-03
   329  1.370426206E-06
   330  1.115172866E-03
   331 -3.195305311E-03
   332 -1.705546162E-04
   333 -2.205308225E-04
   334 -1.079120459E-04
   335 -1.631357864E-03
   336  7.705985044E-05
   337 -2.247443737E-03
   338  6.167169411E-04
   339 -4.532651031E-04
   340 -7.005191477E-05
   341 -2.989829602E-05
   342 -2.192361375E-03
   343 -1.114047511E-05
   344 -1.072481941E-03
   345  2.058923339E-03
   346 -8.492869401E-05
   347 -2.589923439E-04
   348  1.424042430E-04
   349  1.038622574E-03
   350  8.542475100E-05
   351 -2.301499229E-03
   352  1.412982315E-03
   353  2.982991248E-04
   354 -1.816376793E-04
   355 -2.916184461E-04
   356 -3.347590738E-03
   357 -2.545669744E-06
   358 -1.115250533E-03
   359  3.085882425E-03
   360  8.970554545E-05
   361 -2.736940874E-04
   362  8.321640086E-05
   363  1.580096541E-03
   364 -7.254681853E-07
   365 -4.485890078E-05
   366  6.559694661E-05
   367 -4.952288210E-06
   368  3.447660296E-05
   369 -4.890680767E-06
   370  4.402788523E-05
   371  8.964176433E-07
   372 -6.743686047E-05
   373  4.305482370E-05
   374  8.350906633E-06
   375  2.227466379E-05
   376 -1.301545218E-05
   377 -5.593499650E-05
   378  1.354378827E-05
   379  8.916710997E-05
   380  1.599284359E-05
   381  3.529006530E-05
   382 -3.989814890E-06
   383 -1.343081970E-05
   384  5.582542778E-04
   385  2.361839745E-06
   386 -9.053576839E-06
   387 -3.239461732E-05
   388  7.098742424E-06
   389  4.081559512E-05
   390  2.990525460E-06
   391 -2.142311276E-05
   392 -8.254461928E-06
   393 -1.048977137E-04
   394 -7.721044387E-05
   395 -3.237445994E-05
   396  7.731241594E-06
   397  1.435366890E-05
   398 -5.904526441E-04
   399 -1.008403035E-04
   400  1.861110057E-05
   401  1.487833013E-03
   402  7.068359511E-05
   403  3.771856382E-05
   404 -8.191161232E-05
   405  5.615209704E-04
   406 -1.031437246E-04
   407  6.426912924E-05
   408  1.585760593E-03
   409 -8.825736260E-05
   410  5.781319434E-05
   411 -2.188897177E-05
   412  6.366279850E-04
   413 -1.135909467E-04
   414 -2.899339288E-05
   415  1.547513647E-03
   416  2.641471915E-05
   417 -5.206970377E-05
   418  1.042338383E-04
   419  8.468216874E-05
   420  9.768620889E-05
   421 -3.336053420E-05
   422 -1.427546026E-03
   423 -5.058955669E-05
   424  4.815706811E-05
   425  8.246078683E-05
   426 -5.711005784E-04
   427  1.110467644E-04
   428  1.831495291E-05
   429 -1.476830128E-03
   430 -3.726472806E-05
   431 -2.512349064E-05
   432 -1.046634670E-04
   433 -7.505565200E-05
   434  9.964153185E-05
   435 -8.157907794E-05
   436 -1.526687797E-03
   437  9.466308274E-05
   438  2.337460440E-05
   439  2.656323760E-05
   440 -6.659003676E-04
Ene=   -1.0175806109E+01
Spin= Alpha
Occup=   2.0000000
     1 -2.884926028E-01
     2 -2.372952746E-01
     3  8.775090597E-05
     4 -1.972777616E-05
     5  7.712861570E-05
     6 -1.150077410E-02
     7 -5.993898589E-04
     8  2.628645577E-04
     9 -5.765325644E-04
    10  2.369819950E-02
    11  2.920844958E-04
    12 -6.773864715E-03
    13  3.640532313E-03
    14  1.263505923E-04
    15 -2.087335281E-06
    16  2.131156168E-04
    17 -4.632797255E-05
    18  4.186003610E-05
    19  1.996324973E-02
    20  8.174075459E-03
    21  2.328650915E-02
    22 -2.750542406E-03
    23 -1.654610726E-03
    24 -1.371077340E-03
    25 -1.101627554E-04
    26 -7.819991063E-06
    27  1.035639844E-04
    28  3.876447141E-04
    29  2.186934917E-04
    30 -1.493697427E-04
    31 -2.365384746E-06
    32 -7.899428218E-03
    33 -4.968753575E-03
    34  6.941724787E-05
    35  1.067822411E-03
    36  1.914429983E-04
    37 -2.995793087E-04
    38 -2.258588338E-04
    39  1.360324664E-04
    40 -3.878198829E-06
    41 -7.817239410E-04
    42 -5.744569444E-03
    43 -4.464681263E-03
    44 -5.162193206E-05
    45  1.070014954E-04
    46  6.843992940E-05
    47  8.892865449E-05
    48 -2.141806435E-05
    49  7.160020928E-05
    50  2.640607555E-04
    51 -5.751421154E-04
    52  1.435403440E-04
    53 -5.385409756E-04
    54 -1.412931237E-03
    55 -5.995628296E-04
    56  4.988561024E-05
    57  7.361936388E-04
    58 -7.947217547E-05
    59 -7.080352777E-05
    60  2.657352786E-05
    61 -1.895063837E-04
    62  6.368536689E-05
    63 -4.329161705E-03
    64  5.174877492E-03
    65 -1.215235677E-03
    66  5.571204896E-03
    67  2.244676646E-03
    68  1.887574645E-03
    69  1.422561354E-04
    70 -1.636530913E-05
    71 -1.134644379E-04
    72 -1.182071084E-03
    73  5.692962886E-05
    74 -2.373208345E-05
    75  2.014337200E-04
    76  1.697434253E-02
    77  1.171529642E-03
    78  3.366678495E-04
    79 -8.005925510E-03
    80  6.217122156E-05
    81  5.197562997E-04
    82 -6.627225475E-05
    83 -3.818477989E-04
    84  1.015895529E-04
    85  9.160363596E-04
    86  5.809062668E-03
    87 -7.172738688E-04
    88 -2.314251236E-03
    89  4.014652975E-01
    90  3.301683557E-01
    91  9.716283913E-05
    92 -2.292731329E-05
    93  7.323481174E-05
    94  1.664318500E-02
    95 -9.252178359E-04
    96  2.040983500E-04
    97 -5.897751123E-04
    98 -3.599463347E-02
    99  1.361227190E-02
   100 -2.446917503E-03
   101  3.805149453E-03
   102 -1.380703170E-04
   103  1.323557274E-04
   104 -2.005951558E-05
   105  8.550232353E-05
   106 -3.609613784E-05
   107 -4.947479705E-02
   108 -3.496899731E-02
   109  6.198159673E-03
   110 -7.184139275E-03
   111  6.022955451E-04
   112  5.150158787E-04
   113  1.907152557E-04
   114 -1.981441048E-04
   115  1.333111799E-04
   116 -5.445059533E-04
   117 -2.395369643E-05
   118  6.155120963E-05
   119  1.654651461E-05
   120  6.740807912E-03
   121  1.678712100E-03
   122 -6.280986532E-03
   123  2.451883756E-03
   124 -4.114407799E-05
   125 -3.033463899E-05
   126  2.604495034E-04
   127  4.260285734E-04
   128  8.419586953E-05
   129 -1.181209483E-02
   130  9.573414083E-03
   131 -6.971401407E-03
   132  2.024084236E-03
   133 -1.547117289E-03
   134 -1.281300458E-03
   135 -9.982131774E-05
   136  3.082511202E-05
   137  9.743645593E-05
   138  3.455699301E-04
   139  2.472756931E-04
   140  6.174752496E-05
   141  1.370429165E-05
   142 -7.233082119E-03
   143 -4.563604355E-03
   144  1.557623363E-03
   145  8.896368059E-04
   146  2.159524853E-04
   147 -2.055210561E-04
   148  2.439919215E-04
   149  1.466604570E-04
   150 -5.743272407E-05
   151 -8.714231874E-04
   152 -4.129601696E-03
   153  5.988970004E-03
   154  3.783303888E-04
   155 -2.694668238E-01
   156 -2.216472812E-01
   157  8.731517810E-05
   158 -2.322451390E-05
   159  7.684795617E-05
   160 -1.072480146E-02
   161 -6.322040685E-04
   162  5.137224709E-05
   163 -5.810042009E-04
   164  2.204733169E-02
   165  2.191342227E-03
   166  5.460515397E-03
   167  3.964962300E-03
   168  8.846973310E-05
   169 -6.967386753E-05
   170 -2.093578450E-04
   171 -9.089633496E-05
   172  9.926919133E-06
   173  1.786095107E-02
   174  8.124565193E-04
   175 -2.285154476E-02
   176 -4.183642765E-03
   177  7.055911949E-04
   178  6.014585160E-04
   179  2.334287056E-04
   180  1.123584979E-04
   181  1.455895940E-04
   182 -5.894364850E-04
   183 -3.566619802E-05
   184 -6.339806781E-05
   185  1.074588814E-05
   186  7.422565293E-03
   187  3.301604569E-03
   188  5.338563253E-03
   189  2.970327288E-03
   190 -8.185536681E-05
   191 -1.606651846E-04
   192 -2.603060791E-04
   193  2.460571602E-04
   194 -3.141510567E-04
   195 -1.114315963E-02
   196  1.117552772E-02
   197  3.354055955E-03
   198  2.401445422E-03
   199 -3.110803988E-03
   200 -2.593072956E-03
   201 -6.685739635E-05
   202  9.383560917E-06
   203 -1.272300872E-04
   204  1.065454491E-03
   205  2.144383947E-04
   206 -5.562056297E-05
   207  3.945727992E-04
   208 -1.827906397E-02
   209 -4.244606670E-03
   210  8.608357624E-04
   211 -6.248690144E-03
   212 -3.353277839E-04
   213  1.499944515E-04
   214  5.302239141E-05
   215 -6.132696476E-04
   216  2.044981485E-04
   217  3.870149130E-02
   218 -1.736834772E-03
   219 -3.292485385E-04
   220  9.310329419E-03
   221  2.163464775E-03
   222  1.735057180E-03
   223 -2.629940826E-04
   224  4.725698116E-05
   225 -7.496767856E-05
   226  7.408036846E-04
   227  4.366115707E-04
   228 -7.831103485E-05
   229  1.196258908E-04
   230 -2.582930474E-03
   231  5.400666861E-04
   232 -1.011890078E-04
   233  1.794339863E-04
   234  1.907190076E-04
   235 -2.346053840E-04
   236  4.247117029E-05
   237 -4.055653683E-04
   238  1.506136823E-04
   239  3.946490650E-02
   240 -7.785616112E-03
   241  1.402652105E-03
   242 -2.237426465E-03
   243 -1.433119776E-03
   244 -1.155762734E-03
   245 -5.612554998E-05
   246 -1.583443429E-04
   247 -1.136687957E-04
   248 -3.715210879E-04
   249  1.021724487E-04
   250  3.348309622E-04
   251  2.226253173E-04
   252  1.918226731E-04
   253  7.665777831E-05
   254 -4.258684890E-04
   255  5.652621491E-05
   256  3.297373802E-05
   257  1.200320287E-04
   258  2.668898304E-04
   259 -1.900305659E-04
   260  1.703773726E-04
   261 -1.867270234E-02
   262 -1.096955390E-03
   263 -2.375311574E-03
   264 -2.381900945E-03
   265 -1.535112502E-03
   266 -1.237787290E-03
   267 -1.203125284E-06
   268  1.904923188E-04
   269 -1.027616828E-04
   270 -4.030659530E-04
   271 -1.324909167E-05
   272 -3.920344741E-04
   273  1.981030097E-04
   274  2.686468015E-04
   275  2.076827967E-04
   276  3.617132004E-04
   277  1.004588999E-04
   278 -2.004907093E-05
   279  2.169151324E-05
   280 -2.853666763E-04
   281 -2.994110343E-04
   282 -2.007163843E-05
   283 -2.100032605E-02
   284 -2.579843921E-04
   285  3.280273189E-03
   286 -2.370506792E-03
   287  7.040294914E-05
   288 -4.713850300E-05
   289 -1.691136372E-03
   290  1.073971770E-04
   291 -2.548426091E-05
   292  3.014008263E-05
   293 -2.453670809E-03
   294 -8.426362349E-05
   295  2.013169683E-03
   296  8.263937064E-04
   297  1.515707239E-05
   298 -3.187770222E-04
   299 -1.984893325E-04
   300  3.223078560E-03
   301  1.561636030E-05
   302 -5.123641786E-06
   303 -2.292008105E-04
   304  2.574266788E-05
   305 -3.586707202E-06
   306 -1.342759540E-05
   307 -4.373743859E-04
   308  5.271568171E-05
   309 -1.884206253E-03
   310  1.825909015E-03
   311  1.296556393E-04
   312  1.789748789E-04
   313  3.525754885E-04
   314 -7.046173606E-04
   315  4.816313909E-05
   316 -1.822184698E-03
   317  1.905466976E-03
   318  5.800141257E-05
   319 -2.423717920E-04
   320  3.235241691E-04
   321 -5.432045625E-04
   322  6.789079400E-05
   323 -1.142263680E-03
   324  7.098314132E-04
   325  1.426435263E-04
   326  7.683809957E-05
   327 -1.217325088E-04
   328 -2.243731803E-03
   329  5.429114267E-06
   330 -3.408643580E-04
   331  1.823662003E-03
   332  3.729441283E-05
   333  8.795437950E-05
   334  9.707709407E-06
   335  8.395054845E-04
   336  7.426138981E-05
   337 -1.556752077E-04
   338 -1.655262671E-03
   339  8.779029640E-05
   340 -1.682438631E-05
   341  2.958000703E-05
   342 -2.592291786E-03
   343 -8.497196801E-05
   344  1.965901507E-03
   345  9.362239402E-04
   346  1.158451720E-04
   347  3.041998699E-04
   348 -1.582495306E-04
   349  3.228965508E-03
   350  7.163317834E-05
   351 -1.249151737E-03
   352  7.339060910E-04
   353  1.268184508E-04
   354 -1.141387756E-04
   355 -1.451425315E-04
   356 -2.392698869E-03
   357  5.038877643E-06
   358 -3.904377807E-04
   359  1.934113315E-03
   360  1.136704765E-05
   361 -1.088313470E-04
   362  3.613112532E-06
   363  9.164503929E-04
   364  8.438543017E-06
   365  1.538725987E-03
   366 -3.507873425E-03
   367  3.345210114E-04
   368 -6.674177820E-05
   369  2.313305646E-04
   370 -1.892028028E-03
   371 -8.054705693E-05
   372  2.779689746E-03
   373 -1.717767335E-03
   374 -1.474431313E-04
   375 -4.453024912E-06
   376  5.516622615E-04
   377  3.594447404E-03
   378 -1.196646468E-04
   379  1.531538823E-04
   380  1.610668436E-03
   381 -2.472018788E-05
   382  8.731361790E-05
   383  2.756232005E-05
   384  4.907159006E-04
   385 -1.088229501E-04
   386  1.638238004E-04
   387  1.587324625E-03
   388  1.595787005E-05
   389  3.001798522E-06
   390 -8.903294506E-05
   391  7.446068386E-04
   392 -1.198064938E-04
   393  1.464174059E-04
   394  1.637780599E-03
   395 -5.351453277E-05
   396 -7.705289763E-05
   397  1.950517129E-05
   398  4.888905688E-04
   399  5.796331154E-05
   400  1.253671218E-04
   401 -9.090024582E-04
   402 -8.898363267E-05
   403  7.411147485E-06
   404  4.824156037E-05
   405 -1.978381703E-04
   406  6.934860989E-05
   407  1.965992155E-04
   408 -9.574387761E-04
   409  8.842509405E-05
   410 -5.266279190E-05
   411 -1.850499032E-05
   412  4.190179865E-04
   413  5.045290496E-05
   414  2.895669634E-05
   415 -1.038469425E-03
   416 -2.224679960E-05
   417  7.834970544E-05
   418 -3.968948582E-05
   419 -6.050976499E-04
   420  6.291733617E-05
   421  1.223823701E-04
   422 -9.678062313E-04
   423 -9.001694079E-05
   424  1.862371520E-05
   425  5.266810157E-05
   426 -2.525760784E-04
   427  5.584521293E-05
   428  2.985565168E-05
   429 -1.112046048E-03
   430 -4.737212844E-05
   431 -6.389583084E-05
   432 -5.236084678E-05
   433 -6.370379590E-04
   434  7.462574175E-05
   435  1.908212866E-04
   436 -1.002054567E-03
   437  1.056141454E-04
   438  2.421762108E-05
   439 -1.315399686E-05
   440  3.889514156E-04
Ene=   -1.0175788729E+01
Spin= Alpha
Occup=   2.0000000
     1  2.862172070E-01
     2  2.355335370E-01
     3  4.740661369E-05
     4 -2.211316706E-05
     5 -2.210696937E-05
     6  1.003020073E-02
     7 -3.099099233E-04
     8  1.982065607E-04
     9  1.052439011E-04
    10 -1.696633461E-02
    11 -6.029544352E-04
    12  1.458584342E-04
    13  7.210875964E-04
    14  5.045733585E-05
    15 -1.157865702E-04
    16 -1.392083356E-04
    17 -1.407240490E-04
    18 -4.034199907E-05
    19  2.825750404E-02
    20  8.682488068E-03
    21 -8.224015287E-03
    22 -3.759657039E-03
    23  1.769184104E-03
    24  1.406134667E-03
    25  1.421738450E-04
    26 -9.888026339E-05
    27 -1.520798912E-04
    28  1.005912313E-03
    29 -2.508004584E-04
    30  4.176651904E-04
    31  1.247893619E-04
    32 -5.084709268E-03
    33 -1.672279358E-03
    34  3.371433930E-03
    35 -8.554459795E-04
    36 -1.082010173E-04
    37  3.370585045E-04
    38 -2.909885234E-05
    39  2.023111264E-05
    40  1.411075501E-04
    41 -1.331874204E-03
    42 -1.210612533E-03
    43  3.035164388E-03
    44 -2.056791277E-03
    45 -6.688553325E-04
    46 -4.298912795E-04
    47  3.400305620E-05
    48 -4.000368216E-06
    49 -1.528120225E-05
    50 -1.623702709E-03
    51 -4.441223439E-04
    52  4.670764654E-05
    53  3.996451600E-04
    54  8.688884401E-03
    55  3.400828202E-03
    56 -2.972765663E-04
    57 -4.750297929E-03
    58  1.015261997E-04
    59 -2.026235037E-04
    60  2.255421169E-05
    61  3.781533860E-05
    62 -3.241948086E-07
    63  3.008975366E-02
    64  6.542438940E-03
    65 -6.617054155E-04
    66 -7.034834207E-03
    67  2.384712532E-03
    68  1.920471398E-03
    69  8.587932645E-05
    70 -4.743921700E-07
    71 -2.612700747E-04
    72  7.593805553E-04
    73  2.033520863E-04
    74 -6.105836549E-05
    75  5.319814397E-04
    76 -1.177318434E-03
    77  3.148285157E-03
    78 -5.872205313E-04
    79  7.316786580E-04
    80 -2.759224420E-04
    81  3.006693940E-04
    82 -9.091947903E-06
    83 -2.899097091E-04
    84  8.127177330E-05
    85 -1.107220260E-03
    86  4.952405033E-03
    87 -8.769812259E-04
    88  9.719484658E-04
    89  3.946759994E-01
    90  3.247365445E-01
    91  2.910448998E-05
    92 -2.080604148E-06
    93 -3.806998370E-05
    94  1.445679122E-02
    95 -1.933999536E-04
    96  1.501115125E-05
    97  2.337503231E-04
    98 -2.637228058E-02
    99  2.819927758E-03
   100 -5.565419886E-04
   101  1.792771327E-03
   102 -2.686440930E-05
   103  3.259602457E-05
   104 -1.608891924E-05
   105  2.523003626E-04
   106 -8.770252338E-05
   107  1.706133216E-02
   108 -1.104247917E-02
   109  2.439270685E-03
   110 -1.448063004E-02
   111  3.913425396E-03
   112  3.208724139E-03
   113 -2.085624530E-04
   114 -2.077415861E-04
   115  9.125751521E-05
   116  5.150504038E-05
   117  6.625696472E-04
   118  4.976568897E-04
   119 -2.006495921E-04
   120  9.836855981E-03
   121 -1.832562166E-03
   122 -1.933492552E-03
   123  1.817468031E-03
   124  2.840209626E-04
   125 -2.681983682E-04
   126  5.597424714E-04
   127 -1.683088714E-05
   128  2.369706266E-04
   129 -3.324051474E-02
   130  4.881006289E-03
   131  3.970189002E-03
   132  2.736401191E-03
   133  1.743705548E-03
   134  1.385002353E-03
   135  1.678251161E-04
   136  6.352563914E-05
   137 -1.414590065E-04
   138  1.013529242E-03
   139 -3.707918360E-04
   140 -3.232786266E-04
   141  8.430947025E-05
   142 -5.215566901E-03
   143 -2.683525029E-03
   144 -2.583221579E-03
   145 -1.115359771E-03
   146 -1.056819024E-04
   147  3.112025155E-04
   148 -5.209877032E-05
   149 -8.295804732E-05
   150 -1.576227252E-04
   151 -3.707674077E-04
   152 -1.896788569E-03
   153 -2.092541109E-03
   154 -2.427150438E-03
   155  2.815479905E-01
   156  2.316931850E-01
   157  5.249223648E-05
   158  9.117396850E-06
   159 -2.043575893E-05
   160  9.841934791E-03
   161 -3.607136433E-04
   162 -1.084824586E-04
   163  8.757609764E-05
   164 -1.657322618E-02
   165 -5.859469960E-04
   166  7.974554311E-05
   167  7.830457291E-04
   168  7.842169413E-05
   169 -5.693123429E-05
   170  1.664807522E-04
   171 -6.685620193E-05
   172  1.201082570E-04
   173  2.851150047E-02
   174  1.091539689E-02
   175  4.598243662E-03
   176 -3.612213690E-03
   177  3.885134050E-03
   178  3.185180318E-03
   179 -1.306652225E-04
   180  2.524967785E-04
   181  1.167834541E-04
   182  6.006436674E-05
   183  4.704296970E-04
   184 -6.559827327E-04
   185 -2.621983029E-04
   186  9.701160530E-03
   187 -1.094136614E-03
   188  2.170068571E-03
   189  2.066797301E-03
   190  1.861504091E-04
   191 -4.537555724E-04
   192 -4.701758758E-04
   193 -1.931898511E-04
   194 -1.223816547E-04
   195 -3.428843793E-02
   196  3.414142924E-03
   197 -5.766047121E-03
   198  2.248838103E-03
   199  3.286746614E-03
   200  2.684217006E-03
   201  7.309887405E-05
   202 -2.448757125E-05
   203  2.703692273E-04
   204  3.209788235E-04
   205 -1.890441582E-04
   206  7.116071032E-05
   207 -7.487310980E-04
   208  5.658755393E-03
   209 -9.902674082E-04
   210  1.150713954E-04
   211  1.630318504E-03
   212 -2.356523595E-05
   213 -1.558868342E-04
   214 -4.972961154E-06
   215  5.293419705E-04
   216 -1.719929106E-04
   217 -2.671000555E-02
   218 -5.806187945E-03
   219  1.072833822E-03
   220 -2.328992499E-03
   221  2.051289411E-03
   222  1.672632036E-03
   223 -3.233357648E-04
   224  5.835412870E-05
   225 -9.557112165E-05
   226  1.950087686E-04
   227  8.461364997E-04
   228 -1.526703642E-04
   229  2.536269704E-04
   230  4.020734602E-03
   231 -1.976755616E-03
   232  3.704559738E-04
   233 -9.144161049E-04
   234  2.794132348E-04
   235 -2.941115401E-04
   236  5.012559007E-05
   237 -4.764215125E-04
   238  1.782354177E-04
   239  6.995653078E-03
   240 -2.205675475E-04
   241 -3.422525496E-06
   242  9.943895018E-04
   243  1.443318357E-03
   244  1.183873404E-03
   245  8.444983278E-05
   246  1.938083346E-04
   247  1.533671870E-04
   248  7.919860563E-06
   249 -2.458569243E-04
   250 -5.556789355E-04
   251 -4.382114462E-04
   252  4.474343401E-03
   253  9.667210812E-04
   254  1.697170299E-03
   255  1.129457496E-03
   256 -6.578035307E-06
   257 -1.821093680E-04
   258 -3.800841388E-04
   259  1.999629238E-04
   260 -1.760875648E-04
   261 -3.873686192E-03
   262 -1.455140911E-03
   263 -1.882617712E-03
   264 -7.253009050E-04
   265  1.469693642E-03
   266  1.205129190E-03
   267  1.531881643E-05
   268 -2.283212772E-04
   269  1.327816541E-04
   270  1.554244619E-05
   271 -4.692721780E-05
   272  6.527765159E-04
   273 -3.774890971E-04
   274  4.462199758E-03
   275  3.481298579E-04
   276 -2.024255531E-03
   277  9.306628430E-04
   278  6.518817393E-05
   279 -4.486128676E-05
   280  3.888585894E-04
   281  3.123435550E-04
   282  1.697601008E-05
   283 -2.796218747E-03
   284 -7.439402092E-04
   285  2.108347315E-03
   286 -3.835168039E-04
   287 -6.667822302E-05
   288 -1.110740024E-04
   289 -2.487750623E-03
   290 -1.138032444E-04
   291 -7.992075073E-06
   292 -8.972122081E-05
   293 -5.431566504E-04
   294 -9.306419980E-05
   295  2.409160555E-04
   296 -2.065136272E-03
   297  1.070447948E-04
   298  5.035503780E-05
   299  3.394899490E-05
   300  3.943192895E-04
   301 -9.787887123E-05
   302  4.816505814E-05
   303  1.328501542E-03
   304 -9.067642742E-05
   305  7.823912996E-06
   306  1.298716815E-04
   307  2.635356745E-03
   308 -7.144658138E-05
   309 -3.724079035E-04
   310 -1.907544984E-03
   311  8.692403915E-05
   312  1.681445995E-04
   313  9.078707976E-05
   314 -2.259660751E-04
   315 -7.022680597E-05
   316 -3.895437579E-04
   317 -1.925782519E-03
   318  2.725278025E-05
   319 -1.967564411E-04
   320  7.312165975E-05
   321 -2.651585534E-04
   322 -1.119353964E-04
   323 -1.025310428E-03
   324  6.676828175E-04
   325  2.255364617E-04
   326  3.686984225E-06
   327 -2.898916154E-04
   328  1.820436837E-03
   329 -3.968849139E-05
   330 -1.757593054E-03
   331 -2.719566616E-04
   332  2.164801188E-04
   333  3.686072487E-04
   334  2.035620362E-04
   335  5.120149578E-04
   336 -6.797234160E-05
   337 -8.239897948E-05
   338 -2.522235129E-03
   339 -9.866306448E-05
   340  5.400093570E-05
   341 -8.604650071E-05
   342 -5.006037649E-04
   343 -9.315941130E-05
   344  2.529490534E-04
   345 -2.106886423E-03
   346  8.574827496E-05
   347 -8.239535294E-05
   348  2.532237525E-05
   349  4.506939993E-04
   350 -1.125804319E-04
   351 -1.000947517E-03
   352  6.981983483E-04
   353  2.139315133E-04
   354 -4.345959521E-05
   355 -2.890703483E-04
   356  1.869605417E-03
   357 -3.945100395E-05
   358 -1.747367479E-03
   359 -2.764938700E-04
   360  8.256481324E-05
   361 -4.341868755E-04
   362  1.597434255E-04
   363  4.313972554E-04
   364 -3.881200729E-05
   365 -1.444833962E-03
   366 -1.126272760E-03
   367 -3.412194497E-04
   368  6.549434687E-05
   369 -1.759601478E-04
   370 -1.239319032E-05
   371 -1.366062689E-04
   372 -3.660492656E-04
   373  3.185358110E-04
   374  1.618789229E-04
   375 -1.695491637E-05
   376 -1.862155662E-04
   377  2.808611706E-03
   378 -3.151250708E-05
   379 -7.558199648E-04
   380  1.150091258E-03
   381  6.048195980E-05
   382  1.694284492E-04
   383  1.561837107E-04
   384 -5.257160033E-04
   385 -4.310333534E-05
   386 -8.380776910E-04
   387  8.752721222E-04
   388  1.078621934E-04
   389 -6.535575481E-06
   390 -2.130134379E-04
   391 -4.955422749E-04
   392 -3.149391683E-05
   393 -7.549345182E-04
   394  1.134811150E-03
   395  7.400146906E-07
   396 -1.951443831E-04
   397  1.367439828E-04
   398 -5.164830988E-04
   399 -1.478636754E-05
   400 -8.456107983E-04
   401  4.562228624E-04
   402  1.306871586E-04
   403  1.249930824E-05
   404 -1.621235986E-04
   405 -6.742449815E-04
   406  3.500625463E-07
   407 -7.482727255E-04
   408  7.127102170E-04
   409 -2.052364473E-04
   410  1.593626500E-05
   411 -4.690469857E-05
   412 -5.432857750E-04
   413 -2.593959645E-06
   414 -7.745365569E-04
   415  7.020394050E-04
   416 -1.557931376E-05
   417 -1.783510856E-04
   418  1.119477785E-04
   419 -7.110711038E-04
   420 -1.599383354E-05
   421 -8.453526143E-04
   422  4.701556570E-04
   423  1.233578716E-04
   424 -3.716303114E-05
   425 -1.658491121E-04
   426 -6.478825645E-04
   427 -3.903841264E-06
   428 -7.751305542E-04
   429  7.199817949E-04
   430  4.095556109E-05
   431  1.619202257E-04
   432  1.313247511E-04
   433 -6.989720991E-04
   434 -1.005826825E-06
   435 -7.471492122E-04
   436  7.109709512E-04
   437 -2.000028762E-04
   438  5.539918719E-05
   439 -4.512607323E-05
   440 -5.391595752E-04
Ene=   -1.0167412779E+01
Spin= Alpha
Occup=   2.0000000
     1 -3.333100483E-04
     2 -3.454334105E-04
     3  4.859873792E-05
     4  2.149047021E-05
     5 -8.522083525E-05
     6  9.146409129E-04
     7 -3.355986984E-04
     8 -2.827801129E-04
     9  6.773201687E-04
    10 -3.361076185E-03
    11 -1.415286187E-03
    12  6.320521104E-03
    13 -2.113007125E-03
    14  4.409641371E-05
    15 -1.513067558E-04
    16  2.424156633E-05
    17  8.223980396E-06
    18 -7.152957931E-05
    19 -2.698331249E-02
    20  6.245298148E-03
    21  2.399088630E-03
    22 -1.080207795E-02
    23 -6.598312174E-03
    24 -5.421180861E-03
    25 -2.238088227E-05
    26  2.582335015E-04
    27 -1.393987471E-04
    28  1.942813370E-04
    29  2.902330963E-04
    30 -3.298895972E-04
    31 -2.026851291E-04
    32 -1.287923989E-02
    33 -1.719288139E-03
    34  5.492505405E-03
    35 -1.181585434E-03
    36  1.827573944E-04
    37 -2.656014182E-04
    38 -6.123548759E-04
    39 -3.200483461E-04
    40  5.577930532E-05
    41  1.920219983E-02
    42  2.812414743E-03
    43 -7.938481984E-04
    44 -3.596900500E-03
    45 -5.629152485E-01
    46 -4.629704187E-01
    47 -4.150465160E-05
    48  4.100288395E-06
    49  5.758391240E-05
    50 -2.265678138E-02
    51  2.086743468E-04
    52 -2.070920353E-05
    53 -2.902713491E-04
    54  3.996527911E-02
    55  9.557715841E-03
    56 -8.471190507E-04
    57 -1.333902153E-02
    58 -6.110415521E-04
    59  1.020617161E-03
    60 -9.228909783E-05
    61 -3.623293267E-04
    62  6.606382317E-05
    63  1.323073334E-02
    64  1.291997714E-03
    65 -2.066556190E-04
    66 -1.458391423E-03
    67 -6.602603723E-03
    68 -5.424869829E-03
    69  2.747037390E-04
    70 -5.013136049E-05
    71  9.297455149E-05
    72  1.960363737E-04
    73 -6.275844542E-05
    74  3.535217243E-05
    75 -4.780243497E-04
    76 -1.290900298E-02
    77  4.500997186E-03
    78 -9.421655104E-04
    79  3.680095145E-03
    80 -2.401360701E-04
    81 -8.957505948E-05
    82 -1.603014973E-06
    83  6.836944591E-04
    84 -2.267665565E-04
    85  1.878174232E-02
    86  2.615927461E-03
    87 -1.140894098E-04
    88 -4.131544923E-03
    89 -3.364573448E-04
    90 -3.483303391E-04
    91  7.832029587E-05
    92 -9.528547439E-06
    93 -6.182532176E-05
    94  9.190783365E-04
    95 -6.961604478E-04
    96  9.324579410E-05
    97  3.941656616E-04
    98 -3.421001410E-03
    99  5.709634028E-03
   100 -1.125416550E-03
   101  3.479735203E-03
   102  1.379704587E-04
   103 -7.897745102E-05
   104 -3.615297890E-06
   105  7.005399364E-05
   106 -1.929176633E-05
   107 -2.748081426E-02
   108  7.827988007E-03
   109 -1.466302080E-03
   110 -8.575496206E-03
   111 -1.473521721E-04
   112 -8.408636328E-05
   113  8.105537857E-05
   114  7.684031442E-05
   115 -1.550324445E-06
   116 -9.841557562E-04
   117 -2.295684517E-04
   118 -2.271154156E-04
   119 -8.292523634E-06
   120  1.066361292E-02
   121 -3.954720045E-03
   122 -2.165866214E-03
   123  2.205310903E-03
   124 -9.302083299E-05
   125 -4.045800152E-05
   126  6.499642766E-05
   127  1.260952236E-06
   128  2.587556597E-04
   129  3.269710468E-03
   130 -1.465155770E-03
   131  9.878755221E-04
   132  4.341528917E-03
   133 -6.600574074E-03
   134 -5.422957469E-03
   135 -1.015267027E-04
   136 -2.215390060E-04
   137 -1.650811870E-04
   138  1.932703700E-04
   139  3.844462071E-04
   140  2.386592456E-04
   141 -1.717841261E-04
   142 -1.286047316E-02
   143 -3.357365238E-03
   144 -4.499648621E-03
   145 -1.714896855E-03
   146  3.003108257E-04
   147 -5.169097978E-05
   148  6.506053964E-04
   149 -2.187036380E-04
   150  1.443169309E-04
   151  2.027719894E-02
   152  3.195432348E-03
   153  3.808805640E-04
   154 -3.879438799E-03
   155 -3.355825153E-04
   156 -3.473901413E-04
   157  4.057545560E-05
   158 -2.692888149E-05
   159 -8.793904991E-05
   160  9.161309100E-04
   161 -2.388131375E-04
   162  3.032178496E-04
   163  7.092434148E-04
   164 -3.374729873E-03
   165 -3.321995333E-03
   166 -5.276183921E-03
   167 -2.741024276E-03
   168  4.299569717E-05
   169 -1.449699407E-04
   170  1.321465506E-05
   171  5.449992386E-05
   172  6.703494355E-05
   173 -2.689752413E-02
   174  6.025051744E-03
   175 -3.330472741E-03
   176 -1.080987325E-02
   177 -1.466748221E-04
   178 -8.364725768E-05
   179  5.214867864E-05
   180 -9.808327320E-05
   181 -1.084215083E-05
   182 -9.835698219E-04
   183 -1.442447789E-04
   184  2.878708705E-04
   185  1.887920763E-05
   186  1.067924579E-02
   187 -3.094095808E-03
   188  3.076296332E-03
   189  2.485007635E-03
   190 -1.008670091E-04
   191 -8.048724911E-05
   192 -1.844674705E-05
   193 -1.585520768E-04
   194 -1.985220675E-04
   195 -5.201522986E-04
   196 -1.545543468E-03
   197 -1.569388681E-03
   198  3.843138343E-03
   199 -1.494241543E-04
   200 -8.557903828E-05
   201 -5.629040404E-05
   202  1.436069858E-05
   203 -9.550314833E-05
   204 -9.872539854E-04
   205  1.752757759E-04
   206 -4.314964136E-05
   207  2.683399841E-04
   208  1.071612923E-02
   209  1.200237478E-04
   210 -2.894621505E-04
   211  5.031905645E-03
   212  1.636466122E-04
   213  1.725240859E-04
   214 -5.167978893E-05
   215  1.390877734E-04
   216 -5.710199566E-05
   217  2.691788539E-03
   218 -3.894748074E-03
   219  1.758921897E-04
   220  2.708109551E-03
   221  4.246320436E-05
   222  2.398173836E-05
   223  2.093556274E-05
   224 -4.065640086E-06
   225  4.904048595E-06
   226  2.371227690E-04
   227 -1.372012519E-04
   228  2.594282215E-05
   229 -3.190785965E-05
   230 -4.103112195E-03
   231  1.666465626E-03
   232 -2.965794155E-04
   233  2.013608888E-04
   234  2.231945376E-05
   235  3.260699994E-05
   236 -1.088042077E-05
   237  5.887956065E-05
   238 -2.172849791E-05
   239  4.039107526E-04
   240 -1.552911793E-03
   241  2.389438089E-04
   242  5.395631370E-04
   243  4.208820348E-05
   244  2.372174770E-05
   245 -5.568219232E-06
   246 -1.619990880E-05
   247 -1.360932845E-05
   248  2.383678625E-04
   249  3.709628991E-05
   250  1.055885122E-04
   251  8.904104242E-05
   252 -4.139650084E-03
   253 -3.295395096E-04
   254 -1.215591340E-03
   255 -1.181070684E-03
   256 -6.439399878E-06
   257 -9.787231329E-06
   258  4.202644822E-05
   259 -9.726884096E-06
   260  5.951745223E-05
   261 -1.105335782E-03
   262 -3.114684297E-04
   263  6.096434558E-04
   264  1.276832624E-03
   265  4.147380130E-05
   266  2.322421404E-05
   267 -3.494596578E-07
   268  1.848909356E-05
   269 -1.180222452E-05
   270  2.389201510E-04
   271  2.016171160E-06
   272 -1.208091375E-04
   273  7.742836779E-05
   274 -4.148494674E-03
   275  8.216347293E-05
   276  1.377909446E-03
   277 -1.046902967E-03
   278 -1.357978032E-05
   279 -2.718584530E-05
   280 -3.069389503E-05
   281 -4.709730080E-05
   282 -3.806343121E-05
   283 -8.636513141E-04
   284 -4.842307364E-04
   285 -7.247622578E-04
   286  1.245970767E-03
   287  1.527218345E-05
   288  1.507787083E-03
   289 -1.117636603E-03
   290  4.021164848E-04
   291 -1.706789739E-04
   292  4.202109200E-05
   293 -2.134860472E-04
   294  1.453567641E-05
   295  1.517678012E-03
   296 -1.120522385E-03
   297 -1.902007437E-05
   298 -3.629205577E-04
   299 -2.470597982E-04
   300 -1.849615760E-04
   301 -1.674624136E-04
   302  3.993674028E-03
   303 -1.114448331E-03
   304  1.258452251E-03
   305 -1.136439247E-04
   306 -1.759579915E-03
   307 -2.364844396E-04
   308  1.494018447E-05
   309  1.513293790E-03
   310 -1.154709418E-03
   311 -1.417059491E-04
   312 -2.357035432E-04
   313 -3.423063279E-04
   314 -1.966596460E-04
   315  1.495909089E-05
   316  1.511276933E-03
   317 -1.157230943E-03
   318 -5.295724273E-05
   319  3.025310544E-04
   320 -3.135512053E-04
   321 -1.594522178E-04
   322  3.277045750E-05
   323 -2.742152270E-04
   324  2.897359434E-03
   325  4.964859031E-05
   326  4.254175516E-05
   327 -7.177846524E-06
   328  7.946743024E-04
   329  1.135050496E-04
   330 -1.411194985E-03
   331  1.167323202E-03
   332  1.505680237E-04
   333  1.599638683E-04
   334  1.957656649E-05
   335 -2.532218216E-03
   336  1.472944363E-05
   337  1.512079218E-03
   338 -1.168243771E-03
   339  4.347480188E-04
   340  2.752108079E-05
   341  5.277074610E-05
   342 -1.739116131E-04
   343  1.417352930E-05
   344  1.517846755E-03
   345 -1.167137055E-03
   346  1.021695291E-04
   347  3.731932788E-04
   348 -2.075426223E-04
   349 -6.243705946E-05
   350  3.398465073E-05
   351 -2.831424165E-04
   352  2.989753933E-03
   353  3.352315685E-05
   354 -5.517697650E-05
   355 -1.260659470E-05
   356  7.436149511E-04
   357  1.142709193E-04
   358 -1.417314745E-03
   359  1.244237532E-03
   360  9.106147669E-05
   361 -2.006546367E-04
   362  4.158604696E-07
   363 -2.582004638E-03
   364  1.137780604E-04
   365 -1.415464587E-03
   366  1.201650383E-03
   367 -1.321097010E-04
   368  3.113958834E-05
   369 -1.739974561E-04
   370 -2.621461434E-03
   371  3.263364758E-05
   372 -2.722792197E-04
   373  2.948688798E-03
   374 -2.671063680E-05
   375  7.405975766E-06
   376 -5.921101409E-05
   377  8.680342723E-04
   378 -2.261808610E-05
   379  4.418640224E-04
   380  1.601486953E-04
   381 -2.028033357E-05
   382 -6.322199301E-05
   383 -2.280596704E-05
   384  5.666014494E-04
   385 -6.419752617E-05
   386  4.970029762E-04
   387 -1.245333925E-04
   388 -9.532429840E-05
   389  1.364811285E-05
   390  4.214802946E-05
   391  7.174270438E-04
   392 -2.293195472E-05
   393  4.426649935E-04
   394  1.242361543E-04
   395  1.467057192E-06
   396  6.837998015E-05
   397 -1.568410367E-05
   398  5.225101033E-04
   399 -6.466740753E-05
   400  5.008823970E-04
   401 -1.709788006E-04
   402 -2.356411256E-05
   403  4.636195797E-05
   404  9.153725242E-05
   405  6.931770694E-04
   406 -2.282678061E-05
   407  4.437735297E-04
   408  1.299116834E-04
   409  5.685719643E-05
   410 -2.797280481E-05
   411  3.026329097E-05
   412  6.227313735E-04
   413 -2.333717781E-05
   414  4.469167909E-04
   415  9.301423190E-05
   416 -2.459947260E-05
   417  5.665133583E-05
   418 -3.376071765E-05
   419  5.211936262E-04
   420 -6.513588061E-05
   421  5.051991973E-04
   422 -1.945922689E-04
   423 -3.880462820E-05
   424 -4.545227746E-05
   425  8.697714888E-05
   426  7.130493650E-04
   427 -2.341855172E-05
   428  4.479439607E-04
   429  8.596186931E-05
   430 -4.075647621E-05
   431 -4.199849232E-05
   432 -3.903248553E-05
   433  5.851313805E-04
   434 -2.338799028E-05
   435  4.469755586E-04
   436  7.903178906E-05
   437  6.232367032E-05
   438  5.036321088E-06
   439  3.205595185E-05
   440  6.174309905E-04
Ene=   -1.0158398195E+01
Spin= Alpha
Occup=   2.0000000
     1  5.027116464E-04
     2  3.899178483E-04
     3  5.521963915E-05
     4  6.353016190E-06
     5 -1.993291709E-05
     6  4.332678774E-04
     7 -8.307884304E-05
     8 -6.205017460E-05
     9  1.765006633E-06
    10 -3.839983072E-03
    11 -1.665737593E-03
    12 -6.284649043E-05
    13 -3.688301135E-03
    14 -9.156494431E-05
    15 -1.281024903E-04
    16  5.190808535E-05
    17  1.866393505E-05
    18  4.267668090E-05
    19 -3.367999824E-02
    20 -2.323146361E-03
    21  2.333738008E-02
    22 -1.379348617E-02
    23 -9.411951520E-02
    24 -7.740868251E-02
    25 -3.109256594E-05
    26 -2.686520230E-05
    27  5.916845655E-06
    28 -3.816056693E-03
    29  1.113949884E-04
    30  1.292045827E-04
    31 -1.189181358E-04
    32  5.687895131E-03
    33  2.891015750E-03
    34 -3.923191965E-04
    35 -2.440360737E-04
    36  5.569591170E-05
    37 -9.581231427E-05
    38 -7.611714387E-05
    39  5.756005577E-05
    40 -3.942144413E-05
    41  8.507905943E-03
    42  4.519368180E-03
    43  1.135939463E-03
    44 -2.128711946E-03
    45 -2.242558686E-03
    46 -1.847343309E-03
    47  3.433581910E-04
    48 -1.878232488E-06
    49  1.786617285E-04
    50 -1.154101381E-04
    51 -3.245296317E-04
    52  9.682925237E-06
    53 -6.548079524E-06
    54  2.250216554E-03
    55  3.423474784E-03
    56 -5.511908975E-05
    57  1.179482514E-03
    58  1.227220897E-04
    59 -2.130367599E-04
    60  1.292960083E-04
    61 -4.257411913E-04
    62  1.997064632E-04
    63  4.211223367E-02
    64  4.015754335E-03
    65 -3.924703664E-04
    66 -7.323154664E-03
    67  5.080026978E-01
    68  4.178747907E-01
    69 -1.281560956E-05
    70  3.202384473E-07
    71 -6.760197877E-05
    72  1.965292282E-02
    73  8.628128037E-05
    74 -4.431208475E-05
    75  7.958092851E-04
    76 -2.797211186E-02
    77  1.383747752E-03
    78 -3.730020545E-04
    79  9.403430745E-03
    80 -1.297851778E-04
    81  3.834840741E-04
    82 -1.893616378E-05
    83 -7.933770418E-04
    84  2.410688274E-04
    85 -1.039280720E-01
    86 -5.982099157E-05
    87 -6.016537967E-04
    88  2.007151262E-02
    89 -2.875050965E-03
    90 -2.337632714E-03
    91 -1.856626950E-04
    92  2.346888261E-05
    93  2.478797513E-04
    94 -6.792885374E-04
    95  3.020291979E-04
    96 -5.683185349E-05
    97 -1.462884070E-04
    98  8.464981340E-03
    99 -5.232696225E-03
   100  1.248543116E-04
   101  2.819995273E-03
   102 -2.869546221E-04
   103  2.768398992E-04
   104 -2.279170061E-05
   105 -2.505193293E-05
   106  2.009933678E-05
   107  1.181582414E-01
   108 -7.916587531E-02
   109  1.412139749E-02
   110 -1.488837019E-02
   111 -6.011702017E-03
   112 -4.916584142E-03
   113  8.315108857E-06
   114 -7.615398376E-05
   115  1.886149876E-05
   116 -6.142236807E-04
   117  6.045646935E-05
   118  5.133088886E-04
   119 -1.995777918E-04
   120  7.297075624E-04
   121 -1.550549721E-03
   122  1.386664738E-03
   123  5.681483593E-05
   124  4.757726523E-05
   125 -3.015838548E-05
   126  1.082430704E-04
   127  1.190469547E-04
   128 -8.186367292E-06
   129 -2.493298250E-02
   130  2.456939992E-03
   131  5.522570923E-03
   132 -3.978030348E-03
   133 -2.233875827E-01
   134 -1.837398640E-01
   135 -2.988800411E-05
   136  2.702241757E-05
   137  2.150716578E-05
   138 -8.853539958E-03
   139  2.006467941E-04
   140 -7.740578145E-05
   141 -2.396102425E-04
   142  1.289833999E-02
   143  4.623448618E-03
   144  8.665006488E-04
   145 -1.388506654E-03
   146  1.818720667E-04
   147 -1.912635412E-04
   148  2.231874685E-04
   149  6.356512714E-05
   150  5.415523344E-05
   151  3.220062844E-02
   152  7.385748878E-03
   153 -4.209726570E-04
   154 -5.163532930E-03
   155  1.226698057E-03
   156  9.745372669E-04
   157  9.106589814E-05
   158 -2.252787672E-05
   159 -8.703102289E-05
   160  6.718667308E-04
   161 -6.907145307E-05
   162  1.129430409E-04
   163  9.080474757E-05
   164 -6.482632925E-03
   165 -6.688650664E-04
   166 -1.129155015E-04
   167 -4.911579852E-03
   168 -4.987343714E-05
   169 -2.144428002E-04
   170 -1.822095811E-05
   171  4.220673107E-05
   172 -1.142912726E-05
   173 -6.662990278E-02
   174 -1.580077855E-02
   175 -3.665347345E-02
   176 -3.092000945E-02
   177 -3.716592791E-03
   178 -3.040498243E-03
   179  4.984420657E-05
   180  5.271506630E-05
   181  3.525017058E-05
   182 -3.742713203E-04
   183 -2.444136574E-04
   184 -3.727228084E-04
   185 -2.756967197E-04
   186  3.702084847E-04
   187 -2.051357339E-03
   188 -9.664035896E-04
   189 -4.858546059E-04
   190  4.544717834E-06
   191 -4.242680453E-05
   192 -1.151798322E-04
   193  1.063067062E-04
   194 -7.311226988E-05
   195 -1.114104483E-02
   196 -1.755984433E-03
   197 -3.608357351E-03
   198 -3.550557602E-03
   199  7.120515504E-03
   200  5.818487918E-03
   201 -4.054267048E-05
   202  2.305504048E-05
   203 -5.093543437E-05
   204  7.489860636E-04
   205  2.181900836E-04
   206 -1.430862357E-04
   207  4.353958462E-04
   208 -1.227800326E-03
   209  3.768143630E-05
   210 -3.671665716E-04
   211 -5.816843813E-04
   212 -9.999279584E-06
   213  5.996211268E-05
   214 -3.418612692E-05
   215 -2.969287616E-05
   216 -5.126667169E-06
   217  3.959420563E-02
   218  1.220323288E-03
   219 -1.295521027E-03
   220  9.145249756E-03
   221 -3.373448283E-04
   222 -2.745869682E-04
   223 -6.332970460E-05
   224  6.286826074E-06
   225 -1.070543683E-05
   226  4.267462103E-05
   227  3.650714727E-04
   228 -4.637883452E-05
   229  8.173117466E-05
   230 -4.838986413E-04
   231  2.924211022E-04
   232 -2.646287568E-05
   233  3.597202303E-04
   234  1.375525483E-04
   235 -8.953108493E-05
   236  8.181948556E-06
   237 -1.281399852E-04
   238  3.691412655E-05
   239  6.960689011E-02
   240 -1.386692748E-02
   241  2.346712932E-03
   242 -2.423772195E-03
   243  1.938299097E-04
   244  1.554120517E-04
   245 -1.797243820E-05
   246 -9.676516796E-06
   247 -3.792258421E-05
   248  1.393350973E-05
   249  9.480051142E-05
   250  9.086237079E-05
   251  1.861254899E-04
   252 -1.189299106E-04
   253  8.777648947E-05
   254 -4.704726581E-05
   255  1.271925256E-04
   256  4.515072790E-05
   257  7.551221523E-05
   258  8.048631565E-05
   259 -2.422974815E-05
   260  2.547478062E-05
   261 -4.435951119E-02
   262 -2.124238915E-03
   263 -6.581029349E-03
   264 -6.594208985E-03
   265  1.019915419E-04
   266  8.109256207E-05
   267 -1.781370923E-05
   268  3.050851113E-06
   269 -2.809634855E-05
   270  1.896281536E-05
   271  7.229711335E-05
   272 -4.332106179E-05
   273  1.251100981E-04
   274 -1.815403325E-04
   275  1.012953184E-04
   276  9.693755287E-05
   277  1.373507080E-04
   278  3.837665746E-05
   279  3.440764868E-05
   280 -5.972022186E-05
   281 -1.289098814E-05
   282 -2.459721918E-05
   283 -2.460908525E-02
   284  9.306819568E-06
   285  4.233118303E-03
   286 -3.469938778E-03
   287 -1.026374375E-04
   288  8.583211223E-04
   289  6.045396113E-04
   290  3.055669008E-04
   291 -1.513799791E-04
   292  1.199201149E-04
   293  3.860126891E-04
   294  1.193964336E-04
   295 -7.463166515E-04
   296 -1.835670570E-03
   297 -2.721532093E-04
   298  2.408400468E-05
   299 -1.721249364E-04
   300 -1.324361933E-04
   301 -2.799535199E-05
   302 -1.766103761E-04
   303 -7.006447288E-04
   304 -1.002043226E-04
   305  6.189627347E-06
   306  7.051786179E-05
   307  1.165710131E-03
   308  6.338050656E-05
   309 -1.697098318E-03
   310  2.237837472E-03
   311  5.049968420E-04
   312  1.454258346E-03
   313  7.583229005E-04
   314  1.376981248E-03
   315  2.437569526E-05
   316 -1.414148014E-03
   317  2.681087621E-03
   318 -4.442316904E-05
   319 -1.607457890E-03
   320  5.398203942E-04
   321  1.480134478E-03
   322 -2.240903260E-05
   323 -4.663087693E-05
   324 -6.585605627E-04
   325  7.135192914E-05
   326 -5.298136889E-05
   327  4.304155383E-06
   328 -1.492846645E-03
   329  1.135052230E-04
   330 -9.706710762E-04
   331 -1.638989868E-03
   332  1.301885875E-04
   333  2.029174564E-04
   334 -6.570422682E-05
   335  1.061471727E-03
   336 -9.029385330E-05
   337  1.059996232E-03
   338 -2.538058442E-04
   339  6.794486158E-04
   340 -1.450622848E-04
   341  2.868736715E-04
   342 -1.398245074E-05
   343  9.227982722E-05
   344 -2.576155341E-04
   345 -2.247256552E-03
   346 -3.494198404E-04
   347  4.538718222E-04
   348 -3.790563168E-04
   349 -4.200950770E-04
   350 -1.894626584E-05
   351  3.317495396E-06
   352 -4.087651941E-04
   353  8.769723277E-05
   354  3.352615571E-05
   355  3.151225685E-05
   356 -6.078332184E-04
   357  7.684935736E-05
   358 -6.661276923E-04
   359 -1.182291848E-03
   360  8.417040218E-06
   361 -1.702021156E-04
   362 -8.399145148E-05
   363  5.836697606E-04
   364 -9.040357706E-05
   365  7.245063538E-04
   366  1.270876382E-03
   367  7.251774480E-05
   368 -3.828379567E-05
   369  1.628989708E-04
   370 -1.547465366E-03
   371 -2.444749752E-07
   372  2.147544490E-04
   373  1.027697238E-03
   374 -2.830831116E-05
   375  1.956676106E-05
   376  4.645063110E-05
   377  3.129144736E-03
   378  6.903176045E-05
   379 -4.451124447E-04
   380 -8.546378709E-04
   381  1.368591064E-04
   382  5.267693474E-05
   383  3.485103044E-05
   384 -5.102410207E-04
   385 -7.434843569E-05
   386  1.252930956E-04
   387 -2.913587556E-04
   388 -5.554426456E-05
   389  8.123606816E-06
   390 -4.421788175E-05
   391  2.615058376E-03
   392  7.206511606E-05
   393 -4.411938355E-04
   394 -8.859800773E-04
   395  1.225761285E-04
   396 -9.911867730E-05
   397  2.797486400E-05
   398 -3.955124638E-04
   399  3.089139606E-05
   400  5.210643915E-06
   401  2.669921070E-04
   402 -3.504597104E-05
   403 -1.918964647E-05
   404 -1.132212842E-05
   405 -1.953195132E-03
   406 -2.755906501E-05
   407  2.407280258E-04
   408  2.460713513E-04
   409  4.265233563E-05
   410  6.889892430E-06
   411  3.271183826E-05
   412  1.726654187E-04
   413 -4.025516486E-05
   414  2.182050733E-04
   415  5.465088223E-04
   416  6.032220317E-06
   417  9.040287920E-05
   418  3.083223432E-05
   419 -1.906747808E-04
   420  1.266541892E-05
   421  2.304514425E-05
   422  1.830736402E-04
   423 -2.292079140E-05
   424  1.105247635E-05
   425 -7.869409142E-06
   426 -1.151308751E-03
   427 -2.320803863E-05
   428  9.683795560E-05
   429  3.502591928E-04
   430 -1.056262991E-05
   431 -5.722282178E-05
   432  1.758193686E-05
   433 -3.482913725E-04
   434 -7.408713765E-06
   435  1.229798327E-04
   436  2.055124544E-05
   437  2.047848278E-05
   438  3.813791029E-06
   439 -3.514507381E-07
   440  1.276474048E-04
Ene=   -1.0158391212E+01
Spin= Alpha
Occup=   2.0000000
     1 -1.873423332E-03
     2 -1.494418723E-03
     3 -1.012994735E-04
     4  1.698514944E-05
     5  1.632747911E-04
     6 -9.247347787E-04
     7  4.886215268E-05
     8  9.135894461E-05
     9 -1.982442986E-04
    10  9.134740771E-03
    11 -3.277564767E-03
    12 -2.965968935E-03
    13  4.193785446E-03
    14 -1.161204119E-04
    15  1.839383091E-04
    16 -1.173817029E-04
    17 -8.537064952E-05
    18  1.244396772E-04
    19  9.749539514E-02
    20  1.694396814E-03
    21 -6.290066217E-02
    22  3.831287576E-02
    23  3.390922918E-01
    24  2.789125243E-01
    25  1.748423386E-05
    26  1.598625469E-06
    27 -5.047879679E-05
    28  1.338844889E-02
    29 -2.531870210E-04
    30  5.401227391E-05
    31  3.876453374E-04
    32 -1.946007836E-02
    33 -3.660474473E-03
    34  4.459942452E-03
    35  3.902345422E-03
    36 -2.346117738E-04
    37  4.260267214E-04
    38  2.283498610E-04
    39  9.262505420E-05
    40  2.123371969E-05
    41 -5.284496686E-02
    42 -7.487057077E-03
    43  4.616781269E-03
    44  1.003644443E-02
    45  2.573086906E-03
    46  2.119601277E-03
    47 -1.133836079E-05
    48  3.829223223E-04
    49  4.405058180E-05
    50  1.332930047E-04
    51  1.045212262E-04
    52 -2.752513148E-04
    53 -1.664586872E-04
    54 -2.585229602E-03
    55 -4.620241844E-04
    56  3.503511878E-03
    57  9.084894476E-04
    58 -2.639973929E-05
    59  2.078247262E-04
    60  4.441677231E-04
    61  1.217448325E-04
    62  2.058321061E-04
    63 -4.855054677E-02
    64 -5.553504976E-03
    65 -4.720370248E-04
    66  7.811028279E-03
    67 -1.267054951E-01
    68 -1.042353464E-01
    69  2.004994083E-05
    70 -3.683454941E-05
    71  1.956154445E-05
    72 -4.769913724E-03
    73 -1.620684150E-04
    74  1.141857381E-04
    75 -2.644361310E-04
    76  6.599822870E-03
    77 -3.859210779E-04
    78  2.251506730E-03
    79 -1.917109297E-03
    80  1.720187201E-05
    81 -9.299212053E-05
    82 -7.161635100E-05
    83  2.299214778E-04
    84 -1.132752979E-04
    85  3.348207901E-02
    86 -1.627110293E-03
    87  3.508707713E-03
    88 -5.095952265E-03
    89  7.386272268E-04
    90  6.148504565E-04
    91  5.963189119E-05
    92  3.019828119E-05
    93 -6.374203532E-05
    94 -6.392551309E-05
    95 -9.067291360E-05
    96 -7.787367034E-05
    97  4.008033629E-05
    98 -3.838278537E-04
    99 -2.171912378E-04
   100 -3.406588261E-03
   101 -6.053658106E-04
   102  4.728543559E-05
   103 -7.899414673E-05
   104 -2.403436524E-05
   105  6.140503804E-05
   106  1.443588350E-04
   107 -2.081022663E-02
   108  1.115831561E-02
   109 -2.909736318E-03
   110 -7.933740132E-06
   111 -5.281660889E-03
   112 -4.314349862E-03
   113 -6.553784060E-05
   114 -8.824703794E-06
   115 -2.876778081E-05
   116 -5.674253332E-04
   117  4.678578929E-04
   118  7.257464528E-05
   119  1.195529183E-04
   120  9.623582811E-04
   121  5.499752063E-04
   122 -1.081854315E-03
   123  7.843030641E-04
   124  4.160106763E-05
   125 -5.790582997E-05
   126 -3.447812281E-05
   127 -7.980986451E-05
   128 -1.043693248E-05
   129 -3.234527126E-02
   130  7.789562793E-03
   131  1.936495925E-03
   132 -1.274404732E-03
   133 -4.310320874E-01
   134 -3.545628891E-01
   135 -3.634263553E-05
   136 -4.842102089E-05
   137  2.277624264E-05
   138 -1.663471580E-02
   139  5.369800919E-04
   140  3.986024331E-04
   141 -2.483705206E-04
   142  2.364249983E-02
   143  5.570643608E-03
   144  4.870831059E-03
   145 -3.262452953E-03
   146  3.798714040E-04
   147 -4.121335099E-04
   148  5.204164597E-04
   149 -8.140317623E-05
   150  2.114626453E-04
   151  9.138169228E-02
   152  1.261033709E-02
   153  8.687989864E-03
   154 -8.208347391E-03
   155  2.444932029E-03
   156  1.992693212E-03
   157  1.369540219E-04
   158 -6.351644002E-06
   159 -2.290507390E-04
   160  4.994469790E-04
   161 -4.004573521E-05
   162  8.708986924E-05
   163  2.797644816E-04
   164 -6.613406837E-03
   165  2.680602045E-03
   166 -3.065965893E-03
   167 -3.149881100E-03
   168  1.736341451E-04
   169 -2.401100067E-04
   170 -7.841217552E-05
   171  1.623907728E-04
   172  4.667332281E-05
   173 -9.844359453E-02
   174 -1.555303290E-02
   175 -4.845684901E-02
   176 -4.352395669E-02
   177  8.473410418E-03
   178  6.929942421E-03
   179  4.770303452E-05
   180 -5.298014474E-05
   181  2.497436410E-05
   182  8.595187876E-04
   183 -4.197576250E-04
   184  4.183969351E-04
   185 -3.160963638E-05
   186 -1.025762851E-03
   187 -3.303155845E-06
   188 -1.164377217E-04
   189 -1.643212898E-03
   190 -8.570106411E-05
   191  1.184610934E-04
   192  2.093213840E-05
   193  4.586167134E-05
   194 -3.495703411E-05
   195  3.603770296E-02
   196 -6.692155469E-03
   197  5.407066350E-03
   198  2.421947487E-03
   199  7.708005191E-05
   200  6.587852182E-05
   201  1.379358917E-05
   202  7.780445207E-05
   203  1.050857802E-05
   204 -7.152912514E-06
   205 -8.274751364E-05
   206 -4.811132000E-04
   207 -3.867525445E-05
   208  1.930281752E-04
   209  6.579757371E-05
   210 -2.340811096E-03
   211 -2.537223322E-04
   212 -2.102451646E-05
   213 -1.770954021E-05
   214 -1.519583248E-04
   215 -6.254413927E-05
   216 -4.858911469E-05
   217 -6.340088347E-03
   218 -9.339644538E-04
   219 -4.668674127E-03
   220 -1.601492319E-03
   221  5.365029898E-05
   222  4.516655349E-05
   223  5.458419755E-06
   224 -3.060868368E-05
   225  3.817372545E-06
   226 -3.151751123E-05
   227 -4.259146093E-05
   228  1.226421050E-04
   229 -2.153527351E-05
   230  3.288626736E-04
   231 -7.644265501E-05
   232  2.133568693E-04
   233 -1.784304732E-04
   234 -2.435819927E-05
   235  2.214274826E-05
   236 -8.488469358E-06
   237 -6.202031013E-07
   238 -6.871296107E-05
   239 -8.414813881E-03
   240  1.284445625E-03
   241 -5.957275194E-04
   242  3.951732615E-04
   243  2.691213121E-04
   244  2.196099246E-04
   245 -2.227501218E-06
   246 -4.916102538E-05
   247 -2.586604857E-05
   248 -4.422415801E-05
   249  4.484915382E-05
   250  2.700283102E-04
   251  1.597305730E-04
   252  4.796332361E-04
   253  2.200536441E-04
   254  3.850063902E-04
   255 -1.787926535E-05
   256 -1.786467432E-05
   257  7.018115945E-05
   258  1.279765117E-04
   259 -1.018505335E-04
   260  1.741711369E-05
   261 -5.653530212E-02
   262 -2.597435801E-03
   263 -8.401589667E-03
   264 -7.385174524E-03
   265 -2.831989953E-04
   266 -2.275525837E-04
   267 -1.473835938E-05
   268 -4.384736322E-05
   269  2.868467852E-05
   270 -1.316131695E-05
   271  4.871998183E-05
   272  2.614071068E-04
   273 -1.596219087E-04
   274  1.035967338E-04
   275  5.253780344E-05
   276  1.301499227E-04
   277 -2.962492175E-05
   278  1.752500689E-05
   279 -2.148043880E-05
   280  1.310383730E-04
   281  9.084662023E-05
   282 -4.845637375E-05
   283  6.488601184E-02
   284 -6.372776777E-04
   285 -1.125151119E-02
   286  8.155313528E-03
   287 -4.211216285E-05
   288 -3.499153933E-04
   289  2.363591389E-03
   290 -9.507367299E-04
   291 -1.367354952E-04
   292 -4.503892522E-04
   293  5.113447219E-04
   294  5.006466943E-05
   295 -1.015096861E-03
   296  1.349615032E-03
   297  5.419532650E-04
   298  7.265778488E-04
   299  6.173673080E-04
   300  3.100210386E-04
   301  3.227100846E-05
   302  2.011362213E-04
   303  8.109952891E-04
   304  7.443423114E-05
   305 -4.734497360E-05
   306 -1.070066728E-04
   307 -1.350286626E-03
   308  9.338050150E-05
   309 -2.794521165E-04
   310 -1.766507451E-03
   311 -1.143905020E-05
   312 -4.291929192E-04
   313 -6.554041490E-05
   314 -9.188678457E-04
   315 -1.398547728E-04
   316  1.402928891E-03
   317  8.039961385E-04
   318 -1.372845148E-04
   319  4.254587160E-04
   320 -3.505057953E-04
   321 -3.949559660E-04
   322  5.323727931E-06
   323 -1.950948469E-04
   324 -8.234665853E-04
   325 -1.101297950E-05
   326  3.750958834E-05
   327 -6.452825262E-05
   328 -2.664264796E-03
   329  6.159810868E-05
   330 -4.805599598E-04
   331 -8.550884026E-04
   332  1.295586760E-04
   333  4.016254915E-05
   334  1.856201912E-05
   335  1.244262114E-03
   336  2.908082957E-05
   337  8.686872489E-04
   338 -2.826518028E-03
   339  1.198663351E-03
   340 -5.757638741E-04
   341  5.184812520E-04
   342 -1.437805353E-03
   343 -1.122096703E-04
   344  1.888540157E-03
   345 -1.274568720E-03
   346 -2.471833165E-04
   347  1.291111363E-03
   348 -7.211971367E-04
   349 -1.152264682E-03
   350  2.802495755E-05
   351  8.368348405E-05
   352  9.519149538E-04
   353 -2.200048862E-06
   354  1.606150411E-05
   355  6.786561402E-05
   356  2.177909392E-03
   357 -1.532623859E-04
   358  1.302856081E-03
   359  2.230832287E-03
   360 -1.954784793E-04
   361  2.518206209E-04
   362  4.055394841E-05
   363 -1.494560294E-03
   364 -2.311562374E-05
   365  2.221994743E-04
   366  3.934881042E-04
   367  2.535098989E-06
   368 -1.073458511E-04
   369  4.313861552E-05
   370  1.299885417E-04
   371  1.451472731E-05
   372 -8.648978800E-05
   373 -9.030753935E-05
   374  1.760839761E-05
   375  9.965121633E-05
   376  1.574892684E-06
   377 -7.672988906E-04
   378 -2.420017306E-05
   379  7.572006177E-05
   380  3.845928612E-04
   381 -6.646340074E-05
   382 -6.116561868E-06
   383 -6.226077192E-06
   384  2.540531232E-06
   385  1.971310280E-05
   386 -6.895795390E-05
   387 -5.580787191E-06
   388  1.076248643E-05
   389 -2.085000467E-05
   390  3.246401353E-06
   391 -1.340883147E-04
   392 -7.631404055E-06
   393  1.031463334E-04
   394  2.021937263E-05
   395  1.578874501E-06
   396  1.479577777E-05
   397  3.229299769E-06
   398  5.153624246E-04
   399  6.344275740E-05
   400 -1.188646319E-04
   401  2.332098473E-04
   402 -2.549725616E-05
   403 -5.259252549E-05
   404 -1.355439494E-05
   405 -2.039866689E-03
   406 -6.464927834E-05
   407  3.626793339E-04
   408  8.395867254E-04
   409  7.369802435E-05
   410  5.668760725E-05
   411  1.160956145E-04
   412  2.626862704E-04
   413 -5.437931535E-05
   414  3.783292705E-04
   415  6.331760300E-04
   416 -1.151067114E-05
   417  1.099560523E-04
   418  2.863592026E-05
   419  5.921239468E-04
   420 -4.729273808E-05
   421  6.821928148E-06
   422 -3.740415916E-04
   423  1.651186232E-05
   424 -5.482618542E-05
   425 -1.289164169E-06
   426  2.774854276E-03
   427  4.726273192E-05
   428 -3.439248835E-04
   429 -5.323662733E-04
   430  3.278017439E-05
   431  9.415771433E-05
   432 -4.374630360E-06
   433 -1.204193869E-04
   434  5.388836413E-05
   435 -3.337021506E-04
   436 -6.828453616E-04
   437 -5.322663753E-05
   438  7.449307271E-05
   439 -7.953665006E-05
   440  8.194309132E-05
Ene=   -1.0158376791E+01
Spin= Alpha
Occup=   2.0000000
     1 -2.575376149E-03
     2 -2.157734393E-03
     3 -1.723115051E-04
     4 -6.438463339E-06
     5  2.489155184E-04
     6  4.572939331E-04
     7  1.442504037E-04
     8  9.897688655E-05
     9 -2.599987399E-04
    10 -4.216298841E-04
    11 -4.983445894E-04
    12  6.589421205E-04
    13  9.592186659E-04
    14 -1.613587608E-04
    15  2.631950970E-04
    16 -4.949866291E-05
    17 -1.302676635E-04
    18 -1.536262060E-05
    19  6.127448633E-02
    20 -5.947592825E-03
    21 -2.149353431E-02
    22  2.273736189E-02
    23  4.392576162E-01
    24  3.613687949E-01
    25  3.627675777E-05
    26 -1.263240157E-04
    27  3.695687375E-05
    28  1.640078875E-02
    29 -5.276326628E-04
    30  1.150121418E-03
    31 -7.737498282E-06
    32 -2.248389843E-02
    33 -3.970815301E-03
    34  6.057124260E-03
    35  1.349694775E-03
    36 -2.854533971E-04
    37  6.343530498E-04
    38  6.014419264E-04
    39  3.306850739E-04
    40  1.244998182E-04
    41 -1.228602637E-01
    42 -1.047133307E-02
    43  1.806587593E-02
    44  2.692389605E-03
    45 -1.094303203E-02
    46 -9.014020622E-03
    47  9.688194980E-05
    48  7.512566334E-05
    49 -2.632525077E-04
    50 -5.726619254E-04
    51 -4.823971588E-04
    52 -1.532887413E-05
    53  7.618834975E-04
    54  1.108531524E-02
    55  2.421265957E-03
    56  5.416255044E-04
    57 -4.527420988E-03
    58  2.569894697E-04
    59 -3.892628034E-04
    60  1.216032292E-04
    61  2.867419892E-04
    62 -2.362397354E-05
    63  2.025841074E-01
    64  2.332221672E-02
    65 -2.264174753E-03
    66 -3.216081606E-02
    67  2.065801393E-01
    68  1.699769676E-01
    69 -1.172268811E-04
    70  1.537677084E-05
    71 -4.920044204E-05
    72  7.330766492E-03
    73  8.002721022E-04
    74 -1.525698700E-04
    75  6.702532951E-04
    76 -9.483036405E-03
    77  2.565409129E-03
    78 -1.267957658E-04
    79  2.279971604E-03
    80 -1.145680369E-05
    81  7.286639533E-05
    82  6.387737368E-06
    83 -5.670685590E-04
    84  1.802294090E-04
    85 -8.026033983E-02
    86  1.096466339E-02
    87 -1.752948466E-03
    88  9.786448931E-03
    89 -1.274546080E-03
    90 -1.107458727E-03
    91 -1.105229601E-04
    92  1.908552498E-05
    93  1.209721504E-04
    94  8.878922779E-04
    95  1.211758664E-04
    96 -3.274675048E-05
    97 -1.048837689E-04
    98 -5.182725626E-03
    99  2.486612907E-03
   100 -1.090473233E-03
   101 -2.929585024E-04
   102 -1.024229413E-05
   103  1.763990908E-04
   104 -3.241797225E-05
   105 -3.339320123E-05
   106  3.369342724E-05
   107  2.209440809E-03
   108  8.949336719E-03
   109 -2.358096465E-03
   110  1.194579919E-02
   111 -5.285324096E-03
   112 -4.334757860E-03
   113 -1.882805088E-05
   114 -1.041879894E-06
   115 -2.773099906E-05
   116 -4.597237466E-04
   117  2.757582938E-04
   118  8.479045357E-05
   119  7.064158617E-05
   120 -1.033498819E-04
   121 -1.397473964E-04
   122  6.156070692E-04
   123  2.456808376E-03
   124  1.085953279E-04
   125 -1.285873602E-04
   126  1.169124196E-04
   127 -4.880444271E-05
   128  5.864587570E-05
   129  1.398042987E-03
   130  1.019287870E-03
   131 -5.198838179E-04
   132  1.039436418E-03
   133  2.847855873E-01
   134  2.343057374E-01
   135  6.361848849E-05
   136  9.413690487E-05
   137  6.405915263E-05
   138  1.038057766E-02
   139 -7.080418348E-04
   140 -8.308417323E-04
   141 -2.454480694E-04
   142 -1.385627123E-02
   143 -3.613867688E-03
   144 -2.908555988E-03
   145 -5.619689972E-04
   146 -2.760683380E-04
   147  2.393138470E-04
   148 -5.640437320E-04
   149  8.159020218E-05
   150 -2.656672793E-04
   151 -9.393532792E-02
   152 -1.145071676E-02
   153 -1.159018543E-02
   154 -2.515146375E-03
   155 -1.711313134E-03
   156 -1.460049472E-03
   157 -1.169197123E-04
   158  3.436591681E-05
   159  1.725925455E-04
   160  7.417046065E-04
   161  9.697659994E-05
   162 -7.946040651E-05
   163 -1.733816664E-04
   164 -3.564297041E-03
   165  2.891884916E-04
   166 -1.850658384E-03
   167 -6.454750538E-04
   168 -1.020056414E-04
   169  1.866210160E-04
   170 -3.035963922E-05
   171 -3.997351958E-05
   172  8.702163223E-05
   173  2.281895955E-02
   174 -6.347453447E-03
   175 -7.091546780E-04
   176  7.413070329E-03
   177 -2.370998940E-03
   178 -1.951708026E-03
   179  4.364669995E-06
   180 -7.034662380E-06
   181 -1.678196488E-05
   182 -1.659707652E-04
   183  6.476499312E-05
   184 -4.623193949E-05
   185  2.951651408E-05
   186 -5.237343285E-04
   187 -5.326155413E-04
   188 -9.673072514E-04
   189  1.878647621E-03
   190  6.345890857E-05
   191 -1.328623247E-04
   192 -8.551793055E-05
   193 -6.036414018E-05
   194 -1.772864358E-05
   195  1.443730993E-02
   196 -1.450399873E-03
   197  1.887370001E-03
   198  1.861279186E-03
   199 -6.939243778E-03
   200 -5.688192770E-03
   201  3.370571843E-05
   202  1.006593548E-05
   203  1.244214041E-05
   204 -6.136634450E-04
   205 -1.929833640E-04
   206 -5.184378815E-05
   207 -3.083223988E-04
   208  1.220052798E-04
   209 -2.375305803E-03
   210 -1.282537520E-04
   211  1.115487758E-03
   212  3.663190061E-05
   213 -1.140236172E-04
   214 -2.672987727E-05
   215  1.836762997E-04
   216 -7.004674202E-05
   217 -7.483888190E-03
   218 -1.108345034E-03
   219 -6.317861253E-04
   220 -2.154289741E-03
   221  1.023642433E-05
   222  1.207303023E-06
   223  8.532557331E-08
   224 -4.950344966E-06
   225 -1.797605440E-05
   226  1.163708478E-04
   227  6.896340371E-06
   228  1.790437772E-05
   229  7.011236038E-05
   230 -1.195631211E-03
   231  2.708813767E-04
   232 -4.111168797E-05
   233  6.506548584E-04
   234  2.843791723E-06
   235 -5.709300247E-05
   236  7.632574994E-06
   237 -3.749857382E-07
   238 -1.030580390E-05
   239 -1.462964060E-02
   240  4.497399926E-03
   241 -7.939197740E-04
   242 -1.925368368E-04
   243 -4.731803378E-05
   244 -4.549210371E-05
   245  2.120661606E-05
   246  8.675313446E-06
   247  2.514868079E-06
   248  1.199102325E-04
   249 -9.064501445E-05
   250 -5.476263613E-05
   251 -2.691824689E-05
   252 -1.242805403E-03
   253 -6.074568016E-04
   254 -4.474070053E-04
   255  4.930992161E-05
   256  2.074704014E-05
   257 -6.018333602E-05
   258 -2.149526052E-05
   259  1.673712499E-05
   260 -3.967749057E-05
   261 -2.649237155E-03
   262  3.036310008E-04
   263 -1.217616384E-03
   264 -1.756922379E-03
   265 -1.558452568E-04
   266 -1.331999584E-04
   267  1.142366820E-05
   268 -3.401337895E-05
   269  1.115990471E-05
   270  1.252789262E-04
   271 -4.850362309E-05
   272  1.929891099E-04
   273 -7.775475121E-05
   274 -1.311061995E-03
   275 -4.421747959E-04
   276  7.198261494E-04
   277  1.154817039E-04
   278  3.745344592E-05
   279 -5.785419073E-05
   280  8.327845508E-05
   281  8.129960664E-05
   282  6.488804148E-06
   283  2.149859701E-02
   284  5.097989323E-04
   285 -2.885322508E-03
   286  1.275220113E-03
   287  1.047519575E-04
   288 -2.211473239E-03
   289  1.440235907E-03
   290 -1.538530619E-03
   291  1.645002881E-04
   292 -5.320626275E-04
   293  2.396408037E-03
   294  8.098837051E-05
   295 -2.038442020E-03
   296  1.710773540E-03
   297  6.612043877E-04
   298  1.120504004E-03
   299  9.662547225E-04
   300  2.464783091E-03
   301 -1.345288063E-04
   302 -8.848379277E-04
   303 -3.361108185E-03
   304 -3.239808809E-04
   305  2.034327849E-05
   306  4.659912490E-04
   307  5.800560805E-03
   308  1.028885204E-04
   309 -1.673048687E-03
   310  1.558865021E-04
   311  2.971451035E-04
   312  6.342474894E-04
   313  5.565738521E-04
   314  1.814896984E-03
   315  5.609992213E-05
   316 -1.335223109E-03
   317  6.653208038E-04
   318  1.597243921E-05
   319 -7.476945254E-04
   320  4.168679339E-04
   321  1.911263736E-03
   322 -6.924771498E-05
   323  2.757258692E-04
   324 -1.289999850E-04
   325 -1.251133052E-05
   326  1.451748238E-05
   327 -2.915643505E-05
   328  1.610616941E-03
   329  1.713476791E-04
   330 -1.553048913E-03
   331 -2.579727624E-03
   332  3.001833456E-04
   333  2.137290104E-04
   334 -3.434400134E-05
   335  2.212251406E-04
   336  1.190710508E-04
   337 -1.967285406E-03
   338  3.962373485E-04
   339 -1.090325594E-03
   340  1.811419506E-04
   341 -3.321093938E-04
   342  2.028984481E-03
   343  4.831730879E-05
   344 -1.453836316E-03
   345  1.165021490E-03
   346  1.470688870E-04
   347 -9.227194740E-04
   348  5.826105127E-04
   349  2.159115751E-03
   350 -6.451895737E-05
   351  3.308109099E-04
   352  2.351711547E-04
   353 -1.198123002E-05
   354  1.659996538E-06
   355 -3.473491965E-06
   356  2.560143271E-03
   357  1.284919102E-04
   358 -1.197400228E-03
   359 -1.949281363E-03
   360  1.553743398E-04
   361 -2.275601055E-04
   362 -5.541579805E-05
   363 -3.248217999E-04
   364  1.934115310E-04
   365 -1.735287611E-03
   366 -2.850750457E-03
   367 -1.610178765E-04
   368  2.580116340E-05
   369 -3.798515123E-04
   370  4.151570555E-04
   371 -7.073821392E-05
   372  2.431909833E-04
   373 -2.451160817E-04
   374  2.196686072E-05
   375  1.780013621E-05
   376 -1.623035362E-05
   377  1.130737880E-03
   378  1.897826078E-05
   379 -8.202571327E-05
   380 -2.090697419E-04
   381  4.837897860E-05
   382  1.019371723E-05
   383 -1.889861913E-05
   384 -9.079494946E-04
   385 -3.676708152E-05
   386  2.437980379E-04
   387  2.888588145E-04
   388 -2.359413453E-05
   389 -7.856979575E-07
   390  1.613003546E-05
   391 -1.490778479E-03
   392  2.238897772E-05
   393 -7.759992232E-05
   394 -2.772256956E-04
   395  5.534037207E-05
   396 -2.586636884E-05
   397 -1.908969596E-05
   398 -8.029817018E-04
   399 -4.795973486E-05
   400  2.558750918E-04
   401  2.141697549E-04
   402  1.618724683E-07
   403  1.379410596E-05
   404  3.013447572E-05
   405 -1.007594788E-03
   406  2.930494711E-05
   407 -1.555087084E-04
   408 -3.369209316E-04
   409 -1.290184487E-05
   410 -1.742235901E-05
   411 -6.751057639E-05
   412 -9.773579931E-04
   413  3.443051281E-05
   414 -1.472639275E-04
   415 -4.326563203E-04
   416  1.907799168E-05
   417 -6.830334901E-05
   418 -5.292561832E-05
   419 -8.206403953E-04
   420 -7.041235708E-05
   421  2.825777642E-04
   422  1.011962951E-04
   423 -9.604309507E-08
   424 -3.922702504E-05
   425  3.002248962E-05
   426 -4.842654352E-05
   427  5.469967143E-05
   428 -2.915172627E-04
   429 -6.602219373E-04
   430  5.684100418E-05
   431  1.030475574E-04
   432 -5.018524473E-05
   433 -9.705681071E-04
   434  5.301882179E-05
   435 -2.952378141E-04
   436 -6.358692167E-04
   437 -2.611786592E-05
   438  6.011482554E-05
   439 -1.027518066E-04
   440 -1.024263342E-03
Ene=   -1.0158049444E+01
Spin= Alpha
Occup=   2.0000000
     1  2.278329749E-03
     2  1.857779123E-03
     3  1.905748619E-04
     4  2.414370907E-04
     5  1.976036030E-04
     6  4.409279148E-04
     7 -1.593275578E-04
     8 -3.339622977E-04
     9 -6.337161835E-05
    10 -5.758985254E-03
    11  1.841597622E-03
    12  4.894066884E-03
    13  1.663336564E-03
    14  1.253672918E-04
    15  1.126206045E-04
    16  3.108220765E-04
    17 -1.441595915E-04
    18  1.779461745E-04
    19 -7.976289731E-02
    20  1.452644596E-03
    21  5.657945795E-02
    22 -1.957264283E-02
    23 -5.595310252E-03
    24 -4.625645277E-03
    25 -6.807316067E-05
    26 -3.099908444E-06
    27  2.501667122E-05
    28  7.907925328E-05
    29  3.970436455E-04
    30 -1.188389129E-04
    31 -2.532748760E-04
    32  7.645417220E-04
    33  1.381341274E-03
    34  8.336838787E-04
    35 -1.999580573E-04
    36  3.120693083E-05
    37 -1.340863095E-04
    38 -6.224029426E-05
    39  6.241477098E-05
    40 -5.508251725E-05
    41  1.279853080E-02
    42  1.147262157E-03
    43 -3.366629285E-03
    44 -7.218081222E-04
    45  1.155605834E-04
    46  1.140821237E-04
    47  4.554643200E-05
    48 -1.005484736E-05
    49  4.720141886E-05
    50 -3.408193632E-04
    51 -1.452652495E-04
    52  2.850673559E-05
    53 -1.011552756E-04
    54  2.820058954E-03
    55 -1.371360135E-03
    56  3.629502140E-04
    57 -2.209817790E-03
    58  1.265657009E-04
    59  5.071458653E-05
    60 -2.198560332E-05
    61  2.314806008E-05
    62 -1.025079854E-05
    63  1.846625040E-02
    64  4.605032803E-03
    65 -4.770820823E-04
    66 -5.180542079E-03
    67  6.580084748E-03
    68  5.449160291E-03
    69  4.189311429E-06
    70  3.418399921E-06
    71 -7.328028749E-05
    72 -1.576779533E-04
    73 -7.217989125E-06
    74 -2.846398456E-05
    75  5.454179989E-04
    76 -4.477884081E-04
    77 -3.801334191E-04
    78  4.699188587E-05
    79  1.364743785E-04
    80 -6.167047591E-05
    81  5.365050501E-05
    82 -9.256374564E-07
    83 -3.229832860E-05
    84  8.186962436E-06
    85 -3.954596205E-02
    86  3.233863368E-03
    87 -9.293844167E-04
    88  8.310577801E-03
    89 -1.515806478E-03
    90 -1.200481894E-03
    91 -4.758513031E-05
    92  9.300753078E-06
    93 -5.356594825E-05
    94 -8.946190951E-04
    95  2.246325034E-04
    96 -3.876625441E-05
    97  4.394629259E-05
    98  7.939987848E-03
    99 -3.787103815E-03
   100  8.632032179E-04
   101 -4.811292401E-03
   102  1.003573675E-04
   103  8.621730113E-05
   104 -3.312096524E-05
   105  1.410606406E-04
   106 -5.289509044E-05
   107  7.239130872E-02
   108 -8.128431522E-02
   109  1.399841028E-02
   110 -2.068964636E-02
   111  1.339028408E-01
   112  1.101307857E-01
   113  5.161529782E-05
   114 -5.891904244E-05
   115  2.010962808E-05
   116  5.450234446E-03
   117 -2.950930851E-04
   118  3.478309395E-04
   119 -1.812710420E-04
   120 -8.426023957E-03
   121  1.006530671E-03
   122  3.327976405E-03
   123 -3.863797561E-04
   124  4.173369997E-05
   125 -5.919746261E-05
   126  1.665084351E-04
   127  1.270602045E-04
   128  2.299333193E-05
   129 -2.294354600E-02
   130  5.873520111E-03
   131  3.484607785E-04
   132 -1.038929937E-03
   133 -5.380548891E-03
   134 -4.448840566E-03
   135 -6.362180092E-05
   136  2.228445919E-05
   137  2.575545989E-05
   138  8.599031992E-05
   139  4.155321766E-04
   140  1.001868799E-05
   141 -2.426736577E-04
   142  7.350569803E-04
   143  1.042674887E-03
   144 -1.212453444E-03
   145 -2.957174650E-04
   146  4.473019201E-05
   147 -1.044859211E-04
   148  8.631606590E-05
   149  9.466145670E-05
   150  1.483388372E-05
   151  1.329635727E-02
   152  2.290426328E-03
   153  2.952649342E-03
   154 -5.539376948E-04
   155  2.260837909E-03
   156  1.843639239E-03
   157  1.015572268E-04
   158 -3.090181638E-04
   159  1.691573110E-04
   160  4.346114671E-04
   161 -4.515912247E-05
   162  3.702192416E-04
   163 -2.814672067E-05
   164 -5.699311761E-03
   165  1.975725418E-04
   166 -5.334498256E-03
   167  1.140217705E-03
   168  6.678214000E-05
   169 -5.845589206E-06
   170 -3.238938442E-04
   171 -2.583177283E-04
   172 -4.647049621E-05
   173 -7.850701546E-02
   174 -1.552897694E-02
   175 -5.106633996E-02
   176 -2.453207156E-02
   177  1.368822979E-01
   178  1.125813903E-01
   179  6.704209534E-05
   180  3.732007121E-05
   181  2.496729705E-05
   182  5.569174329E-03
   183 -3.838001489E-04
   184 -2.182728598E-04
   185 -2.107752584E-04
   186 -8.611688639E-03
   187 -6.239314365E-05
   188 -3.464271349E-03
   189 -7.557282180E-04
   190  1.434169033E-05
   191 -1.222120575E-04
   192 -1.561810319E-04
   193  7.177127102E-05
   194 -8.132324921E-05
   195 -2.673461773E-02
   196  5.779828517E-03
   197 -2.733438391E-03
   198 -1.559358127E-03
   199 -5.292970773E-01
   200 -4.353936216E-01
   201 -3.968113686E-05
   202  9.493389798E-06
   203 -6.180358669E-05
   204 -2.060667392E-02
   205  3.429204638E-04
   206 -9.885711487E-05
   207  8.365632412E-04
   208  3.100922685E-02
   209  3.712815456E-03
   210 -1.112714138E-03
   211  9.591159527E-03
   212 -1.070888335E-04
   213  3.344356126E-04
   214  6.404491360E-06
   215 -8.991355155E-04
   216  2.867849903E-04
   217  1.434110134E-01
   218  7.008507602E-03
   219 -2.679160726E-03
   220  2.487440240E-02
   221 -2.399556552E-04
   222 -1.935718106E-04
   223 -3.166093688E-05
   224  6.797951843E-06
   225 -3.391522959E-05
   226 -1.902556814E-05
   227  1.985151697E-04
   228 -3.949611031E-05
   229  1.452260690E-04
   230  9.064204024E-04
   231 -2.479586600E-04
   232  3.352245412E-05
   233 -1.654829526E-05
   234  1.327425188E-05
   235 -1.075331444E-04
   236  2.175942751E-05
   237 -8.915196368E-05
   238  3.616433823E-05
   239  7.173345664E-02
   240 -1.299828535E-02
   241  2.367525825E-03
   242 -4.186847990E-03
   243  2.573770730E-04
   244  2.110853087E-04
   245 -1.902267592E-05
   246 -3.493124551E-05
   247 -2.339608270E-05
   248 -6.214221619E-05
   249  1.041579254E-04
   250  1.904208693E-04
   251  1.458237478E-04
   252  2.600133868E-04
   253  9.627834126E-05
   254  7.261574324E-05
   255  3.190767255E-04
   256 -4.703603466E-05
   257  2.259197226E-05
   258  1.484271284E-04
   259 -2.811599012E-05
   260  5.477694304E-05
   261 -4.544849212E-02
   262 -1.632983391E-03
   263 -7.344013123E-03
   264 -4.081851923E-03
   265  2.545043182E-04
   266  2.087949631E-04
   267 -6.853758963E-06
   268  4.179069563E-05
   269 -1.935578256E-05
   270 -6.246584186E-05
   271  3.689260995E-05
   272 -2.299961167E-04
   273  1.241647363E-04
   274  2.467064228E-04
   275  4.966310821E-05
   276 -1.261089446E-04
   277  3.074000413E-04
   278 -7.334030326E-05
   279 -2.760616545E-05
   280 -1.316814005E-04
   281 -7.070723492E-05
   282 -2.156588856E-05
   283 -4.621646780E-02
   284  8.870642389E-04
   285  7.939254615E-03
   286 -3.345284941E-03
   287 -1.555528978E-04
   288  1.199010254E-03
   289  2.370715738E-03
   290  2.378087242E-04
   291 -2.049330398E-04
   292 -1.231965611E-04
   293 -1.225913740E-03
   294  7.599445791E-05
   295 -2.493627836E-04
   296  4.530858683E-04
   297 -1.070690692E-04
   298 -2.261574698E-05
   299  3.178301045E-05
   300  1.456281673E-03
   301  1.002302846E-05
   302 -1.414614123E-04
   303  3.425421219E-04
   304  5.701817610E-05
   305 -1.384733164E-05
   306  7.652335307E-05
   307  2.413194359E-03
   308  3.724570317E-05
   309 -3.878043170E-04
   310 -1.685289489E-03
   311  4.315496778E-05
   312  6.098005729E-05
   313  1.105144448E-04
   314 -1.144031939E-03
   315  3.820625900E-05
   316 -3.943381490E-04
   317 -1.705433528E-03
   318  1.962972039E-05
   319 -8.255854683E-05
   320  1.048893635E-04
   321 -1.118560352E-03
   322 -8.760288797E-05
   323  4.754044112E-04
   324  1.769943239E-03
   325 -1.034426566E-05
   326 -1.459130583E-04
   327 -3.644330030E-04
   328 -1.276667488E-03
   329  6.092544816E-05
   330 -5.845136862E-04
   331  6.408909609E-04
   332  1.456596903E-04
   333  2.618493531E-04
   334  3.167863838E-04
   335  1.134801119E-03
   336 -1.560669347E-04
   337  1.201624268E-03
   338  2.320789922E-03
   339  2.921407295E-04
   340  1.299700001E-04
   341 -1.057242067E-04
   342 -1.191337287E-03
   343  7.649078737E-05
   344 -2.539212165E-04
   345  3.854998933E-04
   346 -9.616159260E-05
   347  5.071481703E-05
   348  3.694925782E-05
   349  1.532424986E-03
   350 -8.711680573E-05
   351  4.651013020E-04
   352  1.848353275E-03
   353  4.795193496E-05
   354  1.807120467E-04
   355 -3.550727073E-04
   356 -1.368286944E-03
   357  6.233211839E-05
   358 -6.000269539E-04
   359  7.155720981E-04
   360  4.826492593E-05
   361 -3.340343777E-04
   362  2.911602495E-04
   363  1.143858902E-03
   364 -1.109007016E-04
   365  2.020188782E-03
   366 -2.421101485E-03
   367  1.773804252E-03
   368 -3.065245551E-04
   369  2.603939141E-04
   370 -3.791011180E-03
   371 -5.229151949E-06
   372  1.322290781E-03
   373 -2.888398929E-03
   374 -1.313705891E-03
   375  1.551923231E-04
   376  1.154949610E-03
   377  5.800945631E-05
   378  2.452490630E-06
   379 -1.775564465E-04
   380  1.759535604E-04
   381  7.201902185E-06
   382  2.988428940E-05
   383  2.039204973E-05
   384  6.026757462E-04
   385  5.580092187E-05
   386 -3.859546918E-04
   387  3.137738583E-04
   388  9.987341760E-05
   389 -1.476850861E-05
   390 -2.556050899E-05
   391  5.584151596E-04
   392  3.112787993E-06
   393 -1.807209948E-04
   394  1.520570606E-04
   395 -2.164923205E-06
   396 -3.287990959E-05
   397  1.778253022E-05
   398  5.444615858E-04
   399 -5.043478806E-05
   400  3.097562216E-04
   401  5.402898813E-04
   402 -2.967920944E-05
   403  9.587686909E-05
   404  6.414170440E-05
   405  5.479268219E-04
   406 -8.874637586E-05
   407  4.587457397E-04
   408  3.998335339E-04
   409  1.051404190E-04
   410  1.042597777E-04
   411  5.809125212E-05
   412  2.165993705E-03
   413  9.527749868E-05
   414 -2.546385593E-04
   415  4.729724906E-05
   416 -4.507552831E-05
   417 -7.014739839E-05
   418 -6.297191839E-05
   419 -2.603261914E-03
   420 -5.137941164E-05
   421  3.173939482E-04
   422  5.303677487E-04
   423 -6.009475065E-05
   424 -8.795110850E-05
   425  5.563756001E-05
   426  5.463434418E-04
   427  9.460900763E-05
   428 -2.496670302E-04
   429  4.131634699E-05
   430 -1.899296325E-05
   431  8.595561397E-05
   432 -5.468287284E-05
   433 -2.555332259E-03
   434 -8.876701886E-05
   435  4.604508276E-04
   436  3.697672474E-04
   437  6.532783654E-05
   438 -1.375916056E-04
   439  4.501014226E-05
   440  2.151026382E-03
Ene=   -1.0158041359E+01
Spin= Alpha
Occup=   2.0000000
     1  2.231920465E-03
     2  1.798365443E-03
     3 -2.129307306E-04
     4  4.009260937E-05
     5 -9.915597957E-05
     6  7.962272466E-04
     7  1.566742183E-04
     8 -1.957058496E-04
     9  2.140159512E-04
    10 -8.125354642E-03
    11 -4.113043021E-03
    12  4.587670471E-03
    13 -1.619019687E-03
    14 -6.852353789E-05
    15  1.147633443E-04
    16 -8.910333131E-06
    17  2.894601315E-04
    18  4.366226000E-05
    19 -8.960441063E-02
    20 -1.024439684E-02
    21  7.212542703E-02
    22 -4.532805936E-02
    23 -7.128629292E-03
    24 -5.899292086E-03
    25 -3.061929356E-05
    26  3.952043194E-05
    27  6.422491224E-05
    28  1.441959169E-04
    29  3.171763553E-04
    30 -3.162254467E-04
    31 -4.004257351E-04
    32  7.216003665E-04
    33 -2.697920806E-04
    34  7.492749885E-05
    35 -1.095147289E-03
    36  7.351765751E-05
    37 -1.233106403E-04
    38  1.954320083E-05
    39 -2.391328338E-05
    40 -1.662536853E-05
    41  3.196760505E-02
    42  4.253669573E-03
    43 -6.191074471E-03
    44 -1.300453671E-03
    45 -8.968839167E-07
    46 -1.350486504E-06
    47 -1.091479728E-05
    48 -6.668975949E-05
    49 -3.911112974E-06
    50  1.087400347E-05
    51  3.068926538E-05
    52  1.829961903E-04
    53  1.010085263E-05
    54 -9.142758308E-05
    55  3.990850651E-04
    56  2.490691196E-03
    57  1.671838098E-04
    58 -4.355003590E-06
    59  7.376371988E-07
    60 -4.199377326E-05
    61  4.168747400E-05
    62  1.302341214E-04
    63 -1.303894431E-03
    64 -3.307389689E-04
    65 -7.033364188E-04
    66  2.414400875E-04
    67 -3.793138495E-06
    68 -3.178922328E-06
    69  8.321971468E-06
    70  4.784385276E-05
    71  2.374595444E-06
    72  2.985724587E-07
    73 -2.800500081E-05
    74 -1.546675656E-04
    75 -5.881542118E-06
    76 -2.839769129E-05
    77 -2.587290685E-04
    78 -1.477758100E-03
    79 -6.375517065E-05
    80  7.800718679E-06
    81  1.782254689E-05
    82  9.517268637E-05
    83  8.044439474E-06
    84  1.179833659E-05
    85  2.114795717E-04
    86  1.197697637E-04
    87  8.693582828E-04
    88  5.033850587E-05
    89 -2.526263485E-05
    90 -2.104778267E-05
    91 -6.649453971E-05
    92 -3.979964133E-04
    93 -2.305317796E-05
    94  1.320514885E-06
    95  5.617458823E-05
    96  3.237264992E-04
    97  1.918623257E-05
    98  1.843183299E-05
    99 -8.116241519E-04
   100 -4.759590933E-03
   101 -2.503492729E-04
   102 -3.989922185E-05
   103 -7.404763996E-05
   104 -4.250311501E-04
   105 -3.878186626E-05
   106 -4.933193916E-05
   107  9.056370293E-04
   108 -2.844768476E-03
   109 -1.278991954E-02
   110 -1.058355456E-03
   111 -3.956384645E-01
   112 -3.254375926E-01
   113  5.712838429E-05
   114  6.907289314E-06
   115  3.400484727E-05
   116 -1.555018246E-02
   117 -5.871606989E-04
   118 -1.801180842E-04
   119 -9.655304468E-05
   120  2.352939198E-02
   121 -6.553096436E-03
   122 -4.572300503E-03
   123  2.105035130E-04
   124 -3.307773867E-04
   125  3.430554026E-04
   126 -4.446829049E-04
   127  1.234504554E-04
   128 -2.231349013E-04
   129  9.961712842E-02
   130 -1.360847120E-02
   131 -1.138400045E-02
   132  5.998799875E-03
   133  7.081288471E-03
   134  5.860800972E-03
   135  4.309735493E-05
   136  3.359067314E-05
   137 -6.131852653E-05
   138 -1.530065914E-04
   139 -4.135776402E-04
   140 -2.369223197E-04
   141  3.779987277E-04
   142 -7.054634678E-04
   143  2.461947835E-04
   144 -9.429054744E-05
   145  1.121472717E-03
   146 -7.501870289E-05
   147  1.254699821E-04
   148 -1.074620971E-05
   149  4.671057991E-06
   150 -4.070328634E-05
   151 -3.074827570E-02
   152 -5.854175928E-03
   153 -4.481090838E-03
   154  6.840069336E-04
   155 -2.298441557E-03
   156 -1.853279293E-03
   157  2.156728475E-04
   158 -3.699598751E-05
   159  9.792087151E-05
   160 -7.972811613E-04
   161 -2.102853353E-04
   162 -1.170870676E-04
   163 -2.309941898E-04
   164  8.221380587E-03
   165  5.348132045E-03
   166  2.858692413E-03
   167  2.028393663E-03
   168  7.380630190E-05
   169 -9.573099001E-05
   170  4.602889454E-05
   171 -1.981304830E-04
   172  2.224542635E-04
   173  9.160729568E-02
   174  3.252639556E-02
   175  6.034990833E-02
   176  5.221046761E-02
   177  4.003569326E-01
   178  3.293194357E-01
   179 -5.257893888E-05
   180  2.926242022E-05
   181 -3.158732228E-05
   182  1.572626395E-02
   183  5.084514125E-04
   184 -3.807749750E-04
   185  6.283356686E-05
   186 -2.381361282E-02
   187  4.816793498E-03
   188 -6.429515784E-03
   189 -8.547974820E-04
   190  2.620807557E-04
   191 -4.967406621E-04
   192 -3.484033552E-04
   193 -2.633821898E-04
   194 -4.807165046E-05
   195 -1.019614771E-01
   196  9.685004396E-03
   197 -1.472439446E-02
   198 -7.383025306E-03
   199  3.450457453E-03
   200  2.838724912E-03
   201 -1.521866918E-05
   202 -9.230731841E-05
   203 -4.065604506E-06
   204  1.281098351E-04
   205  9.206663955E-05
   206  5.736150155E-04
   207  2.080847725E-05
   208 -1.698951555E-04
   209  3.169833703E-04
   210  1.975446288E-03
   211  4.940706850E-05
   212  1.650073118E-05
   213  2.872494449E-05
   214  1.725879963E-04
   215  3.101033247E-05
   216  3.753664601E-05
   217 -1.277644870E-03
   218 -6.806690848E-04
   219 -3.235969063E-03
   220 -3.365737678E-04
   221  1.420772742E-07
   222  4.888624694E-08
   223 -2.429964788E-07
   224  8.778326680E-07
   225  1.725740615E-07
   226  1.255832361E-06
   227 -3.106279614E-07
   228 -1.520602213E-05
   229 -1.099275829E-06
   230 -4.459809377E-06
   231 -2.702558741E-05
   232 -1.900142121E-04
   233 -1.220351443E-05
   234  6.953560240E-06
   235  8.920645685E-06
   236  6.899619570E-05
   237 -1.154247593E-05
   238 -4.149151188E-05
   239  6.937136703E-04
   240 -4.612715235E-04
   241 -2.007626416E-03
   242 -1.182337864E-04
   243 -2.983533343E-04
   244 -2.428090303E-04
   245  2.905633767E-05
   246  4.294355824E-05
   247  1.898277757E-05
   248  2.727553186E-05
   249 -1.352062027E-04
   250 -2.415886668E-04
   251 -1.319744539E-04
   252  3.779499715E-04
   253  8.468286343E-05
   254 -6.555181507E-05
   255 -3.698350847E-07
   256 -3.793846375E-06
   257 -5.724994907E-05
   258 -9.792694966E-05
   259  7.514245811E-05
   260 -1.242233066E-04
   261  7.061511127E-02
   262  5.009341392E-03
   263  9.371901019E-03
   264  8.211853870E-03
   265  2.922791962E-04
   266  2.377298544E-04
   267 -1.348464750E-05
   268  5.073886053E-05
   269 -1.317779311E-05
   270 -2.396649215E-05
   271  4.833711218E-05
   272 -2.788619694E-04
   273  1.000655942E-04
   274 -4.155923167E-04
   275 -1.030551116E-04
   276 -2.127951463E-05
   277 -2.282553921E-05
   278 -1.442102481E-05
   279  1.565297931E-05
   280 -9.311935409E-05
   281 -1.439003040E-04
   282 -5.276505625E-05
   283 -7.048010397E-02
   284 -1.589856162E-03
   285  1.127393520E-02
   286 -7.079240385E-03
   287  2.380587408E-05
   288  7.407694908E-05
   289  1.257446294E-03
   290  7.286411471E-05
   291 -1.760848988E-05
   292  6.880811444E-05
   293  1.567522783E-03
   294 -1.157206963E-04
   295  9.491652868E-04
   296  2.412518097E-03
   297  1.037996082E-04
   298 -2.079883907E-04
   299 -1.456085503E-04
   300 -2.698092801E-05
   301  1.001009750E-07
   302  1.699915136E-06
   303  7.497603894E-06
   304 -1.547821124E-05
   305 -9.408188022E-05
   306 -5.895174468E-06
   307 -8.899039179E-05
   308 -1.385954483E-04
   309  8.651561279E-04
   310  1.134481896E-03
   311  1.414525132E-05
   312  2.724949744E-05
   313 -2.387097414E-04
   314 -1.642423759E-03
   315  1.392840691E-04
   316 -8.728707831E-04
   317 -1.161366632E-03
   318 -8.122926780E-06
   319  5.126357087E-06
   320  2.430817399E-04
   321  1.632309540E-03
   322  5.109256838E-05
   323  4.873426508E-04
   324 -2.826245722E-03
   325 -5.173466960E-04
   326  3.941921506E-04
   327  1.074620093E-03
   328  8.518688057E-04
   329 -1.033890958E-04
   330  1.556397795E-03
   331 -1.847402848E-03
   332 -2.633366663E-04
   333 -9.818874916E-04
   334 -8.750980478E-04
   335 -2.935154483E-03
   336 -2.242263788E-05
   337 -9.124577947E-05
   338 -1.284109182E-03
   339 -7.721345022E-05
   340  1.229283528E-05
   341 -6.870634517E-05
   342 -1.557240300E-03
   343  1.158482799E-04
   344 -9.548031742E-04
   345 -2.440067949E-03
   346 -1.690790084E-04
   347 -1.799081050E-04
   348  1.256427098E-04
   349  5.511866336E-05
   350 -4.707890978E-05
   351 -5.351348489E-04
   352  2.793426746E-03
   353  6.477579001E-04
   354  3.135141009E-04
   355 -1.053055166E-03
   356 -8.311224269E-04
   357  1.031690184E-04
   358 -1.571413935E-03
   359  1.873956478E-03
   360 -8.097699314E-05
   361 -1.113397568E-03
   362  7.745202877E-04
   363  2.996652615E-03
   364  6.422034176E-08
   365 -1.286624190E-05
   366  1.917626060E-05
   367 -2.674406106E-05
   368 -8.504080633E-05
   369 -6.141341489E-06
   370 -2.166015944E-05
   371  1.679593159E-06
   372 -2.366232313E-05
   373  8.092521076E-06
   374  2.487055694E-05
   375  1.026141712E-04
   376 -5.693667626E-06
   377  6.374797872E-05
   378 -1.099843363E-04
   379  4.250361021E-04
   380  2.011692429E-04
   381 -1.300017483E-04
   382  1.816141948E-05
   383 -7.900167655E-05
   384  2.841813143E-03
   385  5.477764489E-07
   386 -3.412679133E-06
   387 -7.848204079E-06
   388  1.048145038E-05
   389  5.648219081E-05
   390  3.004562281E-06
   391 -1.696953582E-06
   392  1.098976314E-04
   393 -4.259787218E-04
   394 -2.108430356E-04
   395  1.282074020E-04
   396 -3.293651230E-05
   397  7.914791672E-05
   398 -2.858767017E-03
   399  6.423868598E-05
   400 -4.205867594E-04
   401 -1.543798701E-04
   402 -1.134335034E-05
   403 -5.566914681E-05
   404 -1.193290485E-04
   405 -1.581881890E-05
   406 -5.513988304E-05
   407  4.232047070E-05
   408  6.126448820E-05
   409 -4.324025209E-06
   410  5.763158517E-05
   411  2.506584254E-05
   412  1.900253487E-03
   413  5.456292222E-05
   414 -3.820380791E-04
   415 -1.370695750E-04
   416 -4.185604584E-05
   417 -9.988359241E-05
   418 -6.649500866E-06
   419 -9.579239888E-04
   420 -6.336961032E-05
   421  4.165887321E-04
   422  1.123454192E-04
   423 -8.498328781E-06
   424 -6.636291270E-05
   425  1.111197530E-04
   426 -3.464134040E-05
   427 -5.507595183E-05
   428  3.832270715E-04
   429  1.252448614E-04
   430  7.417887481E-06
   431 -1.077181805E-04
   432 -4.098895815E-06
   433  9.478753501E-04
   434  5.538874910E-05
   435 -4.568610515E-05
   436 -7.776392618E-05
   437  2.191660463E-05
   438  5.673955956E-05
   439 -1.901579720E-05
   440 -1.863812266E-03
Ene=   -1.0158030643E+01
Spin= Alpha
Occup=   2.0000000
     1  3.330837865E-03
     2  2.761958233E-03
     3 -1.996066536E-04
     4  1.660725360E-04
     5  2.131594834E-06
     6 -1.367182283E-04
     7  1.852555484E-04
     8 -2.744102862E-04
     9  5.819800760E-05
    10 -3.085873095E-03
    11 -5.677728932E-04
    12  3.324434804E-04
    13 -1.525893599E-03
    14 -1.314517101E-04
    15  1.414488236E-04
    16  1.748887564E-04
    17  1.802431439E-04
    18 -4.759136759E-05
    19 -8.866399592E-02
    20 -1.406398424E-02
    21  2.706083194E-02
    22 -2.484788673E-03
    23 -3.876286589E-03
    24 -3.194665038E-03
    25 -1.714022459E-05
    26 -2.315389771E-05
    27  6.146054196E-05
    28  1.466963316E-06
    29  2.182735896E-04
    30  2.032100459E-05
    31 -3.993254457E-04
    32  1.147862365E-03
    33  5.048518292E-04
    34  5.245942663E-04
    35 -1.753045001E-03
    36  1.142453427E-04
    37 -2.105147389E-04
    38 -5.098231502E-05
    39 -2.165563925E-05
    40 -2.798558896E-05
    41 -1.963360365E-02
    42 -1.848568334E-03
    43  2.099058002E-03
    44  1.440882165E-03
    45  3.949834068E-04
    46  3.938330831E-04
    47 -3.801744530E-05
    48  4.464850846E-06
    49  2.256471721E-05
    50 -1.236873811E-03
    51  3.094813816E-05
    52 -5.677358517E-06
    53  4.140416487E-05
    54  1.022062786E-02
    55  2.606534699E-03
    56 -2.771961773E-04
    57 -2.507472335E-03
    58  1.553645026E-05
    59 -9.796436060E-05
    60  1.345222036E-05
    61  2.346306465E-05
    62 -1.299821603E-06
    63  6.656033323E-02
    64  1.438794711E-02
    65 -1.188378029E-03
    66 -2.032871135E-02
    67 -6.840204172E-03
    68 -5.648923680E-03
    69 -6.849908476E-05
    70  8.202932600E-06
    71  6.302599606E-05
    72  7.917422527E-05
    73  3.485573490E-04
    74 -2.632978204E-05
    75 -5.978928732E-04
    76  1.450685448E-03
    77  1.951202683E-03
    78 -2.812242476E-04
    79 -1.071094606E-03
    80  1.326368097E-04
    81 -1.886452481E-04
    82  8.549728864E-06
    83  1.964650969E-04
    84 -5.621867649E-05
    85 -5.491669212E-03
    86 -1.076556577E-03
    87  1.376290406E-04
    88  1.372558795E-05
    89  4.353341290E-03
    90  3.586109299E-03
    91  1.208899072E-04
    92 -3.753388046E-05
    93  2.706232304E-04
    94  2.229171698E-04
    95 -3.291879655E-04
    96  7.239750977E-05
    97 -2.922466779E-04
    98 -6.769415355E-03
    99  2.903784412E-03
   100 -6.052542100E-04
   101  1.753650485E-03
   102  2.772168715E-05
   103  4.347762841E-05
   104  7.303149898E-06
   105 -3.653943669E-04
   106  1.208182831E-04
   107 -1.290664772E-01
   108  5.540764186E-02
   109 -1.094895394E-02
   110  3.477849983E-02
   111 -3.773119932E-01
   112 -3.104105842E-01
   113  6.444266557E-05
   114  5.882897794E-05
   115 -4.853554339E-05
   116 -1.413271724E-02
   117 -8.188383498E-04
   118 -7.356036707E-04
   119  3.445276323E-04
   120  2.073386487E-02
   121 -5.339462790E-03
   122 -3.398984225E-03
   123  3.247545858E-03
   124 -3.991737426E-04
   125  3.643418507E-04
   126 -7.141256143E-04
   127  7.090853113E-05
   128 -2.798391345E-04
   129  1.262232983E-01
   130 -1.630451499E-02
   131 -1.325891484E-02
   132  1.793524018E-03
   133 -3.732763882E-03
   134 -3.076288497E-03
   135 -9.005044772E-06
   136  2.141303684E-05
   137  6.324034706E-05
   138  3.478347585E-06
   139  1.999442510E-04
   140 -5.088400384E-05
   141 -3.988223204E-04
   142  1.114656566E-03
   143  3.406649994E-04
   144 -4.770875530E-04
   145 -1.773289965E-03
   146  1.262819682E-04
   147 -1.795686584E-04
   148  9.387342958E-05
   149  1.396756060E-05
   150  5.186556778E-05
   151 -2.056252469E-02
   152 -2.556551826E-03
   153 -1.673409962E-03
   154  1.542068448E-03
   155  3.297331857E-03
   156  2.735064584E-03
   157 -2.389517792E-04
   158 -9.336167374E-05
   159 -1.018256562E-05
   160 -1.519255193E-04
   161  2.588828014E-04
   162  1.913583680E-04
   163  7.974185364E-05
   164 -2.924293769E-03
   165 -5.381657616E-04
   166  7.260774865E-05
   167 -1.510633816E-03
   168 -1.652829368E-04
   169  7.584726549E-05
   170 -2.014136021E-04
   171  1.461829554E-04
   172 -7.289352549E-05
   173 -8.616525515E-02
   174 -2.170818948E-02
   175 -1.965681404E-02
   176 -4.390679303E-03
   177 -3.712175627E-01
   178 -3.053976560E-01
   179  4.224042119E-05
   180 -7.048222570E-05
   181 -5.582735185E-05
   182 -1.389147728E-02
   183 -5.385817521E-04
   184  9.133618493E-04
   185  4.333433676E-04
   186  2.035576272E-02
   187 -3.941634610E-03
   188  4.476425721E-03
   189  3.669366337E-03
   190 -2.732219380E-04
   191  5.961821322E-04
   192  5.918710750E-04
   193  2.719867830E-04
   194  1.075176908E-04
   195  1.252964410E-01
   196 -1.106582876E-02
   197  1.741943764E-02
   198  3.428812717E-03
   199 -1.914419822E-01
   200 -1.575207104E-01
   201  7.998746624E-06
   202  2.426372655E-06
   203 -8.177727687E-05
   204 -6.827508399E-03
   205  1.833251167E-04
   206 -7.254029982E-05
   207  8.697361149E-04
   208  9.660262775E-03
   209 -1.301822640E-03
   210  4.352318112E-05
   211  3.740578088E-03
   212 -1.078023679E-05
   213  1.604267326E-04
   214  8.103299492E-06
   215 -5.649978153E-04
   216  1.833153804E-04
   217  8.073875908E-02
   218  6.814405675E-03
   219 -1.450928194E-03
   220  1.080645633E-02
   221  4.249564889E-04
   222  3.514877808E-04
   223  7.685093319E-05
   224 -1.327785524E-05
   225  1.325959011E-05
   226 -1.765022504E-04
   227 -4.281148846E-04
   228  7.492322001E-05
   229 -9.112295710E-05
   230  1.554045184E-03
   231 -9.850797368E-04
   232  1.576787593E-04
   233  1.097466365E-04
   234 -7.886504988E-05
   235  8.414484980E-05
   236 -1.879014029E-05
   237  2.255471244E-04
   238 -8.155072557E-05
   239 -4.658473278E-02
   240  7.629064056E-03
   241 -1.379263464E-03
   242  1.987130339E-03
   243  2.871115916E-04
   244  2.392702072E-04
   245 -4.620871040E-06
   246 -3.720966428E-05
   247 -4.309092022E-05
   248 -1.634700279E-04
   249  4.878491977E-05
   250  2.162058058E-04
   251  2.174582666E-04
   252  1.723499756E-03
   253 -3.447030147E-06
   254  6.318916627E-04
   255  7.550637154E-04
   256  5.321245993E-05
   257  2.506627197E-05
   258  1.518599455E-04
   259 -7.377608249E-05
   260  7.008119230E-05
   261 -1.362550603E-02
   262 -5.606584877E-04
   263 -8.841858485E-04
   264 -1.462313840E-03
   265  2.897845129E-04
   266  2.415517986E-04
   267  8.231775570E-06
   268  4.180124392E-05
   269 -3.902732759E-05
   270 -1.656947262E-04
   271 -2.683157950E-05
   272 -2.464953897E-04
   273  1.941236204E-04
   274  1.739025958E-03
   275 -2.159869385E-04
   276 -6.824163361E-04
   277  6.924664349E-04
   278  2.507870749E-05
   279 -2.858261241E-05
   280 -1.498025027E-04
   281 -1.186496704E-04
   282 -6.439820916E-06
   283 -1.475616898E-02
   284 -2.396075036E-04
   285  1.406738143E-03
   286 -1.466198639E-03
   287 -1.175282424E-05
   288  3.984340715E-04
   289  7.280680812E-04
   290  9.542182441E-05
   291 -9.123366218E-05
   292  1.082008155E-05
   293 -7.871335193E-04
   294 -7.637609925E-05
   295  8.026684697E-04
   296  1.280932580E-03
   297  9.914187252E-05
   298 -1.846717165E-04
   299 -9.635622803E-05
   300 -1.448937807E-03
   301  3.598913825E-05
   302 -5.106293151E-04
   303  1.243392611E-03
   304 -8.043039263E-05
   305  8.765461975E-06
   306  6.918281768E-05
   307  8.767263496E-03
   308 -6.608836796E-05
   309  8.412938129E-04
   310  1.847070042E-03
   311 -8.967007084E-05
   312 -5.213634165E-05
   313 -2.334734509E-04
   314 -7.600057624E-04
   315 -6.385665734E-05
   316  8.261716188E-04
   317  1.822743446E-03
   318 -6.428776676E-05
   319  1.019253974E-04
   320 -2.213386039E-04
   321 -7.512179277E-04
   322 -2.097346137E-04
   323  2.821058939E-03
   324  4.532688741E-04
   325 -8.970573963E-04
   326  3.587930034E-05
   327  1.243679804E-03
   328 -2.942604281E-03
   329 -2.893871890E-07
   330  1.257249079E-03
   331 -1.531912425E-03
   332 -2.797151553E-04
   333 -9.491194917E-04
   334 -9.451056259E-04
   335 -2.246313017E-03
   336 -1.168094650E-05
   337  3.952542146E-04
   338  7.405452216E-04
   339  1.183058335E-04
   340  5.458518102E-05
   341  1.737295123E-05
   342 -7.443704534E-04
   343 -7.465175885E-05
   344  7.891617152E-04
   345  1.242564291E-03
   346  1.522276302E-04
   347  1.495089051E-04
   348 -7.664695523E-05
   349 -1.542872302E-03
   350 -2.107569635E-04
   351  2.816363601E-03
   352  4.794225058E-04
   353 -8.729544771E-04
   354  1.293185458E-04
   355  1.232400301E-03
   356 -2.952343961E-03
   357  1.304490081E-06
   358  1.233819458E-03
   359 -1.515202591E-03
   360  5.366801565E-05
   361  1.064230436E-03
   362 -8.252217843E-04
   363 -2.181788254E-03
   364  4.752093402E-05
   365  5.306811640E-04
   366 -6.995230220E-04
   367  7.244968828E-04
   368 -1.240522940E-04
   369  7.301603927E-05
   370 -8.716504932E-04
   371 -2.330670591E-04
   372  2.587094175E-03
   373  1.737582214E-03
   374 -3.902779054E-04
   375  1.627046480E-05
   376  9.152297039E-04
   377 -3.292473145E-03
   378  1.036850416E-05
   379  8.927294036E-05
   380  7.159317817E-04
   381 -3.252258121E-05
   382 -9.821367980E-06
   383 -6.490778854E-05
   384  3.296367584E-05
   385 -7.591692238E-05
   386  4.257743119E-04
   387  1.664604237E-03
   388 -1.770882345E-04
   389  2.893473869E-05
   390  1.192432815E-05
   391  1.948059082E-03
   392  1.203717821E-05
   393  8.326789393E-05
   394  7.210471452E-04
   395 -2.473128487E-05
   396  2.592898791E-05
   397 -6.194371908E-05
   398 -6.925775655E-06
   399 -4.608190772E-05
   400  2.312893025E-04
   401  1.583541518E-03
   402  1.931857456E-05
   403  7.090243223E-05
   404  9.661136302E-05
   405  1.968821537E-03
   406  3.584610579E-05
   407 -8.764599907E-05
   408  6.376474312E-04
   409  2.565995233E-05
   410  8.273294739E-06
   411 -1.672078420E-05
   412 -3.897653359E-04
   413 -1.388377004E-05
   414  1.043672249E-04
   415  7.288604171E-04
   416  5.480817869E-05
   417  6.709517134E-05
   418  7.090126712E-06
   419  9.024785087E-04
   420 -4.701558965E-05
   421  2.366179314E-04
   422  1.609245061E-03
   423 -6.183179407E-06
   424 -8.416231349E-05
   425  9.014163759E-05
   426  1.949842735E-03
   427 -1.494561656E-05
   428  1.112577074E-04
   429  7.398003346E-04
   430  3.039675908E-05
   431 -8.334744179E-05
   432 -9.333107150E-07
   433  8.616639583E-04
   434  3.692785696E-05
   435 -9.088819239E-05
   436  6.744711142E-04
   437  2.215950883E-05
   438 -1.364382021E-05
   439 -1.817393255E-05
   440 -4.120860632E-04
Ene=   -1.0154457009E+01
Spin= Alpha
Occup=   2.0000000
     1 -1.873963308E-03
     2 -1.553803254E-03
     3  8.186053886E-07
     4  2.412730302E-04
     5 -1.415596551E-04
     6  1.004432203E-04
     7 -5.042700296E-05
     8 -4.186635668E-04
     9  2.478719971E-04
    10  2.516547487E-03
    11  4.512177295E-04
    12  1.348169487E-03
    13 -4.531763723E-04
    14  4.517474051E-05
    15 -1.371370750E-05
    16  2.650113980E-04
    17  2.218031681E-04
    18  8.283977547E-06
    19  1.403604604E-01
    20  1.434323881E-02
    21  2.933253970E-03
    22 -2.314740224E-02
    23  9.924199893E-05
    24  7.326921750E-05
    25  2.700195728E-05
    26 -1.652811802E-05
    27 -2.458911985E-05
    28  2.005822004E-04
    29 -1.595881021E-04
    30  5.950947122E-05
    31  1.654990073E-04
    32 -3.749271861E-03
    33 -1.087945397E-03
    34  1.878902581E-03
    35 -1.166253107E-04
    36 -4.840988885E-05
    37  1.069943097E-04
    38 -1.689403814E-05
    39 -1.255528668E-07
    40  2.135803725E-05
    41 -5.604024824E-03
    42  1.263893513E-03
    43  4.793626127E-03
    44 -3.258838282E-03
    45  6.585408923E-05
    46  7.870492463E-05
    47  1.460047481E-05
    48  4.426260258E-06
    49 -9.982455152E-06
    50 -3.673010953E-04
    51 -1.062241512E-04
    52 -2.159307407E-05
    53  9.186760258E-05
    54  3.132693670E-03
    55  1.130700238E-03
    56  2.149197570E-04
    57 -1.023548736E-03
    58 -1.046268435E-05
    59  7.931455396E-06
    60  2.243879594E-07
    61 -4.027912098E-06
    62  8.478295372E-06
    63  5.625936305E-02
    64  4.958976614E-03
    65 -1.114490626E-03
    66 -8.567656279E-03
    67  1.339396339E-04
    68  1.023567634E-04
    69  1.046574917E-05
    70  1.832407407E-06
    71 -4.116885098E-05
    72  1.883625307E-04
    73 -1.069187084E-04
    74 -5.783724310E-06
    75  2.371802793E-04
    76 -3.732155273E-03
    77  1.385820042E-03
    78 -5.325564494E-04
    79  1.725822096E-03
    80 -8.256319491E-05
    81  8.246164463E-05
    82 -1.876287276E-05
    83 -5.469526199E-05
    84  7.010468755E-06
    85 -5.574335309E-03
    86  5.563809531E-03
    87 -2.301235471E-04
    88  5.898936184E-04
    89 -2.140013586E-03
    90 -1.778900837E-03
    91  3.046250572E-04
    92 -4.582568221E-05
    93  7.980293497E-05
    94  1.818870384E-04
    95 -5.407047994E-04
    96  5.008668433E-05
    97 -1.130757689E-04
    98  2.213269033E-03
    99  1.582565346E-03
   100  2.033075354E-04
   101  4.279022267E-04
   102  1.648849842E-04
   103 -1.755143012E-04
   104  3.107905817E-05
   105 -3.008138641E-04
   106  1.016970271E-04
   107  1.506782996E-01
   108  1.872432297E-02
   109 -2.272519112E-03
   110 -2.031518410E-02
   111  4.191214277E-04
   112  3.406038994E-04
   113 -2.177966653E-05
   114 -2.096853724E-05
   115  5.816046772E-06
   116  8.098165850E-05
   117  1.543343046E-04
   118  1.482853506E-04
   119 -4.527298039E-05
   120 -2.686580353E-03
   121  2.106402002E-03
   122  1.244698761E-03
   123 -6.916814979E-04
   124  5.348030745E-05
   125 -6.221058405E-05
   126  1.054114387E-04
   127 -1.613814043E-06
   128  5.616535908E-05
   129 -9.060098025E-02
   130  1.030794611E-02
   131  1.240308841E-02
   132  1.304190265E-03
   133 -4.820709738E-05
   134 -5.026563829E-05
   135  2.447130534E-05
   136  1.259882609E-05
   137 -1.335581036E-05
   138  2.521530663E-04
   139 -1.118312880E-04
   140 -4.149775887E-05
   141  8.054909922E-05
   142 -3.744729180E-03
   143 -1.358038807E-03
   144 -1.051761248E-03
   145  2.668563192E-04
   146 -1.865340404E-05
   147  6.290832931E-05
   148 -1.562661689E-05
   149 -1.623776748E-05
   150 -3.957848819E-05
   151  4.425009086E-04
   152  1.072461057E-03
   153 -3.266976168E-03
   154 -5.299261014E-03
   155 -7.704415548E-04
   156 -6.195642086E-04
   157 -2.518218125E-05
   158 -8.767790505E-05
   159 -7.985957001E-05
   160 -2.501136191E-04
   161  6.662661356E-07
   162  1.459910577E-04
   163  1.704437384E-04
   164  3.971460950E-03
   165  2.128635932E-04
   166 -4.024503480E-04
   167 -5.832195349E-04
   168 -9.496774416E-06
   169 -4.723240439E-05
   170 -1.071311545E-04
   171  5.861736735E-05
   172 -3.885937190E-05
   173  1.037185397E-01
   174  9.306776198E-03
   175 -1.159602884E-02
   176 -2.704970077E-02
   177  2.731771471E-04
   178  2.191388688E-04
   179 -3.195923710E-06
   180  2.653595812E-05
   181  1.451977544E-05
   182  1.189339282E-04
   183  6.467498752E-06
   184 -1.814140821E-04
   185 -9.978643928E-05
   186 -2.619165140E-03
   187  1.863945629E-03
   188 -1.403746378E-03
   189 -4.337025149E-05
   190  1.251177446E-05
   191 -6.419137199E-05
   192 -1.075228276E-04
   193 -1.540012042E-05
   194 -3.903580930E-05
   195 -7.764494984E-02
   196  1.718536754E-03
   197 -1.271698403E-02
   198 -1.127158114E-03
   199  2.360011476E-04
   200  1.882080488E-04
   201  1.038997165E-05
   202  9.016952376E-06
   203  2.469827392E-05
   204  1.285537081E-04
   205 -7.420174337E-05
   206 -7.141004975E-05
   207 -1.562642245E-04
   208 -2.631239498E-03
   209 -6.530125920E-04
   210  9.728450515E-04
   211 -1.863777320E-03
   212 -7.384150991E-06
   213 -1.780383431E-05
   214 -4.341113135E-05
   215  1.043240846E-04
   216 -4.849361961E-05
   217 -7.249819539E-02
   218 -7.917436009E-03
   219 -1.095730052E-03
   220 -8.082370744E-03
   221  4.067892770E-01
   222  3.346537986E-01
   223 -1.032710734E-05
   224  4.168552592E-06
   225 -8.902521415E-06
   226  1.471134570E-02
   227  8.013672238E-04
   228 -1.484610369E-04
   229  2.676244925E-04
   230 -1.242527677E-02
   231  3.629608721E-03
   232 -6.800665472E-04
   233  1.004994555E-03
   234  2.402204706E-04
   235 -2.752236016E-04
   236  5.673461050E-05
   237 -4.698894025E-04
   238  1.841895251E-04
   239 -6.528151351E-02
   240  1.237482432E-02
   241 -2.825284372E-03
   242  5.203145433E-03
   243  1.534941515E-01
   244  1.262680013E-01
   245  7.025567599E-06
   246  8.969370591E-06
   247  4.156103790E-06
   248  5.689867817E-03
   249 -1.253118919E-04
   250 -2.669908456E-04
   251 -1.961826788E-04
   252 -6.322863524E-03
   253 -7.872922934E-04
   254 -1.806166372E-03
   255 -1.391269583E-03
   256 -4.694598164E-06
   257 -8.915455510E-05
   258 -2.131769478E-04
   259  1.078915714E-04
   260 -1.169802393E-04
   261 -5.918466571E-02
   262 -6.105857962E-03
   263 -1.080379197E-02
   264 -6.880518056E-03
   265  3.575899766E-01
   266  2.941775989E-01
   267  5.808466052E-06
   268 -1.192304158E-05
   269  4.239517857E-06
   270  1.295741259E-02
   271 -5.757870662E-05
   272  6.652080898E-04
   273 -3.635424593E-04
   274 -1.121040583E-02
   275 -1.757367362E-04
   276  3.032616168E-03
   277 -1.807197013E-03
   278  6.208845391E-05
   279 -2.257048009E-05
   280  4.263754977E-04
   281  3.509554853E-04
   282  4.945975776E-05
   283 -6.335119291E-02
   284 -2.233903523E-03
   285  1.210663622E-02
   286 -6.038381747E-03
   287  4.011975169E-05
   288 -3.764504305E-04
   289 -2.143987291E-03
   290 -1.141252126E-04
   291 -5.654871261E-05
   292  5.271448601E-05
   293  6.869951806E-04
   294  3.437916926E-05
   295 -2.145343231E-04
   296 -2.470138284E-03
   297  3.934048243E-06
   298 -1.495031418E-05
   299  1.347141758E-04
   300  1.865285655E-04
   301 -3.592024904E-06
   302 -5.209098222E-05
   303 -2.098332826E-03
   304 -5.514334456E-05
   305 -7.271739458E-06
   306  5.503360753E-05
   307  9.043793407E-04
   308  4.270201116E-05
   309 -2.932416634E-04
   310 -2.542929219E-03
   311 -9.869365252E-05
   312  9.449020681E-05
   313  7.366765286E-05
   314  2.525767155E-04
   315  4.746148727E-05
   316 -4.279173136E-04
   317 -2.298138035E-03
   318 -1.186667380E-04
   319 -7.549484258E-05
   320  7.024640347E-05
   321  5.816994435E-04
   322  1.138200839E-04
   323 -9.434318010E-04
   324 -3.279985117E-03
   325  9.015377480E-05
   326 -2.334069894E-05
   327 -1.776554580E-04
   328  6.774295924E-04
   329  9.643538079E-05
   330 -7.909890592E-04
   331 -2.615552633E-03
   332  1.750340791E-05
   333  1.388424776E-04
   334  1.294437060E-04
   335  5.512166802E-05
   336  3.121720754E-06
   337 -2.341205052E-05
   338 -1.913164521E-03
   339 -2.846785308E-05
   340  4.001338717E-05
   341  2.609435388E-05
   342  9.102023515E-04
   343  2.345302060E-06
   344  3.013412024E-06
   345 -1.981135645E-03
   346  8.381107335E-06
   347  4.384982610E-06
   348  5.479537996E-05
   349  7.913630761E-04
   350  7.508755862E-05
   351 -5.585493180E-04
   352 -3.007159320E-03
   353  1.281028387E-05
   354 -1.000331466E-05
   355 -1.595952125E-04
   356  1.245369889E-03
   357  6.856376875E-05
   358 -6.310246341E-04
   359 -2.248262180E-03
   360 -7.436772092E-05
   361 -1.410582798E-04
   362  5.111769333E-05
   363  9.330003815E-04
   364  6.138259183E-05
   365 -5.873348129E-04
   366 -2.215319353E-03
   367 -1.448129182E-04
   368 -4.083087763E-05
   369 -1.365590980E-05
   370  1.234951984E-03
   371  6.536124407E-05
   372 -4.641033765E-04
   373 -3.016478104E-03
   374  8.195936108E-05
   375 -7.286884771E-05
   376 -8.872279339E-05
   377  1.347702452E-03
   378  1.617405513E-04
   379 -2.096911821E-03
   380  2.939707640E-03
   381  3.595656045E-04
   382  1.110103936E-03
   383  8.290463729E-04
   384  1.018022569E-03
   385  1.424993033E-04
   386 -1.932192463E-03
   387  1.593028342E-03
   388  7.543125993E-04
   389 -6.147012029E-05
   390 -1.197000886E-03
   391  6.477276980E-04
   392  1.484477566E-04
   393 -2.016157248E-03
   394  2.741230718E-03
   395 -4.318847652E-05
   396 -1.239372551E-03
   397  6.974912550E-04
   398  4.922435618E-04
   399  6.080735730E-05
   400 -6.968367794E-04
   401 -2.624209893E-04
   402  3.137464970E-04
   403 -1.960347532E-05
   404 -4.272400747E-04
   405 -1.592740664E-04
   406  5.942068979E-05
   407 -7.383869801E-04
   408  5.720169862E-04
   409 -5.024037531E-04
   410  1.310161412E-04
   411 -1.241293219E-04
   412 -9.634003780E-04
   413  6.266016766E-05
   414 -7.592030527E-04
   415  6.119383862E-04
   416  4.297889090E-05
   417 -4.404656552E-04
   418  3.024281935E-04
   419 -8.140100067E-04
   420  1.269331883E-04
   421 -1.694672017E-03
   422  1.277699471E-03
   423  7.390934394E-04
   424 -1.304234709E-04
   425 -9.921356274E-04
   426  5.029165904E-04
   427  1.452582212E-04
   428 -1.856218287E-03
   429  2.548158158E-03
   430  4.108871686E-04
   431  8.791467759E-04
   432  8.029946877E-04
   433  7.535155814E-04
   434  1.287647713E-04
   435 -1.754015587E-03
   436  2.313926857E-03
   437 -1.205660817E-03
   438  1.220179176E-04
   439 -3.003712682E-04
   440  7.275115813E-05
Ene=   -1.0154455642E+01
Spin= Alpha
Occup=   2.0000000
     1 -2.256630994E-03
     2 -1.908149095E-03
     3 -3.521797001E-05
     4  2.798165611E-04
     5 -1.660566616E-04
     6  6.800439727E-04
     7  1.296882723E-04
     8 -4.763568795E-04
     9  2.909237894E-04
    10 -2.583385021E-03
    11 -1.216110327E-03
    12  1.333462762E-03
    13 -8.611212070E-04
    14  4.602126470E-05
    15 -2.629612114E-05
    16  3.248336651E-04
    17  2.803898760E-04
    18  5.005871452E-05
    19  8.190466498E-02
    20  5.148674729E-03
    21 -1.338322164E-02
    22  4.118147752E-03
    23  2.857366428E-04
    24  2.386407184E-04
    25  1.211275420E-05
    26  6.144231070E-09
    27 -2.330296661E-05
    28 -8.391177017E-05
    29 -1.032307156E-04
    30  7.287287462E-06
    31  1.877116152E-04
    32 -2.797776186E-04
    33  2.871379443E-04
    34  1.334901692E-03
    35 -5.579187138E-04
    36 -5.024680868E-05
    37  7.346485265E-05
    38  5.213346859E-06
    39 -6.489797786E-05
    40  5.816004054E-06
    41 -1.256607316E-02
    42 -4.167264855E-03
    43  2.143576408E-03
    44  1.590339495E-03
    45  3.842853934E-06
    46  4.827220430E-06
    47 -1.433542177E-05
    48  1.551278451E-05
    49 -1.260772730E-05
    50 -2.450694638E-05
    51  7.589590749E-05
    52 -8.389943793E-05
    53  7.053323670E-05
    54  2.048671780E-04
    55 -7.533461147E-04
    56  8.389241136E-04
    57 -7.237165327E-04
    58  1.633472704E-05
    59  1.530924227E-05
    60 -4.295360889E-06
    61  1.274246271E-05
    62  9.531975595E-06
    63  4.773116093E-03
    64  2.454861683E-03
    65 -2.001285653E-03
    66  8.801870950E-04
    67 -2.797490755E-04
    68 -2.349647595E-04
    69 -1.562138922E-05
    70  4.813724347E-06
    71  1.443512098E-05
    72  1.128582343E-04
    73  1.189740974E-04
    74 -3.480079535E-05
    75 -1.380153040E-04
    76 -2.388742858E-04
    77 -1.271045774E-03
    78 -1.878563112E-04
    79 -1.070859583E-04
    80  2.669571964E-05
    81 -9.312066786E-05
    82 -1.813282628E-05
    83  4.937547185E-06
    84 -9.988729013E-06
    85  1.179561204E-02
    86  1.335147153E-03
    87  1.574221486E-03
    88 -4.697965877E-03
    89  2.030408908E-03
    90  1.721051929E-03
    91 -2.710962909E-04
    92  6.658219271E-05
    93 -9.105238790E-05
    94 -6.755142596E-04
    95  4.457609460E-04
    96 -1.725197736E-04
    97  1.954074256E-04
    98  2.968291885E-03
    99 -1.041134976E-03
   100  1.171125110E-03
   101 -1.014723193E-03
   102 -1.427317987E-04
   103  1.848318288E-04
   104 -3.300418059E-05
   105  2.885183804E-04
   106 -1.279695982E-04
   107 -6.309429473E-02
   108  1.475164901E-02
   109 -3.613076341E-03
   110  6.291408314E-03
   111  2.024134110E-05
   112  1.630527016E-05
   113 -2.942661153E-05
   114  2.789154046E-05
   115 -2.162943981E-05
   116  6.732492135E-06
   117  2.241300728E-04
   118 -2.145611107E-04
   119  1.658416064E-04
   120 -1.671288779E-04
   121 -1.654886563E-03
   122  1.929109940E-03
   123 -1.424813256E-03
   124  3.218477702E-05
   125 -4.309463610E-05
   126 -6.194524804E-05
   127 -1.409683593E-04
   128  2.579374754E-05
   129 -6.706343852E-03
   130  8.062391915E-03
   131 -6.806675106E-03
   132  5.773231381E-03
   133  3.498908078E-06
   134  2.113395189E-06
   135 -1.526826972E-06
   136  4.514140647E-06
   137 -4.198757374E-06
   138  1.721496045E-05
   139  1.643995575E-05
   140 -3.031298050E-05
   141  3.044538477E-05
   142 -2.817385601E-04
   143  3.816162950E-04
   144 -6.002453788E-04
   145  3.835144749E-04
   146  5.209079252E-06
   147 -1.198280222E-05
   148 -2.632745033E-05
   149 -5.785924651E-05
   150  4.377834370E-06
   151 -6.506975930E-04
   152 -1.935940311E-03
   153  1.599273787E-03
   154 -1.713641694E-03
   155 -1.009883468E-04
   156 -8.320550566E-05
   157 -2.449252718E-05
   158  9.980222744E-06
   159 -2.534727955E-05
   160 -3.154096312E-06
   161  1.109084625E-04
   162 -9.145255291E-05
   163  1.006144107E-04
   164  2.213311361E-04
   165 -1.145562416E-03
   166  1.122848723E-03
   167 -9.336470133E-04
   168 -2.430454783E-05
   169 -2.478387932E-05
   170 -7.582010266E-06
   171 -8.697332692E-06
   172 -1.985335333E-05
   173  9.470321333E-03
   174  2.073562042E-03
   175 -1.852063399E-03
   176 -8.212228546E-04
   177 -2.579723897E-04
   178 -2.153924391E-04
   179 -1.521431157E-05
   180 -1.354753651E-05
   181 -1.178528047E-05
   182  8.239689109E-05
   183  9.611034866E-05
   184  1.177301351E-04
   185  1.112712383E-04
   186 -5.157784274E-05
   187 -1.663476703E-03
   188 -4.179808035E-04
   189 -1.977783489E-05
   190 -3.371234921E-08
   191  4.963485691E-05
   192  3.431924968E-05
   193 -6.640571091E-05
   194  5.264795138E-05
   195  1.758388487E-02
   196  1.612013324E-03
   197  7.599012825E-03
   198  4.062925135E-03
   199  2.990901824E-04
   200  2.483946765E-04
   201  8.891827274E-06
   202  2.149852109E-05
   203  9.396638579E-06
   204 -6.549415484E-05
   205 -6.019476745E-05
   206 -1.642147416E-04
   207 -9.961035950E-05
   208 -3.251849292E-04
   209  6.588636584E-04
   210  1.432844068E-03
   211 -9.923533916E-04
   212  3.927926468E-05
   213 -5.437171460E-05
   214 -7.679001433E-05
   215  2.751926120E-05
   216 -3.388417821E-05
   217 -2.802017996E-02
   218 -5.049002266E-03
   219 -4.566896343E-03
   220 -7.026000279E-03
   221 -3.755911531E-01
   222 -3.089995975E-01
   223  1.865076919E-06
   224  3.354061282E-06
   225  1.761045018E-06
   226 -1.336004933E-02
   227 -6.987166830E-04
   228  1.236549408E-04
   229 -2.214327983E-04
   230  8.839725739E-03
   231 -1.915859608E-03
   232  2.824965506E-04
   233 -4.294499524E-04
   234 -1.968295411E-04
   235  2.202201421E-04
   236 -2.666190820E-05
   237  3.912200755E-04
   238 -1.269330121E-04
   239  3.684770201E-03
   240  1.320718792E-03
   241 -1.325433626E-03
   242  1.657070981E-03
   243  1.955669670E-02
   244  1.608840279E-02
   245 -3.876118557E-06
   246  5.147033771E-06
   247 -3.205835642E-06
   248  7.132999158E-04
   249 -1.104695076E-05
   250 -3.504897016E-05
   251 -2.052441339E-05
   252 -6.634111519E-04
   253  2.470246822E-06
   254 -2.408824038E-04
   255 -7.513913270E-05
   256  1.012084619E-05
   257  9.806787610E-06
   258 -1.704555572E-05
   259  4.783315875E-05
   260 -7.885498541E-06
   261 -4.301026155E-03
   262  8.262541575E-04
   263 -1.963718859E-03
   264  4.544541064E-04
   265  4.188730922E-01
   266  3.446059186E-01
   267 -1.139101977E-06
   268 -4.790171014E-06
   269 -1.447262682E-06
   270  1.493367210E-02
   271 -5.323048518E-05
   272  7.297721286E-04
   273 -4.042724815E-04
   274 -1.025509650E-02
   275  1.446440847E-05
   276  2.079933918E-03
   277 -1.281405523E-03
   278  6.571660912E-05
   279 -9.878053804E-06
   280  4.283551989E-04
   281  3.788292456E-04
   282  2.346744959E-05
   283 -1.309517824E-02
   284  1.390241326E-03
   285  1.525456380E-04
   286 -2.231524818E-04
   287  6.482704077E-05
   288 -4.415836692E-04
   289 -1.071106874E-03
   290 -1.317542649E-04
   291 -6.415560452E-05
   292  7.652266512E-05
   293 -1.198937183E-03
   294  7.419374724E-05
   295 -7.029250906E-04
   296 -5.703990481E-04
   297  6.476654690E-06
   298  1.826544172E-05
   299  1.697015148E-04
   300 -3.673372473E-04
   301 -9.643743087E-07
   302  2.861885274E-06
   303 -1.730264727E-04
   304  2.848010514E-05
   305 -3.218378284E-05
   306  2.811879011E-05
   307  7.582167678E-05
   308 -7.009331133E-05
   309  6.712501631E-04
   310  2.470374766E-04
   311  7.275663932E-05
   312 -1.009336557E-04
   313 -9.201624778E-05
   314  4.951224511E-04
   315 -6.071550351E-05
   316  4.089734433E-04
   317  7.486909768E-04
   318  1.151127890E-04
   319  6.091783772E-05
   320 -7.247078096E-05
   321  1.290881955E-03
   322  6.354621975E-06
   323 -4.970939653E-05
   324 -1.940997116E-04
   325  1.551374870E-04
   326 -1.576593312E-04
   327  1.076858360E-04
   328  5.589412777E-05
   329  5.483299487E-06
   330 -4.782506705E-05
   331 -1.402290800E-04
   332  1.544180209E-04
   333 -1.513084981E-04
   334  1.275681216E-04
   335  6.522294618E-05
   336 -7.384740024E-06
   337  2.472879744E-04
   338 -6.341783458E-04
   339  1.637061092E-05
   340  7.947862841E-06
   341  1.843279043E-05
   342 -7.079102148E-04
   343  1.096370392E-05
   344 -2.731595733E-04
   345  3.428033963E-04
   346  1.208338196E-06
   347 -2.578248594E-05
   348  9.020336647E-06
   349  7.688655700E-04
   350 -6.906816890E-05
   351  6.997413787E-04
   352  3.478929933E-04
   353  3.328886557E-05
   354  4.538881131E-05
   355  1.521784748E-04
   356  1.106224755E-03
   357 -4.889024741E-05
   358  2.652231520E-04
   359  5.877224846E-04
   360  1.060328422E-04
   361  9.685978490E-05
   362  1.655636728E-05
   363  1.776701991E-03
   364  5.857220861E-05
   365 -3.503541989E-04
   366 -9.273813340E-04
   367 -1.133258273E-04
   368 -1.088324214E-04
   369 -7.296888705E-06
   370 -1.650966715E-03
   371  8.040653336E-05
   372 -7.863826897E-04
   373 -7.891962768E-04
   374  5.952762715E-05
   375 -1.294865606E-04
   376 -1.057196949E-04
   377 -9.042174554E-04
   378 -1.258749818E-04
   379  1.863125609E-03
   380 -3.176125005E-03
   381 -3.169053070E-04
   382 -1.024619528E-03
   383 -7.614609763E-04
   384 -2.049279334E-03
   385 -1.199866781E-04
   386  1.831975655E-03
   387 -2.863733263E-03
   388 -6.726868636E-04
   389  4.918628709E-05
   390  1.128246803E-03
   391 -1.278600703E-03
   392 -1.521970680E-04
   393  2.023499856E-03
   394 -3.581848094E-03
   395  1.309421133E-05
   396  1.158630055E-03
   397 -6.580990246E-04
   398 -3.135717405E-03
   399  6.791754637E-06
   400 -8.909346610E-05
   401  2.595392162E-05
   402  4.287559779E-05
   403 -2.974480820E-06
   404 -5.236734128E-05
   405  9.001949066E-06
   406  3.360933113E-05
   407 -2.559595395E-04
   408  5.208143761E-04
   409 -8.221051916E-05
   410 -3.143041107E-06
   411 -3.623416601E-05
   412  1.082329079E-03
   413 -1.857764043E-05
   414  6.110058525E-05
   415 -3.014774711E-04
   416  1.304989481E-05
   417 -2.680064712E-05
   418  5.069024000E-05
   419 -1.064228255E-03
   420  1.356360867E-04
   421 -2.036561406E-03
   422  2.995441089E-03
   423  8.804674428E-04
   424 -1.868902829E-04
   425 -1.155575039E-03
   426  1.301612700E-03
   427  1.425038644E-04
   428 -2.080390896E-03
   429  3.450468731E-03
   430  4.787515405E-04
   431  1.012188141E-03
   432  9.476368515E-04
   433  2.013194665E-03
   434  1.692289464E-04
   435 -2.242916745E-03
   436  3.899180079E-03
   437 -1.426429514E-03
   438  1.736222456E-04
   439 -3.707521357E-04
   440  3.160032575E-03
Ene=   -1.0154453827E+01
Spin= Alpha
Occup=   2.0000000
     1  6.493352333E-04
     2  5.612220126E-04
     3 -9.951383015E-06
     4 -9.148893159E-05
     5  2.429923468E-05
     6 -3.785795533E-04
     7  6.644630620E-05
     8  2.035724302E-04
     9  3.312078429E-05
    10  2.577951119E-03
    11 -8.444362572E-04
    12 -1.095438275E-03
    13 -8.652114658E-04
    14 -3.991918145E-05
    15 -1.003631345E-05
    16 -8.946651404E-05
    17 -9.057330727E-05
    18 -1.695485305E-08
    19  4.437573202E-03
    20  4.245555545E-03
    21  1.049649145E-02
    22 -1.028591537E-02
    23 -1.328588973E-04
    24 -1.147523471E-04
    25 -2.573255127E-06
    26 -9.060555573E-06
    27  5.736753846E-07
    28  1.303576941E-04
    29  4.340864157E-05
    30  3.804160980E-05
    31 -2.031881377E-05
    32 -1.301341455E-03
    33  1.459798114E-04
    34  2.646213467E-04
    35  8.055687442E-04
    36  2.795385176E-05
    37 -1.186677420E-05
    38  3.116779564E-05
    39 -1.557478258E-05
    40  4.080142322E-05
    41  5.223961704E-03
    42  4.818189461E-05
    43 -7.689257162E-04
    44 -4.253552327E-03
    45  2.326762466E-05
    46  2.775847039E-05
    47 -8.909580094E-06
    48 -1.839030165E-05
    49 -1.220418045E-05
    50 -1.292644158E-04
    51  3.863263511E-05
    52  1.004866594E-04
    53  7.947422694E-05
    54  1.106559781E-03
    55 -3.597816051E-04
    56 -1.005552219E-03
    57 -8.286831418E-04
    58  6.679159855E-06
    59  9.330709157E-06
    60 -2.608312368E-06
    61 -3.955488263E-06
    62 -2.343633902E-05
    63  1.975184727E-02
    64  3.655011240E-03
    65  2.183910884E-03
    66 -1.828961472E-03
    67 -1.269176864E-04
    68 -1.098146207E-04
    69 -7.500339053E-06
    70 -3.515087853E-06
    71 -4.375301830E-06
    72  1.274535849E-04
    73  4.828632329E-05
    74  2.966938797E-05
    75 -7.288635207E-06
    76 -1.309631310E-03
    77 -1.808616794E-04
    78  6.620033885E-04
    79  5.231571665E-04
    80 -2.986623431E-06
    81 -1.746885049E-05
    82  5.383664223E-05
    83 -1.050357014E-06
    84  2.354445681E-05
    85  4.696390714E-03
    86  1.918983348E-03
    87 -2.702762441E-03
    88 -2.635403178E-03
    89  5.693868870E-04
    90  4.934639003E-04
    91 -7.665307370E-05
    92 -1.356966954E-05
    93 -3.269427898E-05
    94 -3.530100095E-04
    95  1.373857424E-04
    96  1.177463274E-04
    97  9.490511537E-05
    98  2.475024968E-03
    99 -5.186537916E-04
   100 -1.434440209E-03
   101 -6.059083713E-04
   102 -3.558710162E-05
   103  5.943767698E-05
   104 -1.302767791E-05
   105  9.590514295E-05
   106 -3.397803226E-06
   107  7.691903162E-03
   108  1.445358048E-02
   109 -7.557208134E-04
   110 -2.237143860E-03
   111 -1.960954030E-04
   112 -1.661087774E-04
   113 -1.003795876E-06
   114 -3.112392827E-07
   115  2.462609145E-06
   116  1.187935388E-04
   117 -2.447111444E-05
   118 -1.086442693E-05
   119  4.063872974E-06
   120 -7.927274270E-04
   121 -9.443178809E-05
   122  3.565819130E-04
   123  6.982443191E-04
   124 -1.101498127E-05
   125  4.805247247E-05
   126  2.317655535E-05
   127 -2.420623837E-05
   128 -3.498087745E-06
   129 -1.787495028E-03
   130 -3.004088125E-03
   131 -1.912635529E-03
   132  7.230548251E-04
   133  3.263218421E-04
   134  2.700034445E-04
   135  2.274949205E-05
   136 -6.535894704E-07
   137 -2.970079457E-05
   138 -3.388418140E-05
   139 -1.688057302E-04
   140  1.401455076E-05
   141  2.325215091E-04
   142 -1.314626781E-03
   143 -8.277991698E-04
   144 -1.516949175E-03
   145 -9.890467333E-04
   146 -7.157123617E-05
   147  1.133289625E-04
   148 -4.413301268E-06
   149 -4.059569068E-05
   150  1.887813932E-05
   151 -1.424295742E-02
   152 -3.982652188E-03
   153 -2.938998884E-03
   154  1.312784938E-03
   155 -2.899916944E-03
   156 -2.443481429E-03
   157 -1.378728555E-04
   158 -3.167339585E-04
   159 -2.431005573E-04
   160  7.436468976E-04
   161  2.593510517E-04
   162  5.548442285E-04
   163  3.987781521E-04
   164 -2.003959241E-03
   165 -1.124427095E-03
   166 -1.736149858E-03
   167 -7.988294815E-04
   168 -5.748070518E-06
   169 -1.774534817E-04
   170 -4.194432189E-04
   171  2.190301302E-04
   172 -2.297775644E-04
   173  1.251842093E-01
   174  1.213658403E-02
   175  1.047307681E-02
   176 -1.708534344E-03
   177  2.665461845E-04
   178  2.190021724E-04
   179 -3.582687236E-05
   180 -1.306523890E-06
   181 -1.711828332E-05
   182 -3.534959005E-06
   183  2.799791188E-04
   184  9.936786005E-06
   185  1.228484380E-04
   186 -9.990274303E-04
   187 -1.023540781E-03
   188 -1.564450381E-03
   189 -1.911214594E-03
   190  5.868243307E-05
   191 -7.066251051E-05
   192  4.192851000E-05
   193 -1.089154176E-04
   194  3.595098448E-05
   195 -4.134111666E-02
   196  1.110364164E-02
   197 -4.490741869E-03
   198  4.886170355E-03
   199  2.594798690E-04
   200  2.132055340E-04
   201 -4.394711764E-07
   202 -3.899281534E-05
   203  1.039048016E-05
   204 -1.946570304E-06
   205  9.642861668E-06
   206  2.980166031E-04
   207 -8.640215491E-05
   208 -9.852822733E-04
   209 -3.816753570E-04
   210 -2.301243607E-03
   211 -1.359240791E-03
   212  3.874590042E-05
   213 -4.432837292E-06
   214  1.258607716E-04
   215  7.837519471E-05
   216  1.916298759E-05
   217 -3.995269919E-02
   218 -3.154814664E-03
   219  1.092007040E-02
   220 -6.181298266E-03
   221 -1.017870794E-01
   222 -8.374420312E-02
   223 -3.611974604E-06
   224 -5.397689424E-06
   225 -2.023352136E-06
   226 -3.547651917E-03
   227 -1.737531646E-04
   228  3.656301057E-05
   229 -5.158419999E-05
   230  1.532224079E-03
   231 -2.703934915E-05
   232  9.460741896E-05
   233  6.005864158E-05
   234 -4.803140607E-05
   235  4.125275002E-05
   236 -2.922156792E-05
   237  7.719840906E-05
   238 -5.842075243E-05
   239 -1.706151433E-02
   240  4.825220898E-03
   241  7.448573927E-04
   242  2.661587988E-03
   243  5.412614556E-01
   244  4.452916608E-01
   245  4.953199065E-06
   246  6.098279396E-06
   247  1.929335999E-06
   248  1.935381775E-02
   249 -3.655380197E-04
   250 -8.217635726E-04
   251 -6.229808601E-04
   252 -1.393347654E-02
   253 -1.011011832E-03
   254 -2.617370771E-03
   255 -2.188652302E-03
   256 -2.531189290E-05
   257 -2.361664113E-04
   258 -5.859308108E-04
   259  3.005343226E-04
   260 -3.037291290E-04
   261 -3.142381307E-02
   262 -8.410359449E-04
   263 -2.765552499E-03
   264 -2.705452443E-03
   265 -1.165401883E-01
   266 -9.588153759E-02
   267 -3.874801186E-06
   268 -4.909431575E-06
   269 -2.041776859E-06
   270 -4.073431594E-03
   271  1.543224945E-05
   272 -1.839443885E-04
   273  1.083166635E-04
   274  1.890958222E-03
   275  2.990838063E-05
   276 -3.673225393E-05
   277  1.521466242E-04
   278 -5.300035506E-06
   279  1.383632135E-05
   280 -1.177994138E-04
   281 -6.552447365E-05
   282 -2.822106732E-05
   283 -1.704760792E-02
   284  1.957615204E-04
   285  5.579429588E-03
   286 -9.368590908E-04
   287 -3.545714276E-05
   288  4.443203027E-04
   289 -8.035689355E-04
   290  5.843406787E-05
   291  3.207478422E-06
   292 -8.880958930E-06
   293  1.133425659E-05
   294 -2.068078741E-05
   295  2.598370958E-05
   296  4.634642052E-06
   297  8.584115069E-06
   298  1.191047732E-05
   299 -4.581461481E-05
   300  1.294081800E-03
   301 -1.123106810E-06
   302 -1.996533565E-05
   303 -7.336391287E-04
   304  9.660376299E-06
   305  3.906684790E-05
   306  3.752611885E-05
   307  3.151799549E-04
   308 -1.778875721E-05
   309 -8.246325951E-07
   310 -1.575239862E-05
   311  3.524835638E-05
   312 -1.475329398E-05
   313 -1.892091145E-05
   314  1.249686574E-03
   315 -3.298782887E-05
   316  4.281525901E-04
   317 -8.336191540E-04
   318  1.817522313E-05
   319  3.813043186E-05
   320 -3.397683834E-05
   321  1.937640713E-07
   322 -5.205137970E-05
   323  5.821599256E-04
   324 -5.019490111E-04
   325 -4.771107176E-05
   326  3.872977661E-06
   327  5.638285568E-05
   328  1.468257566E-03
   329 -3.248940603E-05
   330  1.030618880E-04
   331 -3.608314163E-05
   332 -3.598146197E-06
   333 -1.924308448E-05
   334 -3.065013062E-05
   335  2.145131953E-03
   336  8.372547154E-05
   337 -6.902538298E-04
   338 -1.498694732E-03
   339 -1.459664681E-04
   340  1.220643027E-04
   341  9.949088273E-05
   342 -6.717381264E-04
   343  8.322743288E-05
   344 -6.794756994E-04
   345 -1.519995324E-03
   346 -1.238135825E-06
   347 -2.744900788E-05
   348  2.127213894E-04
   349 -7.054455261E-04
   350  7.220826671E-05
   351 -6.509901705E-04
   352 -1.387729905E-03
   353  2.197897042E-04
   354  7.543098285E-05
   355  4.948085922E-06
   356 -1.824448714E-04
   357  5.684934200E-05
   358 -4.100282616E-04
   359 -1.252161183E-03
   360  1.456793702E-04
   361 -5.490479084E-06
   362  1.746039064E-04
   363 -7.513460335E-04
   364  5.488569057E-05
   365 -3.991470756E-04
   366 -1.219269435E-03
   367 -6.459562907E-05
   368  2.209262715E-04
   369  7.537443771E-06
   370 -6.417183794E-04
   371  6.904943140E-05
   372 -6.213622393E-04
   373 -1.384181982E-03
   374  1.100693487E-04
   375  1.922581029E-04
   376 -7.588796013E-05
   377 -1.825124681E-04
   378 -5.801578724E-05
   379  6.731496037E-04
   380 -1.507169919E-03
   381 -1.173986833E-04
   382 -2.805853776E-04
   383 -2.206584474E-04
   384 -2.219051051E-03
   385 -2.863271261E-05
   386  5.122430770E-04
   387 -1.233246860E-03
   388 -1.735865530E-04
   389  1.456423052E-05
   390  3.136043080E-04
   391 -5.597647732E-04
   392 -1.474909631E-05
   393  4.093577813E-04
   394 -8.351916390E-04
   395  2.804896775E-05
   396  3.023014287E-04
   397 -1.684053217E-04
   398 -4.237530471E-04
   399  1.784073422E-04
   400 -2.620350605E-03
   401  3.509672719E-03
   402  1.174119048E-03
   403  1.261840723E-05
   404 -1.482569759E-03
   405  1.525500739E-03
   406  2.017958401E-04
   407 -2.777773569E-03
   408  4.527734537E-03
   409 -1.796232997E-03
   410  4.421696082E-04
   411 -4.538642151E-04
   412  2.835695738E-03
   413  2.028207708E-04
   414 -2.784795033E-03
   415  4.549276678E-03
   416  1.425823316E-04
   417 -1.574255498E-03
   418  1.064194491E-03
   419  2.893285507E-03
   420 -3.318391676E-05
   421  5.825148516E-04
   422 -1.323739044E-03
   423 -2.467588039E-04
   424  6.470640053E-05
   425  3.213453562E-04
   426 -5.910340601E-04
   427 -6.311506048E-05
   428  7.472337881E-04
   429 -1.630131538E-03
   430 -1.353012631E-04
   431 -3.152013013E-04
   432 -2.550832825E-04
   433 -2.316276450E-03
   434 -2.069835530E-05
   435  4.883654065E-04
   436 -9.675373732E-04
   437  3.886585324E-04
   438 -2.654240124E-05
   439  8.773095032E-05
   440 -5.509428417E-04
Ene=   -8.7507085217E-01
Spin= Alpha
Occup=   2.0000000
     1 -4.193244704E-02
     2 -6.452613833E-02
     3  8.657831246E-04
     4 -1.042999773E-02
     5  5.681445040E-03
     6  1.648010706E-01
     7  1.339310852E-03
     8 -1.561439813E-02
     9  8.439298789E-03
    10  1.042107927E-01
    11  2.868657578E-04
    12 -9.159615921E-03
    13  5.691311958E-03
    14 -6.522406487E-05
    15  1.038248126E-04
    16  1.982345488E-04
    17  1.050429478E-04
    18 -1.178190865E-05
    19 -3.818132531E-01
    20 -2.537189641E-02
    21  6.806889839E-02
    22 -1.259538379E-02
    23 -3.233167361E-02
    24 -4.965548281E-02
    25  8.916291811E-03
    26 -1.149888785E-02
    27 -5.348558408E-03
    28  1.258317162E-01
    29  1.546239217E-02
    30 -2.000212470E-02
    31 -9.233986488E-03
    32  6.262732048E-02
    33  4.055881582E-03
    34 -6.334385324E-03
    35 -1.732145363E-03
    36  1.042914418E-03
    37 -3.340079512E-03
    38 -1.933346847E-03
    39 -1.453807905E-03
    40 -1.319399901E-03
    41  1.527901915E-01
    42  1.274144025E-02
    43 -2.171350029E-02
    44 -3.950747505E-03
    45 -3.712368280E-02
    46 -5.704347968E-02
    47  8.534128878E-03
    48 -7.675659120E-04
    49 -1.192534795E-02
    50  1.448247758E-01
    51  1.401517191E-02
    52 -1.258853379E-03
    53 -1.959016832E-02
    54  8.668148243E-02
    55  9.165939919E-03
    56 -8.945936820E-04
    57 -1.273540146E-02
    58 -8.933301260E-04
    59  1.491090203E-03
    60 -1.339700106E-04
    61 -5.282158212E-04
    62  9.582744288E-05
    63 -1.950681569E-01
    64 -1.747358292E-02
    65 -2.823300386E-04
    66  2.391062452E-02
    67 -3.232962541E-02
    68 -4.965273065E-02
    69 -3.473277267E-03
    70  1.377435832E-03
    71 -1.504671731E-02
    72  1.258366669E-01
    73 -6.088658898E-03
    74  2.395758394E-03
    75 -2.610470513E-02
    76  6.241716061E-02
    77 -2.812334444E-03
    78  8.943020251E-04
    79 -7.047996525E-03
    80  1.509723822E-03
    81 -1.019629883E-03
    82 -1.879673894E-04
    83  3.858654356E-03
    84 -1.253383407E-03
    85  1.413924535E-01
    86 -9.786033462E-03
    87  3.277591602E-03
    88 -1.981903698E-02
    89 -4.193579884E-02
    90 -6.453128256E-02
    91 -1.113042733E-02
    92  2.036883399E-03
    93 -3.710949691E-03
    94  1.648140259E-01
    95 -1.660491170E-02
    96  3.037018864E-03
    97 -5.616341289E-03
    98  1.041528310E-01
    99 -1.043854028E-02
   100  1.847966022E-03
   101 -2.561425068E-03
   102  6.433369025E-05
   103  3.540987768E-05
   104  4.974060031E-07
   105 -2.332371179E-04
   106  7.681527250E-05
   107 -3.832401017E-01
   108  4.753494391E-02
   109 -1.202452242E-02
   110  4.973072461E-02
   111 -3.434021443E-02
   112 -5.274555432E-02
   113 -1.195306225E-02
   114 -9.331950393E-03
   115  2.883950155E-03
   116  1.335741114E-01
   117 -2.109031510E-02
   118 -1.641031543E-02
   119  5.162049356E-03
   120  6.827170528E-02
   121 -7.052894179E-03
   122 -5.898908245E-03
   123  1.204318377E-03
   124 -2.512992097E-03
   125  1.854752171E-03
   126 -3.653650671E-03
   127  6.205910853E-04
   128 -7.669036742E-04
   129  3.023910544E-01
   130 -3.371513670E-02
   131 -3.177374446E-02
   132  2.574337268E-03
   133 -3.232611224E-02
   134 -4.964744842E-02
   135  1.221430187E-02
   136  8.530588692E-03
   137 -4.280005757E-03
   138  1.258233272E-01
   139  2.120021561E-02
   140  1.484163300E-02
   141 -7.377626657E-03
   142  6.242812012E-02
   143  5.805431870E-03
   144  4.823799818E-03
   145 -1.147162209E-03
   146  1.476415037E-03
   147 -2.369719690E-03
   148  2.728883889E-03
   149 -1.643280801E-05
   150  2.136864886E-03
   151  1.392151457E-01
   152  1.698613242E-02
   153  1.397088936E-02
   154 -2.425434549E-03
   155 -4.192842386E-02
   156 -6.451992478E-02
   157  4.062431746E-03
   158  8.960642130E-03
   159  6.713417181E-03
   160  1.647864997E-01
   161  6.120670568E-03
   162  1.339967389E-02
   163  9.979835292E-03
   164  1.041236237E-01
   165  3.124899281E-03
   166  8.001054909E-03
   167  6.733649510E-03
   168 -1.027127329E-04
   169  3.171906056E-05
   170 -2.162637594E-04
   171  6.796807369E-05
   172 -5.546609768E-05
   173 -3.842705285E-01
   174 -4.584174713E-02
   175 -5.008790590E-02
   176 -1.317883668E-02
   177 -3.433516114E-02
   178 -5.273821083E-02
   179 -8.384540724E-03
   180  1.231286093E-02
   181  4.036128369E-03
   182  1.335642523E-01
   183 -1.481217923E-02
   184  2.166785466E-02
   185  7.194193520E-03
   186  6.809450269E-02
   187 -4.775720638E-03
   188  7.641470084E-03
   189  1.842241143E-03
   190 -1.880536768E-03
   191  3.017903008E-03
   192  3.148230405E-03
   193  1.222247956E-03
   194 -1.282581795E-04
   195  3.031470526E-01
   196 -2.440706028E-02
   197  3.995898080E-02
   198  3.838939434E-03
   199 -3.432989105E-02
   200 -5.272971620E-02
   201  5.002735787E-03
   202 -1.599583564E-03
   203  1.451228016E-02
   204  1.335308050E-01
   205  8.736095529E-03
   206 -2.805486497E-03
   207  2.561985621E-02
   208  6.834927793E-02
   209  3.553244605E-03
   210 -1.083182892E-03
   211  8.493664669E-03
   212  2.923242754E-04
   213  1.980165673E-03
   214 -1.139554404E-04
   215 -4.271685097E-03
   216  1.337781724E-03
   217  2.898406931E-01
   218  2.140189006E-02
   219 -7.571751351E-03
   220  3.796176741E-02
   221 -1.540267600E-02
   222 -2.361542688E-02
   223 -1.002524737E-02
   224  1.810743485E-03
   225 -2.963797372E-03
   226  5.908538110E-02
   227 -1.738612683E-02
   228  3.146080767E-03
   229 -5.168670817E-03
   230  3.444325846E-02
   231 -5.805754580E-03
   232  1.058603168E-03
   233 -1.748855760E-03
   234 -1.497660728E-03
   235  1.803314726E-03
   236 -3.237506369E-04
   237  2.923584337E-03
   238 -1.092545314E-03
   239  1.737418425E-02
   240 -5.111498794E-03
   241  7.363721680E-04
   242 -4.419351338E-03
   243 -1.539686579E-02
   244 -2.360641817E-02
   245  3.356809576E-03
   246  7.911270590E-03
   247  6.215265933E-03
   248  5.905918016E-02
   249  5.848357246E-03
   250  1.372757130E-02
   251  1.076599046E-02
   252  3.448071060E-02
   253  1.948867613E-03
   254  4.670047051E-03
   255  3.579672306E-03
   256  4.938847129E-05
   257  1.263239939E-03
   258  2.959339677E-03
   259 -1.547262672E-03
   260  1.606275169E-03
   261  1.544530243E-02
   262  3.595517759E-03
   263  4.426361288E-03
   264  1.479764126E-03
   265 -1.540008110E-02
   266 -2.361130034E-02
   267  5.427380150E-04
   268 -9.170247290E-03
   269  5.305006175E-03
   270  5.907687178E-02
   271  9.585085024E-04
   272 -1.591745069E-02
   273  9.192007334E-03
   274  3.435948515E-02
   275  3.329730819E-04
   276 -5.321042082E-03
   277  2.989401409E-03
   278 -4.968143311E-04
   279  1.802212902E-04
   280 -2.927588673E-03
   281 -2.528426176E-03
   282 -3.044543823E-04
   283  1.179778087E-02
   284  1.981455847E-03
   285 -5.354385459E-03
   286  7.822045979E-04
   287  1.640225799E-02
   288  2.064556881E-02
   289 -2.513654929E-03
   290  4.340905775E-03
   291 -1.383339712E-03
   292  7.608027595E-04
   293 -6.460007282E-03
   294  1.640612848E-02
   295  2.064183627E-02
   296 -2.404004185E-03
   297 -7.014819084E-04
   298 -3.683152125E-03
   299 -2.699344401E-03
   300 -6.173287863E-03
   301  1.671379002E-02
   302  2.108688535E-02
   303  2.198683748E-03
   304  2.885659853E-03
   305 -2.588732437E-04
   306 -4.033645840E-03
   307  3.054255079E-03
   308  1.640534229E-02
   309  2.061997458E-02
   310 -2.256164979E-03
   311 -1.453556456E-03
   312 -2.900020184E-03
   313 -3.288251943E-03
   314 -7.137780729E-03
   315  1.640132680E-02
   316  2.063363406E-02
   317 -2.238200335E-03
   318 -3.934850041E-04
   319  3.537103602E-03
   320 -2.944914563E-03
   321 -6.664574636E-03
   322  1.776239638E-02
   323  2.236400877E-02
   324 -1.122114325E-03
   325 -3.261608242E-03
   326 -3.351637450E-04
   327  3.720741560E-03
   328 -9.919748130E-03
   329  1.762351215E-02
   330  2.252649737E-02
   331 -1.678445845E-03
   332 -2.098205294E-03
   333 -3.807735160E-03
   334 -2.375260691E-03
   335 -7.498051715E-03
   336  1.640493169E-02
   337  2.060695558E-02
   338 -2.254665725E-03
   339  4.541306537E-03
   340 -1.660369030E-04
   341  8.246624384E-04
   342 -6.607232430E-03
   343  1.640182213E-02
   344  2.063284652E-02
   345 -2.256749474E-03
   346  5.608026738E-04
   347  3.972038669E-03
   348 -2.291065074E-03
   349 -6.772484651E-03
   350  1.776034007E-02
   351  2.235543592E-02
   352 -1.374621202E-03
   353 -3.044828498E-03
   354  9.739051116E-04
   355  3.789018536E-03
   356 -1.026770720E-02
   357  1.762043570E-02
   358  2.253648118E-02
   359 -1.892283829E-03
   360 -7.279279387E-04
   361  4.502597381E-03
   362 -1.932826307E-03
   363 -6.793260895E-03
   364  1.761538889E-02
   365  2.250157652E-02
   366 -1.527850678E-03
   367  4.409264615E-03
   368 -8.382150705E-04
   369  2.091342920E-03
   370 -7.417130854E-03
   371  1.776002700E-02
   372  2.234307454E-02
   373 -9.138917195E-04
   374 -2.234380644E-03
   375  1.326134332E-04
   376  4.423767147E-03
   377 -1.026250615E-02
   378  8.209237638E-03
   379  9.311079031E-03
   380 -4.797268358E-04
   381 -1.115129407E-03
   382 -1.295922774E-03
   383 -1.257207491E-03
   384  1.488889714E-03
   385  8.234118953E-03
   386  9.337487129E-03
   387  4.811655123E-04
   388 -1.635165345E-03
   389  1.971082104E-04
   390  1.355973254E-03
   391  1.863755262E-03
   392  8.206640540E-03
   393  9.339687848E-03
   394 -6.521281177E-04
   395 -6.188294030E-04
   396  1.708925255E-03
   397 -1.098608975E-03
   398  9.338604079E-04
   399  8.232455416E-03
   400  9.310243041E-03
   401  7.416221334E-04
   402 -9.007264158E-04
   403  5.314389678E-04
   404  1.857860193E-03
   405  1.883921193E-03
   406  8.205334734E-03
   407  9.313354124E-03
   408 -4.924734140E-04
   409  1.945322000E-03
   410  9.906884049E-05
   411  8.423699652E-04
   412  9.033233678E-04
   413  8.208430175E-03
   414  9.316243460E-03
   415 -3.099456450E-04
   416  8.829842694E-05
   417  2.030880660E-03
   418 -6.137947607E-04
   419  9.877726556E-04
   420  8.230879510E-03
   421  9.337175626E-03
   422  3.636171280E-04
   423 -1.055885766E-03
   424 -4.047762919E-04
   425  1.808313976E-03
   426  1.790995646E-03
   427  8.207910200E-03
   428  9.337693889E-03
   429 -5.692293006E-04
   430 -5.564070642E-04
   431 -1.878163475E-03
   432 -8.219462514E-04
   433  1.247071964E-03
   434  8.204985630E-03
   435  9.338800012E-03
   436 -7.057048654E-04
   437  1.798055547E-03
   438 -8.033291133E-04
   439  7.945649257E-04
   440  1.159492622E-03
Ene=   -7.9321519584E-01
Spin= Alpha
Occup=   2.0000000
     1 -2.301215482E-02
     2 -3.555777876E-02
     3  1.271182612E-02
     4  1.064816180E-02
     5  9.654495636E-03
     6  9.266956211E-02
     7  2.025683945E-02
     8  1.685470139E-02
     9  1.543294357E-02
    10  5.912622260E-02
    11  8.133488355E-03
    12  7.053906259E-03
    13  6.131680990E-03
    14  8.025399012E-05
    15  6.041884183E-04
    16 -3.595897314E-03
    17  3.526811901E-03
    18 -3.081837644E-03
    19 -2.192515686E-01
    20 -8.734191599E-02
    21  8.249514020E-02
    22 -1.280240803E-01
    23 -1.417641061E-02
    24 -2.185742168E-02
    25  9.030841933E-03
    26  3.811631648E-03
    27 -2.711844759E-03
    28  5.617232079E-02
    29  1.373928711E-02
    30  4.671260172E-03
    31 -5.503886005E-03
    32  3.310792818E-02
    33  6.608303339E-03
    34  1.277548342E-03
    35 -8.533205310E-04
    36  9.208376322E-04
    37 -1.839302406E-03
    38 -8.239507789E-04
    39  1.905540901E-03
    40 -6.638489608E-04
    41  1.160288207E-01
    42  2.317037798E-02
    43 -1.275628617E-02
    44  8.343958596E-03
    45  6.031407604E-06
    46  9.500710186E-06
    47  1.264104734E-02
    48  1.337875674E-02
    49  8.181574164E-03
    50 -3.136849534E-05
    51  2.020615112E-02
    52  2.139251873E-02
    53  1.308105848E-02
    54  6.222497868E-05
    55  7.607869888E-03
    56  7.937979343E-03
    57  4.939083005E-03
    58 -2.308530981E-03
    59 -6.552142722E-04
    60 -4.967999664E-03
    61  3.078686598E-03
    62 -1.342561914E-03
    63 -8.039992320E-03
    64 -2.894759808E-02
    65 -3.108086593E-02
    66 -1.710540675E-02
    67 -2.480807393E-02
    68 -3.825046755E-02
    69  1.094513353E-02
    70  4.442321936E-03
    71 -8.077077520E-03
    72  9.832840622E-02
    73  1.670571594E-02
    74  5.927658277E-03
    75 -1.473101791E-02
    76  5.749435320E-02
    77  4.851769422E-03
    78  3.902278459E-03
    79 -6.312656383E-03
    80  1.613004315E-03
    81 -3.975341907E-03
    82 -8.881665194E-04
    83  1.135024345E-03
    84 -6.729639854E-04
    85  1.810192144E-01
    86 -1.574978977E-02
    87  1.838185057E-02
    88 -2.496211960E-02
    89 -4.026980923E-02
    90 -6.222386184E-02
    91  7.506759180E-03
    92  1.420317863E-02
    93  6.630167714E-03
    94  1.621622134E-01
    95  1.177648980E-02
    96  2.265257722E-02
    97  1.049495411E-02
    98  1.033597197E-01
    99  4.946047010E-03
   100  9.061067759E-03
   101  4.503903793E-03
   102 -6.374409594E-04
   103 -1.359733073E-03
   104 -3.900233103E-03
   105  5.072471011E-04
   106 -3.032467405E-03
   107 -3.826238402E-01
   108  2.063041982E-01
   109 -1.250680140E-01
   110  6.009367559E-02
   111 -3.903550527E-02
   112 -6.019404226E-02
   113 -2.838535386E-03
   114 -5.411161049E-03
   115  7.470649173E-03
   116  1.547619741E-01
   117 -6.682927884E-03
   118 -1.097207872E-02
   119  1.163660768E-02
   120  8.886052396E-02
   121 -4.717259581E-03
   122 -4.697980308E-03
   123  5.238082519E-03
   124 -9.878948924E-04
   125  9.322741932E-04
   126 -3.954290944E-03
   127 -6.068819716E-04
   128 -2.023728694E-03
   129  5.827276052E-01
   130 -9.274032645E-02
   131 -5.321487643E-02
   132  4.163273781E-02
   133  3.899691949E-02
   134  6.012786089E-02
   135 -8.082378232E-03
   136  4.336519478E-03
   137  1.848616438E-02
   138 -1.545696850E-01
   139 -1.533616673E-02
   140  5.373635531E-03
   141  2.999832199E-02
   142 -9.039756400E-02
   143 -7.047096628E-03
   144 -4.392957133E-04
   145  1.002172131E-02
   146 -3.721156971E-03
   147  5.458728831E-03
   148 -7.121354438E-04
   149 -1.528769998E-03
   150  7.787596814E-04
   151 -2.872359717E-01
   152 -3.442688669E-02
   153 -3.797744240E-02
   154 -7.780471110E-04
   155  6.328747783E-02
   156  9.779008309E-02
   157  9.890091988E-03
   158  7.018440702E-03
   159  3.193861751E-03
   160 -2.548449399E-01
   161  1.564575264E-02
   162  1.094643234E-02
   163  4.921149761E-03
   164 -1.626047895E-01
   165  6.724234045E-03
   166  4.868464732E-03
   167  2.163572249E-03
   168 -1.321519642E-03
   169  1.125031032E-03
   170 -1.911046662E-03
   171  1.370920250E-03
   172 -4.729203350E-04
   173  5.890400537E-01
   174  1.051399838E-01
   175  2.916734980E-01
   176  2.137615767E-01
   177  1.420172319E-02
   178  2.189938854E-02
   179  2.623001626E-02
   180  9.875746962E-03
   181  1.479817418E-02
   182 -5.630269929E-02
   183  4.248462308E-02
   184  1.477200644E-02
   185  2.372935418E-02
   186 -3.244028727E-02
   187  1.380003788E-02
   188  3.766637853E-03
   189  6.549143383E-03
   190  2.448247381E-03
   191 -1.637379528E-03
   192  3.605665205E-03
   193 -7.033125587E-03
   194  3.369117487E-03
   195 -2.044264044E-01
   196  8.001410223E-03
   197 -3.427287283E-02
   198 -2.958084774E-02
   199  2.484140007E-02
   200  3.830692906E-02
   201  5.392107398E-03
   202  2.599178508E-02
   203 -3.644033415E-03
   204 -9.850847404E-02
   205  7.414110910E-03
   206  4.192663272E-02
   207 -7.402978831E-03
   208 -5.631006378E-02
   209  2.277745904E-03
   210  1.288932904E-02
   211 -4.387906469E-03
   212  9.364712684E-04
   213  1.179132729E-03
   214  6.721260016E-03
   215  3.790248568E-03
   216  1.291856579E-03
   217 -3.737947984E-01
   218 -1.135210384E-02
   219 -1.364264312E-02
   220 -7.424627639E-02
   221 -2.915190497E-02
   222 -4.491650167E-02
   223 -1.230250847E-02
   224  4.338577075E-03
   225 -2.953124792E-03
   226  1.155600704E-01
   227 -2.126435602E-02
   228  7.116298659E-03
   229 -5.319129748E-03
   230  6.121579069E-02
   231 -4.784522328E-03
   232  1.581115367E-03
   233 -4.301204589E-04
   234 -1.794166891E-03
   235  1.661177280E-03
   236 -6.010460592E-04
   237  2.998971596E-03
   238 -1.994644352E-03
   239 -1.228112027E-01
   240  2.190019752E-02
   241 -6.719722395E-04
   242  6.585354162E-03
   243  4.580670344E-02
   244  7.057855762E-02
   245 -5.564811913E-03
   246 -1.551662821E-02
   247 -1.260912709E-02
   248 -1.816030982E-01
   249 -9.890614677E-03
   250 -2.684020518E-02
   251 -2.162380668E-02
   252 -9.592230938E-02
   253 -1.295486810E-03
   254 -5.405883736E-03
   255 -5.325390037E-03
   256 -2.902964623E-04
   257 -1.995670846E-03
   258 -5.252613156E-03
   259  2.822268979E-03
   260 -2.471602182E-03
   261  2.062399543E-01
   262  1.278364547E-02
   263  2.816428658E-02
   264  2.298696266E-02
   265 -1.665870059E-02
   266 -2.566735288E-02
   267  2.115157830E-03
   268 -5.487730706E-03
   269  5.369623741E-03
   270  6.603672763E-02
   271  3.368442032E-03
   272 -9.684140230E-03
   273  8.959112098E-03
   274  3.491649508E-02
   275  4.883997955E-04
   276 -1.911855697E-03
   277  2.186542972E-03
   278  2.244789227E-04
   279  4.935755771E-04
   280 -2.226625726E-03
   281 -1.136473212E-03
   282 -7.956236649E-04
   283 -7.625158863E-02
   284  2.401984690E-03
   285  1.360152643E-02
   286 -4.783267867E-03
   287  6.038458178E-03
   288  7.510404938E-03
   289  1.385934105E-03
   290  1.609183764E-03
   291  1.921717466E-04
   292  3.152327244E-04
   293  5.158410807E-03
   294  1.219717266E-02
   295  1.403478413E-02
   296 -1.122368048E-04
   297 -2.318299484E-04
   298 -1.975015315E-03
   299 -1.734935401E-03
   300 -7.236411437E-03
   301 -2.062307763E-06
   302 -3.456899904E-05
   303  2.153307305E-04
   304  6.119424064E-04
   305  6.520476329E-04
   306  3.996997873E-04
   307 -2.018245753E-05
   308  1.852581087E-02
   309  2.152481469E-02
   310  9.098784999E-04
   311 -7.892534054E-04
   312 -2.750221364E-03
   313 -2.956181153E-03
   314 -7.494696565E-03
   315  1.339074442E-02
   316  1.612278748E-02
   317  2.037627786E-03
   318  4.928988233E-04
   319  2.779120603E-03
   320 -1.668526022E-03
   321  2.284580683E-03
   322  2.328842775E-02
   323  2.795593161E-02
   324 -3.505382686E-03
   325 -2.971680469E-03
   326  1.397102150E-04
   327  4.528882344E-03
   328  1.523211879E-02
   329  2.705171672E-02
   330  3.248975879E-02
   331 -7.336705471E-03
   332 -2.125544571E-03
   333 -4.779684350E-03
   334 -3.077830627E-03
   335 -1.384527044E-02
   336 -2.559761157E-02
   337 -3.015548495E-02
   338 -2.098890757E-03
   339 -5.717347931E-03
   340  1.173939900E-03
   341 -6.283129494E-04
   342  4.104876181E-03
   343 -2.456982949E-02
   344 -2.904377006E-02
   345 -2.255613204E-03
   346 -6.952043791E-05
   347 -4.396313773E-03
   348  3.628665950E-03
   349  2.581461039E-03
   350 -8.470076723E-03
   351 -1.016241137E-02
   352  1.040781133E-03
   353  2.351640994E-03
   354  4.574969261E-04
   355 -7.708814682E-04
   356 -5.802827975E-03
   357 -9.837993099E-03
   358 -1.182065186E-02
   359  2.502987988E-03
   360  1.456318169E-03
   361 -1.409201134E-03
   362  1.810669233E-03
   363  5.246216072E-03
   364 -1.720970128E-02
   365 -2.070589499E-02
   366  4.819713980E-03
   367 -3.326757862E-03
   368  1.960481779E-03
   369 -1.320088161E-03
   370  8.159725670E-03
   371 -1.482078036E-02
   372 -1.779016212E-02
   373  2.421108308E-03
   374  2.228645008E-03
   375  1.103955119E-03
   376 -2.718389228E-03
   377 -9.788279205E-03
   378  1.920030619E-02
   379  2.269509032E-02
   380 -4.703460121E-03
   381 -1.961913023E-03
   382 -2.803809621E-03
   383 -2.579707927E-03
   384  1.662743334E-03
   385  1.767547110E-02
   386  2.138271861E-02
   387 -3.681400852E-03
   388 -2.922195252E-03
   389  4.783126490E-04
   390  2.908360770E-03
   391 -2.951247700E-03
   392  1.715409015E-02
   393  2.074203732E-02
   394 -4.772644301E-03
   395 -9.279817634E-04
   396  3.430496252E-03
   397 -2.009307325E-03
   398 -6.903139171E-03
   399 -2.777173437E-02
   400 -3.361261772E-02
   401  6.057546234E-03
   402  3.141016779E-03
   403 -1.228752502E-03
   404 -5.578050747E-03
   405  4.983121001E-03
   406 -2.876700230E-02
   407 -3.433319885E-02
   408  7.493283761E-03
   409 -6.131587260E-03
   410  1.574103254E-04
   411 -2.424298173E-03
   412  3.465262500E-03
   413 -2.836352591E-02
   414 -3.393891819E-02
   415  7.592327156E-03
   416 -2.027177684E-05
   417 -6.135050213E-03
   418  2.309595750E-03
   419  4.919347368E-03
   420  1.009932137E-02
   421  1.222507835E-02
   422 -2.246284055E-03
   423 -1.112377924E-03
   424 -1.987645146E-04
   425  2.091215474E-03
   426 -1.801125366E-03
   427  1.161633221E-02
   428  1.358837347E-02
   429 -2.647568206E-03
   430 -6.433869212E-04
   431 -2.128483268E-03
   432 -1.173907689E-03
   433  3.722410379E-03
   434  9.159234816E-03
   435  1.124376421E-02
   436 -2.851502050E-03
   437  1.975413861E-03
   438 -6.805039339E-04
   439  8.903245451E-04
   440 -6.516748421E-03
Ene=   -7.9321260838E-01
Spin= Alpha
Occup=   2.0000000
     1  5.978460939E-02
     2  9.237707692E-02
     3  9.960940449E-03
     4 -8.064667951E-03
     5  4.399979100E-03
     6 -2.407341269E-01
     7  1.584163710E-02
     8 -1.256738720E-02
     9  6.864973331E-03
    10 -1.538107750E-01
    11  6.521595445E-03
    12 -5.857071216E-03
    13  2.972218835E-03
    14 -1.010205422E-03
    15  1.848406734E-03
    16  7.678255513E-04
    17  2.294063448E-03
    18 -1.330361970E-03
    19  5.646639773E-01
    20 -6.919967404E-03
    21 -3.286581013E-01
    22  1.668039290E-01
    23  3.684794348E-02
    24  5.681256481E-02
    25 -7.634876650E-03
    26 -2.673640753E-03
    27  1.789767444E-02
    28 -1.459977673E-01
    29 -1.420278318E-02
    30 -2.334671235E-03
    31  2.903850322E-02
    32 -8.612034159E-02
    33 -5.377618996E-03
    34  2.168065339E-03
    35  1.024180197E-02
    36 -3.559246061E-03
    37  5.210152293E-03
    38 -4.056101086E-04
    39 -1.481142085E-03
    40 -3.873540054E-04
    41 -2.765983875E-01
    42 -1.771352821E-02
    43  4.700319758E-02
    44  4.165023553E-03
    45  1.493885035E-05
    46  2.317977022E-05
    47  1.043535825E-02
    48 -1.502259138E-02
    49  8.440229441E-03
    50 -6.396898621E-05
    51  1.668359921E-02
    52 -2.400168004E-02
    53  1.348952923E-02
    54  1.753656583E-06
    55  6.154789170E-03
    56 -8.938446487E-03
    57  4.921489499E-03
    58 -1.923927510E-03
    59  8.858593309E-04
    60  3.914581935E-03
    61  4.494173266E-03
    62 -1.300826764E-03
    63  1.395295245E-02
    64 -2.095019851E-02
    65  3.354250307E-02
    66 -1.996628201E-02
    67 -3.069112146E-02
    68 -4.732066523E-02
    69  1.164409169E-02
    70 -6.051368799E-03
    71 -1.060995209E-02
    72  1.216233540E-01
    73  1.808649323E-02
    74 -8.336619676E-03
    75 -1.906107938E-02
    76  7.155199306E-02
    77  4.556810199E-03
    78 -3.917252669E-03
    79 -8.465857331E-03
    80  2.242079540E-03
    81 -4.443175073E-03
    82  1.500104700E-03
    83  1.846315556E-03
    84  3.330157838E-05
    85  2.253635158E-01
    86 -2.290513276E-02
    87 -6.462236575E-03
    88 -3.503959258E-02
    89 -4.982898346E-02
    90 -7.699434767E-02
    91  4.124445847E-03
    92 -1.378780593E-02
    93  6.528738817E-03
    94  2.006561770E-01
    95  6.322235659E-03
    96 -2.191399995E-02
    97  1.031980395E-02
    98  1.280904470E-01
    99  3.210116615E-03
   100 -8.855388102E-03
   101  4.491328004E-03
   102 -4.207671102E-05
   103 -5.328558790E-05
   104  3.209322060E-03
   105  2.837613620E-03
   106  1.410580996E-03
   107 -4.694844263E-01
   108  3.019657429E-01
   109  1.802037673E-02
   110  8.815150908E-02
   111  6.139899925E-03
   112  9.467680396E-03
   113  2.131077304E-02
   114 -2.083101997E-02
   115  1.515174121E-02
   116 -2.434110026E-02
   117  3.446959524E-02
   118 -3.300226077E-02
   119  2.431700372E-02
   120 -1.395070476E-02
   121  1.099004390E-02
   122 -9.897104395E-03
   123  7.192877673E-03
   124  1.718458791E-03
   125 -2.584930221E-03
   126 -3.349798702E-03
   127 -8.175892749E-03
   128  1.539528559E-03
   129 -1.074491395E-01
   130  4.932038404E-03
   131  2.284811671E-02
   132 -1.657914465E-02
   133 -6.130577800E-03
   134 -9.453098099E-03
   135  5.816839202E-03
   136 -5.409907001E-03
   137  6.428723723E-04
   138  2.431411679E-02
   139  8.571676973E-03
   140 -7.259742943E-03
   141  9.067605737E-05
   142  1.408445584E-02
   143  4.630870037E-03
   144 -3.626794014E-03
   145  1.199895029E-03
   146  3.138297927E-04
   147 -3.979108373E-04
   148  8.371145329E-04
   149  1.779052997E-03
   150 -3.403680029E-04
   151  3.588104617E-02
   152  1.546558775E-02
   153 -7.159956794E-03
   154  1.054112211E-02
   155 -9.965704245E-03
   156 -1.539863739E-02
   157  1.078590733E-02
   158 -1.392990470E-02
   159  9.151203025E-03
   160  4.012556696E-02
   161  1.719633033E-02
   162 -2.214700066E-02
   163  1.460465690E-02
   164  2.569281312E-02
   165  6.699452971E-03
   166 -8.943238884E-03
   167  5.753610969E-03
   168  3.925793394E-04
   169  2.095957182E-03
   170  2.296364611E-03
   171  5.350789496E-03
   172 -3.366843304E-05
   173 -8.945313362E-02
   174 -8.599320999E-02
   175  1.971540899E-02
   176 -8.791807147E-02
   177 -3.687928007E-02
   178 -5.686790009E-02
   179  4.517095219E-03
   180  7.467539705E-03
   181  1.139307666E-02
   182  1.461813703E-01
   183  6.020456765E-03
   184  1.469206551E-02
   185  1.819606940E-02
   186  8.446372844E-02
   187 -2.850282955E-04
   188  6.454888701E-03
   189  7.460755349E-03
   190  2.213043847E-04
   191  2.081581596E-03
   192  4.353836997E-03
   193 -4.160912849E-04
   194  2.440299224E-03
   195  5.524786575E-01
   196 -6.962540514E-02
   197  7.221706195E-02
   198  4.452409213E-02
   199  3.072093074E-02
   200  4.737173116E-02
   201 -2.059723662E-03
   202 -2.083709871E-02
   203 -7.331494306E-03
   204 -1.217703993E-01
   205 -4.816719118E-03
   206 -3.302325515E-02
   207 -1.368532097E-02
   208 -7.042762777E-02
   209 -1.331374617E-03
   210 -9.940420136E-03
   211 -7.025871452E-03
   212 -1.495536796E-04
   213 -1.131849739E-03
   214 -5.767159347E-03
   215  2.371109101E-03
   216 -2.878966180E-03
   217 -4.437640012E-01
   218 -7.374301866E-03
   219  2.289751512E-02
   220 -8.574052108E-02
   221 -3.607442330E-02
   222 -5.558301257E-02
   223 -1.592789665E-02
   224  1.094988670E-03
   225 -3.883903987E-03
   226  1.430179038E-01
   227 -2.740169174E-02
   228  2.197392838E-03
   229 -6.929433644E-03
   230  7.546212191E-02
   231 -6.039608427E-03
   232  4.212920212E-04
   233 -5.962958841E-04
   234 -2.163015502E-03
   235  2.241055745E-03
   236 -1.516056327E-04
   237  4.286514971E-03
   238 -8.631784907E-04
   239 -1.777444179E-01
   240  3.178751671E-02
   241 -8.440036713E-03
   242  9.539337780E-03
   243 -7.214672130E-03
   244 -1.111640968E-02
   245  2.558288550E-03
   246  6.958134733E-04
   247  3.301678073E-03
   248  2.861072160E-02
   249  4.156252915E-03
   250  1.532377165E-03
   251  5.437409842E-03
   252  1.498709310E-02
   253  8.083579961E-04
   254  1.030473919E-04
   255  1.322138497E-03
   256  5.637707074E-04
   257  8.981517533E-04
   258  8.454127907E-04
   259  3.644242187E-04
   260  6.583190179E-04
   261 -3.541239807E-02
   262  6.409992465E-04
   263 -7.102112439E-03
   264 -2.108319556E-03
   265  4.327777035E-02
   266  6.668162292E-02
   267  3.642277323E-04
   268  1.692667171E-02
   269 -9.933210745E-03
   270 -1.715699152E-01
   271  2.888218848E-04
   272  2.928698501E-02
   273 -1.705867066E-02
   274 -9.055877112E-02
   275  8.798850527E-04
   276  5.820331086E-03
   277 -4.276526051E-03
   278  7.405058109E-04
   279 -1.279516896E-05
   280  4.804037508E-03
   281  4.160826841E-03
   282  1.529999631E-06
   283  2.071299962E-01
   284  3.329644019E-03
   285 -3.296038375E-02
   286  2.018993982E-02
   287 -2.488840761E-02
   288 -2.918013783E-02
   289 -2.105025443E-03
   290 -5.563245650E-03
   291  8.509662206E-04
   292 -5.900769901E-04
   293  5.085266925E-03
   294 -2.251770855E-02
   295 -2.671613104E-02
   296 -2.564537218E-03
   297  1.256232540E-03
   298  3.449411329E-03
   299  3.785771774E-03
   300  1.331676716E-03
   301 -1.312946905E-05
   302  3.067282406E-05
   303 -3.641135298E-04
   304  5.110554823E-04
   305 -7.347940260E-04
   306  4.127839352E-04
   307  1.692396354E-04
   308  1.766838319E-02
   309  2.111596206E-02
   310  2.256313891E-03
   311 -5.699017343E-04
   312 -3.251619962E-03
   313 -2.634059833E-03
   314  2.142240208E-03
   315  2.181482520E-02
   316  2.545095177E-02
   317  1.306096025E-03
   318  2.931366494E-04
   319  3.812172080E-03
   320 -3.060327913E-03
   321 -6.457543221E-03
   322 -3.658025062E-03
   323 -4.431587408E-03
   324  9.395070803E-04
   325  1.505064913E-03
   326 -1.100722198E-03
   327  9.897026553E-05
   328 -2.462812907E-03
   329 -4.253439321E-03
   330 -5.122862133E-03
   331  1.354741963E-03
   332  1.383848670E-03
   333 -3.381690813E-04
   334  1.304964804E-03
   335  1.923991596E-03
   336  6.850326161E-04
   337  1.235270064E-03
   338  1.542961768E-03
   339  2.685762323E-04
   340 -4.962420000E-04
   341  1.381828972E-04
   342  6.672515549E-03
   343  7.204802635E-03
   344  8.050663721E-03
   345 -3.131959026E-04
   346  4.380637691E-04
   347  1.215872559E-03
   348 -7.732186623E-04
   349 -8.147304272E-03
   350  2.200193999E-02
   351  2.644512100E-02
   352 -3.260965138E-03
   353 -2.499185401E-03
   354  4.581666923E-04
   355  4.479193524E-03
   356  1.463652609E-02
   357  2.555729632E-02
   358  3.068696410E-02
   359 -6.860761207E-03
   360 -1.299184626E-04
   361  5.322221237E-03
   362 -2.197168715E-03
   363 -1.247465386E-02
   364 -2.129041400E-02
   365 -2.552696401E-02
   366  5.352384206E-03
   367 -4.548728445E-03
   368 -2.399814258E-04
   369 -1.775650961E-03
   370  1.078466169E-02
   371 -1.832562542E-02
   372 -2.201323244E-02
   373  2.453179126E-03
   374  2.320669337E-03
   375 -1.267943268E-03
   376 -3.503213215E-03
   377 -1.150438200E-02
   378  2.166834242E-02
   379  2.607821774E-02
   380 -5.755827772E-03
   381 -2.410776215E-03
   382 -3.389666521E-03
   383 -2.945467929E-03
   384 -7.271423708E-03
   385  2.187477609E-02
   386  2.645564723E-02
   387 -4.434737049E-03
   388 -3.668562682E-03
   389  2.921586105E-04
   390  3.582921310E-03
   391 -4.056662750E-03
   392  2.332046155E-02
   393  2.767245492E-02
   394 -5.747270412E-03
   395 -1.138039736E-03
   396  4.353690825E-03
   397 -2.726295671E-03
   398 -8.288212924E-05
   399  4.372751991E-03
   400  5.324079850E-03
   401 -1.185890468E-03
   402 -3.793723348E-04
   403  7.249115647E-05
   404  9.715386079E-04
   405 -8.330196695E-04
   406  3.199124788E-03
   407  4.148254755E-03
   408 -1.278817185E-03
   409  8.077609758E-04
   410 -5.125315561E-05
   411  4.220950678E-04
   412 -6.172927287E-03
   413  5.796803655E-03
   414  6.628984746E-03
   415 -1.520024648E-03
   416  8.780867794E-05
   417  1.068612804E-03
   418 -4.621702014E-04
   419  5.119314715E-03
   420 -2.623827692E-02
   421 -3.173608412E-02
   422  5.469325843E-03
   423  3.300830402E-03
   424  7.057532062E-04
   425 -5.150885417E-03
   426  4.516149066E-03
   427 -2.651963469E-02
   428 -3.179028743E-02
   429  6.853203780E-03
   430  1.806948050E-03
   431  5.216259401E-03
   432  2.747303277E-03
   433  5.519600957E-03
   434 -2.745616733E-02
   435 -3.271130290E-02
   436  7.358443434E-03
   437 -5.524714615E-03
   438  1.966884913E-03
   439 -2.185750775E-03
   440  2.339833462E-03
Ene=   -7.7432689434E-01
Spin= Alpha
Occup=   2.0000000
     1 -2.019480946E-02
     2 -3.122528379E-02
     3  1.505426462E-02
     4 -2.233702993E-03
     5 -2.045591330E-02
     6  8.157537427E-02
     7  2.376699276E-02
     8 -3.559626057E-03
     9 -3.228390292E-02
    10  5.142530492E-02
    11  1.473747533E-02
    12 -7.908116850E-03
    13 -1.613494399E-02
    14 -4.176472883E-03
    15  5.574674601E-03
    16  1.312201603E-03
    17 -1.669420318E-03
    18 -8.549577618E-04
    19 -3.232329396E-01
    20 -8.507616776E-02
    21  6.552676776E-02
    22  7.147516569E-02
    23  3.694890848E-02
    24  5.705044693E-02
    25  3.997438315E-03
    26  2.085827260E-02
    27 -1.969828406E-02
    28 -1.481319999E-01
    29  5.354823739E-03
    30  3.477725889E-02
    31 -3.092177087E-02
    32 -7.475471522E-02
    33  4.739598330E-03
    34  1.163116241E-02
    35 -1.479420243E-02
    36  2.490227085E-03
    37 -2.661194806E-03
    38  5.667741402E-03
    39  5.735598273E-03
    40  6.451423335E-04
    41 -3.001537837E-01
    42 -2.807287755E-02
    43  2.595336411E-02
    44  2.406011600E-02
    45  7.118122613E-02
    46  1.099503164E-01
    47 -3.638968348E-03
    48  3.259572832E-04
    49  5.082145534E-03
    50 -2.861197877E-01
    51 -7.932002083E-03
    52  7.124933266E-04
    53  1.105027144E-02
    54 -1.655422453E-01
    55 -1.105787137E-02
    56  1.035876484E-03
    57  1.571963374E-02
    58  2.008156061E-03
    59 -3.356195249E-03
    60  3.040103867E-04
    61  1.190463383E-03
    62 -2.166401093E-04
    63  4.773028007E-01
    64  7.967970031E-02
    65 -7.145648829E-03
    66 -1.094957770E-01
    67  3.696288439E-02
    68  5.707239967E-02
    69  2.856950535E-02
    70 -4.686509970E-03
    71 -4.508563167E-04
    72 -1.481984476E-01
    73  4.619196035E-02
    74 -7.662717704E-03
    75  1.059068107E-03
    76 -7.473320571E-02
    77  1.882935798E-02
    78 -2.991813957E-03
    79 -3.793258234E-03
    80  4.029537927E-03
    81 -5.963619639E-03
    82  8.824201370E-04
    83 -4.730428333E-03
    84  1.937292379E-03
    85 -3.146665483E-01
    86 -7.221570952E-04
    87 -3.080845405E-03
    88  4.876276165E-02
    89 -2.016898420E-02
    90 -3.118540351E-02
    91  1.403970460E-02
    92 -1.175275141E-03
    93 -2.125600652E-02
    94  8.147680822E-02
    95  2.212955477E-02
    96 -1.855491156E-03
    97 -3.357408827E-02
    98  5.130153150E-02
    99  7.094363799E-03
   100  7.315618587E-05
   101 -2.205206982E-02
   102 -1.526170427E-03
   103  6.325749188E-03
   104 -7.274248710E-04
   105 -3.213193264E-03
   106  7.347457172E-04
   107 -3.310952723E-01
   108 -1.261139553E-02
   109 -7.709267928E-03
   110  1.340803101E-01
   111 -2.869590702E-02
   112 -4.429290900E-02
   113 -7.150195222E-04
   114 -5.464084445E-03
   115 -6.356217257E-03
   116  1.144704143E-01
   117 -2.939112318E-03
   118 -9.144422436E-03
   119 -8.417776444E-03
   120  5.907521335E-02
   121 -1.054789683E-03
   122 -2.811999599E-04
   123  1.098507956E-03
   124 -1.342054789E-03
   125  2.857481913E-03
   126 -9.862212618E-04
   127 -7.901845397E-04
   128 -1.145850558E-03
   129  4.095464831E-01
   130 -4.130256893E-02
   131 -5.073679550E-02
   132 -1.182002579E-02
   133  3.694978384E-02
   134  5.705115323E-02
   135 -2.550941717E-03
   136 -1.887883773E-02
   137 -2.181026476E-02
   138 -1.481190442E-01
   139 -5.531103136E-03
   140 -3.125679011E-02
   141 -3.444202922E-02
   142 -7.486980497E-02
   143  1.009253371E-03
   144 -1.092000876E-02
   145 -1.587293490E-02
   146  1.464692105E-03
   147 -4.713579680E-03
   148 -5.343848378E-03
   149  3.724954543E-03
   150 -3.442940981E-03
   151 -3.042823401E-01
   152 -3.576367804E-02
   153 -1.796281031E-02
   154  2.239643633E-02
   155 -2.018428219E-02
   156 -3.120864906E-02
   157  1.532440682E-02
   158 -5.884262526E-04
   159 -2.036766876E-02
   160  8.151723080E-02
   161  2.419967838E-02
   162 -9.049614151E-04
   163 -3.213676828E-02
   164  5.161872896E-02
   165  1.677098970E-02
   166  4.440303201E-03
   167 -1.549669750E-02
   168 -4.492094969E-03
   169  5.121261761E-03
   170 -2.123149297E-03
   171 -1.160409834E-03
   172  1.219812341E-03
   173 -3.116051005E-01
   174 -1.015268476E-01
   175 -4.313903012E-02
   176  6.872865620E-02
   177 -2.868617634E-02
   178 -4.427845322E-02
   179  1.182941673E-03
   180  6.033330421E-03
   181 -5.742588946E-03
   182  1.144410629E-01
   183  2.871529962E-04
   184  1.042016633E-02
   185 -7.368450523E-03
   186  5.904862147E-02
   187 -8.319557189E-04
   188  5.161388388E-04
   189  1.179598121E-03
   190 -1.223116054E-03
   191  3.188275297E-03
   192  2.634170995E-04
   193  2.789786086E-05
   194  1.065722502E-03
   195  3.929981399E-01
   196 -2.092060418E-02
   197  6.019588027E-02
   198 -8.449859408E-03
   199 -2.870204208E-02
   200 -4.430338016E-02
   201  8.300093098E-03
   202 -1.356568198E-03
   203 -1.663363209E-04
   204  1.145159444E-01
   205  1.241260948E-02
   206 -2.157456142E-03
   207  2.113562411E-03
   208  5.906736798E-02
   209 -5.894246553E-04
   210  1.097803010E-04
   211  1.456466765E-03
   212 -2.180822788E-03
   213  1.882975722E-03
   214  8.469406619E-06
   215 -2.050547901E-03
   216  5.923433459E-04
   217  3.702146111E-01
   218  4.227725041E-02
   219 -1.009994514E-02
   220  3.971828546E-02
   221 -1.856673086E-02
   222 -2.863435344E-02
   223 -5.638721704E-03
   224  1.213878814E-03
   225 -5.323451259E-03
   226  7.388257570E-02
   227 -1.023778737E-02
   228  2.144135599E-03
   229 -8.471342120E-03
   230  4.385854901E-02
   231 -4.041052315E-03
   232  7.179897329E-04
   233 -1.744301182E-03
   234 -3.551454311E-04
   235  2.054497433E-03
   236 -3.855202612E-04
   237  1.368721265E-03
   238 -5.794291924E-04
   239  6.508239555E-02
   240 -1.274549573E-02
   241  2.888669704E-03
   242 -1.202923817E-02
   243 -1.857266736E-02
   244 -2.864413657E-02
   245  4.772369004E-03
   246  5.963270213E-03
   247  1.819172147E-03
   248  7.391983274E-02
   249  7.716092095E-03
   250  1.032955002E-02
   251  3.862504818E-03
   252  4.369884028E-02
   253  1.799003818E-03
   254  3.410153715E-03
   255  2.103583575E-03
   256 -7.717821531E-04
   257  1.031059906E-03
   258  1.286593356E-03
   259 -8.227489964E-04
   260  1.642785728E-03
   261  6.469701700E-02
   262  1.083457167E-02
   263  1.322733534E-02
   264  4.351628056E-03
   265 -1.858312654E-02
   266 -2.865955976E-02
   267  2.581317613E-03
   268 -7.334733248E-03
   269  1.111845069E-03
   270  7.394944991E-02
   271  3.942386900E-03
   272 -1.260360767E-02
   273  2.645017655E-03
   274  4.386653351E-02
   275  5.433001242E-04
   276 -4.060205217E-03
   277  1.742870797E-03
   278 -1.008542498E-03
   279  4.774092744E-04
   280 -1.226347032E-03
   281 -1.808811054E-03
   282 -8.345948620E-04
   283  6.755878398E-02
   284  6.137005322E-03
   285 -1.703838086E-02
   286  3.130471357E-03
   287 -2.333429481E-02
   288 -2.792034629E-02
   289  8.388417210E-03
   290 -4.591312252E-03
   291  1.853667632E-03
   292 -2.292203272E-03
   293  4.087978498E-03
   294 -2.333843010E-02
   295 -2.791414206E-02
   296  8.556139262E-03
   297  1.746106207E-03
   298  4.742072164E-03
   299  2.056608570E-03
   300  4.110273769E-03
   301 -4.682378705E-02
   302 -5.884557070E-02
   303 -1.492440986E-03
   304 -6.395120030E-03
   305  5.760655714E-04
   306  8.934318565E-03
   307  3.111471791E-02
   308 -2.334066712E-02
   309 -2.795233044E-02
   310  9.050827914E-03
   311  2.915580479E-03
   312  3.530321411E-03
   313  2.970673959E-03
   314  3.838795163E-03
   315 -2.334167925E-02
   316 -2.795097359E-02
   317  8.726336328E-03
   318  1.582238443E-03
   319 -4.565270574E-03
   320  2.542187313E-03
   321  2.877469932E-03
   322  2.333651356E-02
   323  2.866413263E-02
   324 -4.730748851E-03
   325 -3.151117243E-03
   326 -1.691546396E-04
   327  3.799539898E-03
   328 -1.105428836E-02
   329  1.611855015E-02
   330  1.802900472E-02
   331 -3.565731871E-03
   332 -8.452196845E-04
   333 -2.610311812E-03
   334 -2.387292400E-03
   335 -2.576815283E-03
   336 -2.333750263E-02
   337 -2.792567514E-02
   338  8.430435952E-03
   339 -4.903515467E-03
   340 -3.820617153E-05
   341 -2.393846588E-03
   342  4.413710318E-03
   343 -2.333948913E-02
   344 -2.790753630E-02
   345  8.442101223E-03
   346  1.008149242E-04
   347 -5.236612350E-03
   348  1.523836325E-03
   349  4.172172699E-03
   350  2.333003365E-02
   351  2.865714172E-02
   352 -4.631304038E-03
   353 -2.996407170E-03
   354  7.737274058E-04
   355  3.847959068E-03
   356 -1.203705389E-02
   357  1.611447814E-02
   358  1.799328144E-02
   359 -3.217381791E-03
   360  7.518859582E-05
   361  2.974696869E-03
   362 -2.088391147E-03
   363 -1.892550390E-03
   364  1.612606279E-02
   365  1.799969086E-02
   366 -2.919372056E-03
   367  3.532761611E-03
   368 -6.154480494E-04
   369  6.175222614E-04
   370 -3.614702390E-03
   371  2.334571468E-02
   372  2.861994282E-02
   373 -3.822544224E-03
   374 -2.412576439E-03
   375  1.667663129E-04
   376  4.309404624E-03
   377 -1.139940277E-02
   378  1.094663935E-02
   379  1.350813264E-02
   380 -1.431489438E-03
   381 -1.113180491E-03
   382 -1.612697838E-03
   383 -1.720209722E-03
   384 -1.013305525E-03
   385  1.396757900E-02
   386  1.576965854E-02
   387  2.066756849E-03
   388 -1.956019932E-03
   389  2.137183670E-04
   390  2.053722398E-03
   391  2.757431669E-03
   392  1.094473169E-02
   393  1.350863604E-02
   394 -1.567275814E-03
   395 -5.087324106E-04
   396  2.052732925E-03
   397 -1.524982897E-03
   398 -1.120032883E-03
   399  1.397125601E-02
   400  1.575625437E-02
   401  1.832050732E-03
   402 -1.419281644E-03
   403  4.568254963E-04
   404  2.420060610E-03
   405  2.688856775E-03
   406  1.095216764E-02
   407  1.350192981E-02
   408 -1.572710233E-03
   409  2.495227398E-03
   410  3.124352703E-05
   411  7.564857996E-04
   412 -8.767742116E-04
   413  1.095106055E-02
   414  1.352643608E-02
   415 -1.539296912E-03
   416  2.271899913E-04
   417  2.390546257E-03
   418 -1.022342495E-03
   419 -1.060494766E-03
   420  1.397412573E-02
   421  1.579565100E-02
   422  1.718050862E-03
   423 -1.533606999E-03
   424 -2.271703210E-04
   425  2.386119581E-03
   426  2.502219326E-03
   427  1.095646171E-02
   428  1.353697512E-02
   429 -1.504394353E-03
   430 -5.320402562E-04
   431 -2.219500319E-03
   432 -1.268319025E-03
   433 -8.584691839E-04
   434  1.095611631E-02
   435  1.352318078E-02
   436 -1.675067768E-03
   437  2.342244288E-03
   438 -9.076505998E-04
   439  7.068637332E-04
   440 -9.338491926E-04
Ene=   -6.8455330788E-01
Spin= Alpha
Occup=   2.0000000
     1 -2.141729906E-03
     2 -3.334051171E-03
     3  1.428786366E-02
     4 -4.463724032E-02
     5  8.854260481E-03
     6  9.398566232E-03
     7  2.207597629E-02
     8 -6.755930864E-02
     9  1.274303286E-02
    10 -7.294147267E-03
    11  1.255808176E-02
    12 -4.152854565E-02
    13  9.211256103E-03
    14 -1.162848176E-03
    15  2.919532351E-03
    16  7.099009317E-03
    17  4.745115794E-03
    18  4.656276712E-04
    19  1.655639371E-01
    20 -1.838637610E-02
    21  1.471660243E-02
    22  1.439883970E-02
    23  6.781295120E-03
    24  1.049554123E-02
    25  4.785791860E-03
    26 -9.113083699E-03
    27 -9.110134847E-04
    28 -2.738406612E-02
    29  7.094162056E-03
    30 -1.333282112E-02
    31 -1.479819647E-03
    32 -9.949125422E-03
    33  4.610581610E-03
    34 -8.171977572E-03
    35 -1.137045619E-03
    36 -7.378439438E-04
    37 -8.019760355E-04
    38  2.162064055E-03
    39  3.528597452E-04
    40 -1.782768498E-03
    41 -8.173674531E-02
    42 -3.682012523E-03
    43  1.428101756E-02
    44 -2.674354803E-03
    45  3.202553174E-03
    46  4.860886216E-03
    47  4.086983876E-03
    48 -3.632768612E-04
    49 -5.696602635E-03
    50 -1.031944104E-02
    51  5.825588276E-03
    52 -5.246661328E-04
    53 -8.115491827E-03
    54 -2.387444970E-02
    55 -6.802107656E-03
    56  7.285723340E-04
    57  9.351210208E-03
    58  6.935725440E-04
    59 -1.157422128E-03
    60  1.013908388E-04
    61  4.120881417E-04
    62 -7.445108234E-05
    63  7.361488962E-02
    64 -1.418550158E-02
    65  1.631245495E-03
    66  1.713841303E-02
    67  6.767012318E-03
    68  1.047361504E-02
    69 -5.268819232E-03
    70  1.342664115E-03
    71 -8.778827670E-03
    72 -2.733292669E-02
    73 -7.598248403E-03
    74  1.954976062E-03
    75 -1.298175234E-02
    76 -9.713140193E-03
    77 -4.622482190E-03
    78  1.150697020E-03
    79 -8.307599172E-03
    80  2.788548079E-03
    81  4.772164258E-04
    82 -2.837921804E-04
    83 -9.872951214E-04
    84  3.063234478E-04
    85 -6.886210602E-02
    86  9.116449824E-03
    87 -1.544232826E-03
    88  6.094491571E-03
    89 -2.140836248E-03
    90 -3.332458716E-03
    91 -3.591795596E-02
    92  7.568188914E-03
    93 -3.042237985E-02
    94  9.383431600E-03
    95 -5.387372002E-02
    96  1.140612305E-02
    97 -4.666392134E-02
    98 -7.029188545E-03
    99 -3.399469208E-02
   100  7.105716741E-03
   101 -2.739790723E-02
   102  2.116650150E-03
   103 -5.280174364E-04
   104  3.585549559E-04
   105 -8.356461086E-03
   106  2.862288442E-03
   107  1.787173444E-01
   108  6.535049408E-03
   109 -5.920992372E-03
   110  2.617840855E-02
   111 -2.615653345E-02
   112 -4.060872845E-02
   113 -7.784517084E-03
   114 -1.056452863E-02
   115 -4.079515133E-03
   116  1.084528647E-01
   117 -1.209288462E-02
   118 -1.591198003E-02
   119 -5.666850133E-03
   120  5.573614990E-02
   121 -3.641269446E-03
   122 -3.938774107E-03
   123 -8.092733072E-04
   124 -9.552475417E-04
   125 -7.313040803E-04
   126  1.175403904E-03
   127 -2.272518784E-05
   128  3.420821218E-03
   129  7.239879872E-03
   130  1.344616232E-02
   131  6.377355625E-03
   132 -1.333459736E-02
   133  6.788161927E-03
   134  1.050642305E-02
   135  7.458037840E-03
   136  7.142741286E-03
   137 -4.883443826E-05
   138 -2.742072341E-02
   139  1.100377671E-02
   140  1.043982163E-02
   141 -2.160648738E-04
   142 -9.818979869E-03
   143  7.080497587E-03
   144  6.346149475E-03
   145 -3.431948605E-04
   146 -1.093520189E-03
   147 -1.271489375E-03
   148 -1.734527766E-03
   149  1.200822546E-03
   150  1.374099601E-03
   151 -7.235962479E-02
   152 -6.128202028E-03
   153 -1.023303059E-02
   154 -5.492227024E-03
   155 -2.140235985E-03
   156 -3.331937868E-03
   157  2.763982795E-02
   158  3.653732735E-02
   159  1.316020940E-02
   160  9.398739047E-03
   161  4.227079232E-02
   162  5.522637567E-02
   163  1.926171073E-02
   164 -7.298826425E-03
   165  2.501276463E-02
   166  3.410683941E-02
   167  1.312496559E-02
   168 -2.537531778E-03
   169  2.622349128E-04
   170 -7.699326961E-03
   171  2.671036391E-03
   172 -3.154941658E-03
   173  1.682631087E-01
   174 -1.882836802E-02
   175 -1.311730262E-02
   176  1.264441651E-02
   177 -2.610984760E-02
   178 -4.053629258E-02
   179 -3.924677927E-03
   180  1.286648839E-02
   181 -2.835230488E-03
   182  1.082555077E-01
   183 -6.265869596E-03
   184  1.944476212E-02
   185 -3.789260447E-03
   186  5.581078978E-02
   187 -2.204305356E-03
   188  4.987887158E-03
   189 -3.051815826E-04
   190 -1.117788326E-03
   191 -1.349329467E-03
   192 -5.169357361E-04
   193 -2.150095791E-03
   194 -2.564481804E-03
   195 -1.537217319E-02
   196  1.336384249E-02
   197 -1.225963146E-02
   198 -1.588565508E-02
   199 -2.615063766E-02
   200 -4.059972432E-02
   201  1.056854134E-02
   202 -2.198775696E-03
   203  8.502830719E-03
   204  1.084300514E-01
   205  1.559328162E-02
   206 -3.285020393E-03
   207  1.332056598E-02
   208  5.563740871E-02
   209  3.536538163E-03
   210 -7.849571854E-04
   211  4.007051556E-03
   212  2.116792474E-03
   213  2.007729514E-03
   214 -6.529694894E-04
   215  2.200246097E-03
   216 -8.608134876E-04
   217  7.016831502E-03
   218  4.958339386E-03
   219 -9.329326593E-04
   220 -1.973031936E-02
   221  5.602533202E-02
   222  8.684288404E-02
   223 -4.933958274E-03
   224  1.113750141E-03
   225 -5.574492837E-03
   226 -2.294817068E-01
   227 -3.758392946E-03
   228  1.005798771E-03
   229 -7.043613782E-03
   230 -1.271346491E-01
   231 -1.274370296E-02
   232  2.327351936E-03
   233 -5.280722198E-03
   234  1.707961231E-04
   235  1.175994829E-03
   236 -2.295711735E-04
   237  3.278145415E-04
   238 -1.784466603E-04
   239 -1.474252431E-01
   240  3.388671159E-02
   241 -5.734185803E-03
   242  7.132408307E-03
   243  5.600908570E-02
   244  8.681792108E-02
   245  4.894612759E-03
   246  5.595373116E-03
   247  1.162859924E-03
   248 -2.294274572E-01
   249  5.930665956E-03
   250  5.420053254E-03
   251 -4.087271134E-04
   252 -1.268856264E-01
   253  5.529954670E-03
   254  1.072079836E-02
   255  7.318081107E-03
   256 -6.466832926E-04
   257  4.590262754E-04
   258  2.333947084E-04
   259 -2.326486674E-04
   260  9.345097110E-04
   261 -1.429674538E-01
   262 -9.306266553E-03
   263 -2.512582947E-02
   264 -2.216428099E-02
   265  5.604841991E-02
   266  8.687896362E-02
   267  2.830834386E-03
   268 -6.961744660E-03
   269  4.972290876E-04
   270 -2.295894868E-01
   271  3.909777251E-03
   272 -6.965786530E-03
   273 -1.065171674E-03
   274 -1.269386989E-01
   275  1.594288539E-03
   276 -1.265304090E-02
   277  6.091789974E-03
   278 -6.873307803E-04
   279  3.045989473E-04
   280 -1.780752322E-04
   281 -7.875412041E-04
   282 -6.306655968E-04
   283 -1.393114274E-01
   284 -2.798880928E-04
   285  2.805594078E-02
   286 -1.891808298E-02
   287 -9.252237969E-03
   288 -1.061213690E-02
   289  3.959096370E-03
   290 -1.308442556E-03
   291 -1.633534808E-04
   292 -4.333442848E-04
   293  4.705908315E-03
   294 -9.248886736E-03
   295 -1.062370601E-02
   296  3.852169919E-03
   297  6.941236913E-04
   298  7.497785610E-04
   299  9.403352236E-04
   300  3.936035046E-03
   301 -6.255980530E-03
   302 -9.401158667E-03
   303 -5.895230688E-03
   304 -7.622626062E-04
   305  6.749056063E-05
   306  1.069581359E-03
   307 -1.988906270E-02
   308 -9.235647612E-03
   309 -1.057159395E-02
   310  3.694827427E-03
   311  2.096143868E-04
   312  1.249154313E-03
   313  5.596091086E-04
   314  5.197708578E-03
   315 -9.242201887E-03
   316 -1.059644973E-02
   317  3.627671403E-03
   318 -2.098559725E-04
   319 -1.303051381E-03
   320  4.255171424E-04
   321  5.106923557E-03
   322  1.948887575E-02
   323  2.543433147E-02
   324 -3.574335160E-03
   325 -2.862942209E-03
   326 -4.919383959E-04
   327  3.007637026E-03
   328 -4.434557548E-03
   329  1.209328784E-02
   330  1.595515313E-02
   331 -1.097966636E-03
   332 -1.145501551E-03
   333 -2.352854778E-03
   334 -1.660236848E-03
   335 -2.070336118E-03
   336 -9.254438611E-03
   337 -1.058558989E-02
   338  3.670347379E-03
   339 -1.179555506E-03
   340  6.176398206E-04
   341 -3.911233653E-04
   342  5.143873829E-03
   343 -9.256172907E-03
   344 -1.063011298E-02
   345  3.544414669E-03
   346  4.002740049E-04
   347 -1.028121862E-03
   348  8.469178598E-04
   349  4.721058020E-03
   350  1.945716984E-02
   351  2.536217688E-02
   352 -3.049911519E-03
   353 -2.602953279E-03
   354  1.067541749E-03
   355  3.084134555E-03
   356 -4.846178154E-03
   357  1.205587045E-02
   358  1.587340488E-02
   359 -5.789984850E-04
   360 -3.037216022E-04
   361  2.748188880E-03
   362 -1.383708381E-03
   363 -2.321568955E-03
   364  1.208787272E-02
   365  1.595236811E-02
   366 -1.174026251E-03
   367  2.853368874E-03
   368 -5.282240362E-04
   369  1.083401834E-03
   370 -1.711861778E-03
   371  1.949141541E-02
   372  2.542125703E-02
   373 -3.715410147E-03
   374 -1.643191937E-03
   375  6.504978752E-05
   376  3.842687176E-03
   377 -4.836481985E-03
   378 -4.645999630E-02
   379 -5.785420819E-02
   380  8.287755415E-03
   381  2.944502748E-03
   382  6.723106606E-03
   383  5.045651638E-03
   384  1.697476760E-03
   385 -4.293200188E-02
   386 -5.413808636E-02
   387  9.236272195E-03
   388  4.910611936E-03
   389 -4.390799822E-04
   390 -6.936892615E-03
   391  1.008545202E-03
   392 -4.646535957E-02
   393 -5.786184993E-02
   394  8.128551056E-03
   395  5.503583718E-04
   396 -7.795673452E-03
   397  4.274104501E-03
   398  1.623452799E-03
   399 -4.291553659E-02
   400 -5.414121869E-02
   401  9.609694248E-03
   402  4.967280985E-03
   403 -4.136202446E-04
   404 -6.895143791E-03
   405  1.001293660E-03
   406 -4.644542304E-02
   407 -5.785375235E-02
   408  8.578714816E-03
   409 -8.338711018E-03
   410  1.576785846E-03
   411 -2.696330445E-03
   412  1.349442932E-03
   413 -4.645309436E-02
   414 -5.786759730E-02
   415  8.414969658E-03
   416  6.375389694E-04
   417 -7.753459225E-03
   418  4.335609156E-03
   419  1.406513854E-03
   420 -4.294661210E-02
   421 -5.417008551E-02
   422  9.647050216E-03
   423  4.959418853E-03
   424 -4.844894834E-04
   425 -6.902295377E-03
   426  1.137256353E-03
   427 -4.648219659E-02
   428 -5.791423940E-02
   429  8.530698076E-03
   430  3.013228163E-03
   431  6.653758343E-03
   432  5.107303483E-03
   433  1.744794213E-03
   434 -4.648171435E-02
   435 -5.789283848E-02
   436  8.395455117E-03
   437 -8.363954020E-03
   438  1.463966899E-03
   439 -2.704659129E-03
   440  1.189747006E-03
Ene=   -6.7765011774E-01
Spin= Alpha
Occup=   2.0000000
     1  6.533958268E-05
     2  9.903483962E-05
     3 -2.953338164E-02
     4 -1.259544515E-02
     5 -2.105906197E-02
     6 -2.127410249E-04
     7 -4.598566525E-02
     8 -1.967261803E-02
     9 -3.274288105E-02
    10 -1.115099350E-04
    11 -2.443602610E-02
    12 -9.808927643E-03
    13 -1.788471944E-02
    14  1.148747166E-03
    15 -1.050812356E-03
    16  3.850770139E-03
    17 -5.658583241E-03
    18  3.798609335E-03
    19 -5.658239317E-03
    20  3.680448708E-02
    21  2.271652985E-02
    22  2.760902788E-02
    23  8.645214507E-04
    24  1.341357061E-03
    25 -1.244116654E-02
    26 -5.576915065E-03
    27 -8.598596253E-03
    28 -3.566677038E-03
    29 -1.796391172E-02
    30 -8.037722803E-03
    31 -1.241583251E-02
    32 -1.739369109E-03
    33 -5.080633827E-03
    34 -2.394105175E-03
    35 -3.666087972E-03
    36  8.069194521E-04
    37 -1.309776488E-04
    38  1.323753850E-03
    39 -1.896579864E-03
    40  1.030729798E-03
    41 -3.889223887E-03
    42 -1.506759687E-02
    43 -8.293554856E-03
    44 -7.901379616E-03
    45 -3.645019524E-06
    46 -5.673074550E-06
    47 -2.537608233E-02
    48 -1.240147057E-02
    49 -1.735503263E-02
    50  1.455927828E-05
    51 -3.961602775E-02
    52 -1.936044659E-02
    53 -2.709593923E-02
    54  3.823848132E-05
    55 -1.785663235E-02
    56 -8.742002120E-03
    57 -1.221384709E-02
    58  2.684392354E-03
    59  8.448810285E-05
    60  3.700858087E-03
    61 -4.834066902E-03
    62  2.193968123E-03
    63  5.630010537E-03
    64  1.447015759E-03
    65 -8.807991537E-04
    66 -1.017311644E-03
    67  3.124311933E-02
    68  4.848760402E-02
    69  2.594310860E-03
    70 -8.967615607E-03
    71  3.269525908E-04
    72 -1.291693587E-01
    73  4.102645691E-03
    74 -1.302706494E-02
    75  8.159776249E-04
    76 -6.235139512E-02
    77  2.038121652E-03
    78 -3.573059026E-03
    79 -5.001297562E-03
    80 -1.038844959E-03
    81  2.623756587E-04
    82  1.337420467E-03
    83  1.560092177E-03
    84 -1.541709220E-04
    85  1.060153704E-01
    86 -2.985044266E-02
    87 -2.043812161E-03
    88 -4.193890848E-02
    89  2.368057471E-03
    90  3.582915335E-03
    91  3.777993013E-02
    92 -2.664804736E-02
    93  2.138622879E-03
    94 -7.497250182E-03
    95  5.631526391E-02
    96 -4.104489950E-02
    97  2.735913485E-03
    98 -7.164436735E-03
    99  5.685324643E-02
   100 -2.665481128E-02
   101  8.245618947E-03
   102 -3.898909425E-03
   103  6.635526497E-03
   104  2.672001062E-03
   105  7.423013224E-03
   106 -9.011303041E-04
   107 -1.382680291E-01
   108  1.053774435E-01
   109  7.191121161E-03
   110  1.563894132E-02
   111  3.783268443E-02
   112  5.873401154E-02
   113  3.942707632E-03
   114 -6.233599341E-03
   115 -5.360819844E-03
   116 -1.565849117E-01
   117  6.431875446E-03
   118 -8.451589284E-03
   119 -8.061473009E-03
   120 -7.505752529E-02
   121 -2.507077412E-03
   122 -6.575303129E-03
   123  1.920205976E-03
   124 -7.571332017E-04
   125  2.008983193E-03
   126  2.816384113E-04
   127  4.050851220E-04
   128 -6.395008172E-04
   129 -1.062675676E-01
   130 -1.116537774E-02
   131  8.514355854E-03
   132 -1.558344106E-02
   133 -3.210724337E-02
   134 -4.982901805E-02
   135 -3.664165460E-03
   136  7.942623472E-03
   137 -9.619663263E-04
   138  1.327451449E-01
   139 -4.978630259E-03
   140  1.185566288E-02
   141 -1.271475643E-03
   142  6.409313388E-02
   143 -5.559560266E-03
   144  1.748053241E-03
   145  2.701768185E-03
   146 -3.529336726E-04
   147 -7.244471784E-04
   148 -2.129278820E-03
   149 -2.953809601E-04
   150  1.675561982E-04
   151 -1.286868402E-01
   152 -4.469270708E-02
   153 -3.205820603E-02
   154 -3.951892939E-03
   155 -2.432407217E-03
   156 -3.680041864E-03
   157 -4.290987889E-03
   158  4.116411416E-02
   159  2.161029820E-02
   160  7.700759635E-03
   161 -7.431412851E-03
   162  6.212079193E-02
   163  3.199002729E-02
   164  7.308714380E-03
   165  4.450918207E-03
   166  5.440988577E-02
   167  3.466062464E-02
   168  1.135055096E-03
   169 -5.687981659E-03
   170 -8.625131905E-03
   171  9.900717613E-04
   172 -4.078530810E-03
   173  1.283383100E-01
   174  2.982005924E-02
   175  5.798134714E-02
   176  9.158308448E-02
   177 -1.063951132E-03
   178 -1.651519651E-03
   179  6.039906259E-03
   180  2.683754114E-03
   181  4.379921896E-03
   182  4.397858899E-03
   183  8.623966318E-03
   184  3.862132390E-03
   185  6.281299736E-03
   186  2.129902821E-03
   187  5.729630699E-03
   188  2.379618585E-03
   189  3.836759369E-03
   190 -4.289884571E-04
   191  2.445121734E-04
   192 -1.245770286E-03
   193  1.700348802E-03
   194 -1.146828183E-03
   195  1.260375282E-02
   196 -3.511722930E-02
   197 -1.411640618E-02
   198 -2.456755306E-02
   199 -3.678222744E-02
   200 -5.710294072E-02
   201 -6.740609019E-03
   202  5.129732571E-03
   203  3.188418448E-03
   204  1.522347331E-01
   205 -9.552694951E-03
   206  7.276710825E-03
   207  5.529439208E-03
   208  7.294258100E-02
   209 -2.457980406E-03
   210  4.485742273E-03
   211 -5.202914442E-03
   212  1.275162536E-03
   213 -1.300815829E-03
   214 -1.129003905E-03
   215  5.214142325E-04
   216 -6.667533736E-04
   217  1.253086420E-01
   218 -8.500972834E-03
   219 -2.406552494E-02
   220  3.182307982E-03
   221 -5.886790605E-02
   222 -9.129807061E-02
   223  8.393617891E-03
   224 -5.726991744E-03
   225  6.530837533E-04
   226  2.421738774E-01
   227  8.907934726E-03
   228 -7.725572489E-03
   229  1.017641258E-04
   230  1.244830349E-01
   231  1.877590652E-02
   232 -4.863388732E-03
   233  4.271116228E-03
   234  7.217979289E-04
   235 -1.328748805E-04
   236  2.968337172E-04
   237 -6.802143310E-04
   238  1.324993716E-03
   239  5.559291782E-02
   240 -2.030339634E-02
   241 -9.453949699E-04
   242 -8.897231129E-03
   243  6.055668242E-02
   244  9.391771382E-02
   245 -7.111217720E-04
   246  9.077680162E-03
   247  4.781565817E-03
   248 -2.491347755E-01
   249 -2.057353009E-03
   250  1.056540870E-02
   251  4.781633515E-03
   252 -1.279280874E-01
   253  4.663635286E-03
   254  1.582504066E-02
   255  1.215343900E-02
   256 -1.821523419E-04
   257 -1.558676011E-04
   258  1.145198189E-03
   259 -1.185434790E-03
   260 -1.084406430E-05
   261 -5.417502084E-02
   262 -1.110450847E-02
   263 -1.391533719E-02
   264 -1.295755857E-02
   265 -1.662251161E-03
   266 -2.577825492E-03
   267 -6.269294366E-03
   268 -2.661228718E-03
   269 -4.472483995E-03
   270  6.837348822E-03
   271 -9.095832288E-03
   272 -3.946707420E-03
   273 -6.444050048E-03
   274  3.494929856E-03
   275 -2.267382149E-03
   276 -5.252124905E-04
   277 -1.840687893E-03
   278 -9.589621380E-04
   279 -8.490638307E-04
   280  5.879793736E-04
   281 -6.574858296E-04
   282  1.317173451E-03
   283  3.437581012E-03
   284 -6.454282354E-03
   285 -4.434157031E-03
   286 -4.230491139E-03
   287  7.443497513E-03
   288  9.104373059E-03
   289 -3.226206433E-03
   290  8.714307847E-04
   291 -7.565672929E-04
   292 -8.399738874E-05
   293 -3.293553214E-04
   294 -8.753605140E-03
   295 -1.076522112E-02
   296  3.586626185E-03
   297 -2.395335224E-04
   298  1.213155957E-03
   299  6.074875456E-04
   300  1.036034520E-03
   301  4.282497456E-06
   302  8.420366457E-06
   303 -2.684680879E-05
   304 -1.085409816E-03
   305 -5.307451673E-04
   306 -7.443494726E-04
   307 -1.414367188E-04
   308 -2.794063754E-02
   309 -3.496102097E-02
   310  4.116996223E-03
   311  1.949836633E-03
   312  3.478482988E-03
   313  3.415333497E-03
   314  1.058304450E-02
   315 -1.950230245E-02
   316 -2.460537415E-02
   317  6.780860595E-04
   318  3.363083932E-04
   319 -3.647374937E-03
   320  1.880776962E-03
   321  1.049217339E-02
   322 -2.530203757E-02
   323 -3.119486444E-02
   324  7.773492589E-03
   325  2.999773402E-03
   326 -5.789864236E-04
   327 -4.148687345E-03
   328  6.269714632E-03
   329 -3.363078206E-02
   330 -4.268662434E-02
   331  9.562017605E-03
   332  2.546076341E-03
   333  4.690357062E-03
   334  3.414931807E-03
   335  2.298840983E-03
   336  2.825867854E-02
   337  3.532938674E-02
   338 -3.745129706E-03
   339  5.126522596E-03
   340 -3.157036435E-04
   341  1.427854844E-03
   342 -1.087871932E-02
   343  2.049746477E-02
   344  2.581867104E-02
   345 -5.935252701E-04
   346 -3.556033770E-04
   347  3.785331376E-03
   348 -1.986641621E-03
   349 -1.067179565E-02
   350  7.175668803E-04
   351  8.845647123E-04
   352 -2.784969764E-04
   353  2.665493007E-04
   354  1.614832558E-04
   355  3.579500813E-04
   356 -6.422766269E-04
   357  9.426370064E-04
   358  1.206124230E-03
   359 -4.446297708E-04
   360  3.187061188E-04
   361  3.126308817E-04
   362  1.548114410E-04
   363  1.208200645E-04
   364  3.268722166E-02
   365  4.151933807E-02
   366 -9.700143995E-03
   367  5.667734447E-03
   368 -8.235228407E-04
   369  2.268034016E-03
   370 -2.560036788E-03
   371  2.460054028E-02
   372  3.033664592E-02
   373 -7.536663957E-03
   374 -3.039616574E-03
   375  5.294340430E-04
   376  3.947339202E-03
   377 -6.222635325E-03
   378  4.557568877E-02
   379  5.837646366E-02
   380 -9.693284588E-03
   381 -2.665454987E-03
   382 -6.890755286E-03
   383 -5.265315880E-03
   384  2.276926267E-03
   385  4.930598766E-02
   386  6.233352762E-02
   387 -9.589557070E-03
   388 -5.480021813E-03
   389  1.947474301E-04
   390  7.739551157E-03
   391 -4.871898731E-03
   392  4.997496894E-02
   393  6.313186713E-02
   394 -8.374257791E-03
   395 -3.578010988E-04
   396  8.152201367E-03
   397 -5.006161599E-03
   398 -1.517608340E-03
   399 -5.071248862E-02
   400 -6.415446871E-02
   401  1.037506591E-02
   402  5.559253288E-03
   403 -2.662439094E-04
   404 -8.015600870E-03
   405  5.349886219E-03
   406 -4.712760709E-02
   407 -6.030812598E-02
   408  9.929756567E-03
   409 -8.834356857E-03
   410  1.813156144E-03
   411 -2.503740842E-03
   412 -2.095375264E-03
   413 -5.117096036E-02
   414 -6.466539439E-02
   415  8.562946867E-03
   416  2.947107567E-04
   417 -8.400440477E-03
   418  5.076003376E-03
   419  1.067009502E-03
   420  1.389616199E-03
   421  1.753880275E-03
   422 -2.636471214E-04
   423 -5.876517194E-04
   424 -1.814200855E-04
   425 -8.103831086E-05
   426 -1.493258645E-05
   427 -2.872885834E-03
   428 -2.815219115E-03
   429 -1.819330358E-03
   430 -2.252238294E-04
   431  3.005956612E-04
   432  1.057067088E-04
   433  3.536050222E-03
   434  5.569393319E-03
   435  6.282300053E-03
   436  9.078898947E-04
   437  7.092256919E-04
   438 -3.932558116E-04
   439  1.917812280E-05
   440 -3.215182291E-03
Ene=   -6.7764563178E-01
Spin= Alpha
Occup=   2.0000000
     1  2.770699440E-03
     2  4.192179451E-03
     3  4.617205830E-03
     4  3.806698862E-02
     5 -3.029236526E-02
     6 -8.773972340E-03
     7  7.246439463E-03
     8  5.668274789E-02
     9 -4.552298467E-02
    10 -8.304643229E-03
    11  2.986674594E-03
    12  5.826461577E-02
    13 -4.157367163E-02
    14 -2.560436149E-03
    15  2.088179868E-03
    16 -8.465393224E-03
    17 -7.757708180E-03
    18 -1.114326064E-03
    19 -1.605922650E-01
    20  3.878976889E-03
    21  1.001278815E-01
    22 -8.001878986E-02
    23  3.656626076E-02
    24  5.674912432E-02
    25  3.434826474E-04
    26  4.104620742E-03
    27 -2.493492379E-03
    28 -1.511805659E-01
    29  2.982153170E-04
    30  6.468323231E-03
    31 -3.681714342E-03
    32 -7.293482879E-02
    33  4.007422626E-03
    34 -1.024004659E-03
    35 -4.914319661E-03
    36  3.496524438E-04
    37 -6.808575295E-05
    38 -1.902011452E-03
    39 -8.599488229E-04
    40  5.201755951E-04
    41  1.306652337E-01
    42  2.738867210E-02
    43 -5.324109042E-02
    44 -1.297844510E-03
    45  1.786599901E-06
    46  2.857972549E-06
    47  9.180694842E-03
    48 -3.067733036E-02
    49  8.548137406E-03
    50 -1.173136470E-05
    51  1.433725299E-02
    52 -4.790357253E-02
    53  1.334848172E-02
    54  7.096497737E-05
    55  6.502540181E-03
    56 -2.149534195E-02
    57  6.011401588E-03
    58 -9.008644114E-04
    59  1.321734608E-03
    60  5.704442790E-03
    61  3.714112577E-03
    62 -4.134438289E-04
    63  7.955051817E-03
    64  1.289520059E-03
    65 -1.297187994E-03
    66 -8.959491216E-04
    67 -1.906261257E-02
    68 -2.958535132E-02
    69 -4.651869560E-03
    70 -1.313529919E-02
    71 -1.195777196E-03
    72  7.884160441E-02
    73 -6.933354224E-03
    74 -1.891514646E-02
    75 -1.932267579E-03
    76  3.772721104E-02
    77 -2.464290148E-03
    78 -5.591824777E-03
    79  2.707160981E-03
    80  9.069449464E-04
    81  3.678968400E-04
    82  2.134299254E-03
    83 -5.458900279E-04
    84  8.028348006E-04
    85 -8.117538944E-02
    86  1.547041473E-02
    87 -1.962202383E-02
    88  2.746787954E-02
    89 -1.446930341E-03
    90 -2.189313170E-03
    91 -3.037127000E-02
    92 -2.807054092E-02
    93 -3.680588405E-03
    94  4.579624700E-03
    95 -4.575306322E-02
    96 -4.398223749E-02
    97 -5.357607694E-03
    98  4.340006141E-03
    99 -4.088001400E-02
   100 -2.041185681E-02
   101 -7.081039189E-03
   102  3.142199023E-03
   103 -2.480154183E-03
   104  6.553822843E-03
   105 -2.785611806E-03
   106  4.341555551E-03
   107  8.329761427E-02
   108 -6.478509354E-02
   109  4.911793343E-02
   110 -4.020704391E-03
   111  2.064334926E-02
   112  3.204794761E-02
   113 -3.356814324E-03
   114  2.313295248E-03
   115 -7.228586916E-03
   116 -8.543034826E-02
   117 -4.369981087E-03
   118  3.565591575E-03
   119 -1.055583989E-02
   120 -4.115130112E-02
   121 -6.444439204E-03
   122  1.722375975E-03
   123 -2.983584363E-03
   124 -1.357528727E-04
   125  2.913507206E-04
   126 -9.105677711E-04
   127 -2.199095684E-03
   128 -9.471420261E-05
   129 -4.570064671E-02
   130  2.348434468E-02
   131 -2.936775460E-02
   132  1.712322591E-02
   133 -1.749941871E-02
   134 -2.715795364E-02
   135  9.196843420E-03
   136 -7.296590835E-03
   137  8.231207996E-03
   138  7.233944418E-02
   139  1.345145382E-02
   140 -1.032182630E-02
   141  1.195568387E-02
   142  3.508510059E-02
   143  1.637011388E-03
   144 -3.845707575E-03
   145  5.003522528E-03
   146 -8.343412953E-04
   147  2.633660687E-04
   148  1.445516658E-04
   149  2.373716953E-03
   150 -3.773589707E-04
   151 -6.385292267E-02
   152 -1.073902603E-02
   153 -2.967411642E-02
   154  5.407649308E-03
   155 -1.328097552E-03
   156 -2.009497644E-03
   157  2.432230484E-02
   158 -5.230558791E-03
   159  3.264529754E-02
   160  4.214209925E-03
   161  3.746422155E-02
   162 -9.218259328E-03
   163  4.993363731E-02
   164  3.928444717E-03
   165  2.452909924E-02
   166  6.677218798E-03
   167  3.609343686E-02
   168 -1.955717545E-05
   169 -3.210796658E-04
   170 -1.370625759E-03
   171  8.470781133E-03
   172 -2.898128854E-03
   173  6.670218765E-02
   174 -1.515131290E-02
   175  6.259034024E-02
   176  2.163586199E-02
   177 -4.310044651E-02
   178 -6.691209260E-02
   179 -3.442085457E-03
   180 -4.422483387E-03
   181  7.597129725E-03
   182  1.783876315E-01
   183 -5.610236219E-03
   184 -5.575974103E-03
   185  1.138106688E-02
   186  8.551949514E-02
   187  3.285463985E-03
   188 -6.476112737E-03
   189 -9.557099895E-04
   190  7.455659966E-04
   191 -1.974805241E-03
   192  2.908102837E-04
   193  2.155286422E-04
   194 -6.873342951E-04
   195  1.162037775E-01
   196 -5.343392315E-05
   197 -4.905878578E-03
   198  5.395172857E-03
   199  2.243192910E-02
   200  3.482581426E-02
   201  5.623987621E-03
   202  6.016253172E-03
   203 -1.452498441E-03
   204 -9.286921921E-02
   205  7.998563013E-03
   206  8.651871337E-03
   207 -2.664678366E-03
   208 -4.419953823E-02
   209  2.810295804E-03
   210  5.611172987E-03
   211  3.715900994E-03
   212 -1.014240230E-03
   213  3.123392677E-04
   214 -1.872961230E-03
   215 -8.230679078E-04
   216 -6.579212884E-04
   217 -5.484015962E-02
   218 -2.623303463E-03
   219 -4.287349189E-02
   220 -1.405919431E-03
   221  3.593701433E-02
   222  5.573481736E-02
   223 -6.676619076E-03
   224 -5.915345692E-03
   225 -9.028592818E-04
   226 -1.478479954E-01
   227 -7.686289982E-03
   228 -8.933617967E-03
   229 -7.960266772E-04
   230 -7.586744241E-02
   231 -1.210452444E-02
   232 -4.736435298E-04
   233 -2.800491766E-03
   234 -3.836069757E-04
   235  3.017890426E-04
   236  4.139380593E-04
   237  1.187583764E-03
   238  1.362013468E-03
   239 -2.573576636E-02
   240  9.332494452E-03
   241 -9.078550924E-03
   242  4.250352954E-03
   243  3.304776825E-02
   244  5.125413208E-02
   245  5.271316261E-03
   246 -9.221026919E-04
   247  7.035043206E-03
   248 -1.359643378E-01
   249  7.081451361E-03
   250 -2.760744015E-03
   251  9.030750302E-03
   252 -6.980874245E-02
   253  4.617131858E-03
   254  6.525792391E-03
   255  8.227713771E-03
   256  1.047151058E-03
   257  1.097250955E-03
   258  5.677480398E-04
   259  8.734896727E-04
   260  5.985354676E-04
   261 -3.474381275E-02
   262 -4.155726249E-04
   263 -1.503947716E-02
   264 -2.956351639E-03
   265 -6.892921632E-02
   266 -1.069023325E-01
   267  8.910824268E-04
   268  8.546213935E-03
   269 -6.606057223E-03
   270  2.835729271E-01
   271  1.415841905E-03
   272  8.979487651E-03
   273 -7.480995010E-03
   274  1.456431653E-01
   275 -2.774286483E-04
   276  1.957422378E-02
   277 -1.256376993E-02
   278 -8.021346716E-05
   279  6.246047654E-05
   280  1.280088776E-03
   281  8.129809896E-04
   282 -2.160580552E-04
   283  6.161683500E-02
   284  3.481376091E-03
   285 -2.273208959E-02
   286  1.024066489E-02
   287 -2.795616502E-02
   288 -3.510997097E-02
   289  3.070808999E-03
   290 -5.102037166E-03
   291  1.287260618E-03
   292 -1.580317015E-03
   293  1.255399571E-02
   294 -2.756962912E-02
   295 -3.458309767E-02
   296  2.646007987E-03
   297  1.581008101E-03
   298  4.275318144E-03
   299  2.969790072E-03
   300  1.143120552E-02
   301 -3.352712612E-06
   302  7.582621767E-06
   303 -1.524351105E-04
   304  3.916211662E-04
   305 -1.313780243E-03
   306  3.650329763E-04
   307  1.044323974E-04
   308  7.560287103E-03
   309  9.671706528E-03
   310  1.655915474E-03
   311 -6.338632996E-04
   312 -1.735550144E-03
   313 -7.658254180E-04
   314 -5.743754599E-03
   315  2.138585223E-02
   316  2.663360559E-02
   317 -4.318050924E-03
   318 -5.860807450E-04
   319  2.907018533E-03
   320 -2.409500194E-03
   321 -7.075852836E-03
   322 -1.381140406E-02
   323 -1.700934822E-02
   324  3.914125689E-03
   325  1.323549228E-03
   326  9.946001148E-06
   327 -2.508736025E-03
   328  3.559538387E-03
   329 -1.835405403E-02
   330 -2.327308427E-02
   331  4.976602497E-03
   332  1.084704240E-03
   333  2.875224719E-03
   334  1.624625967E-03
   335  1.582156039E-03
   336  6.172555495E-03
   337  7.934313647E-03
   338  1.612146953E-03
   339  1.435926167E-03
   340 -6.593790694E-04
   341  7.576589414E-04
   342 -5.617559321E-03
   343  2.039322248E-02
   344  2.539917828E-02
   345 -4.293991314E-03
   346  5.204645641E-04
   347  3.219020524E-03
   348 -1.565286891E-03
   349 -5.319739009E-03
   350  2.883221609E-02
   351  3.550638704E-02
   352 -8.405256380E-03
   353 -3.348228084E-03
   354  6.709258191E-05
   355  4.813420183E-03
   356 -7.621750235E-03
   357  3.830749257E-02
   358  4.862767317E-02
   359 -1.092022606E-02
   360 -7.946247331E-04
   361  6.443361494E-03
   362 -3.145525302E-03
   363 -3.080313536E-03
   364 -1.994161133E-02
   365 -2.531790775E-02
   366  5.650568783E-03
   367 -3.375948226E-03
   368  1.009025553E-03
   369 -1.356041745E-03
   370  1.205483950E-03
   371 -1.500555254E-02
   372 -1.847544568E-02
   373  4.531470921E-03
   374  1.941140077E-03
   375  1.976896555E-04
   376 -2.378920667E-03
   377  4.007519551E-03
   378 -3.277311277E-02
   379 -4.097743171E-02
   380  4.529074190E-03
   381  1.851362175E-03
   382  4.379672277E-03
   383  3.832038995E-03
   384  2.617441479E-03
   385 -3.009652045E-02
   386 -3.807396396E-02
   387  6.091191667E-03
   388  3.239640605E-03
   389 -7.650756884E-04
   390 -4.761033723E-03
   391  3.148908570E-03
   392 -2.556064255E-02
   393 -3.320701068E-02
   394  6.552108884E-03
   395  7.401652435E-05
   396 -4.678815160E-03
   397  2.464199473E-03
   398 -3.257037205E-03
   399 -2.767289198E-02
   400 -3.501017706E-02
   401  5.717256831E-03
   402  3.423084032E-03
   403 -5.491326412E-04
   404 -4.069011380E-03
   405  2.744366550E-03
   406 -3.052875731E-02
   407 -3.811466485E-02
   408  4.158680655E-03
   409 -5.445032596E-03
   410  7.750422501E-04
   411 -1.342267394E-03
   412  3.018632063E-03
   413 -2.311743823E-02
   414 -3.009941714E-02
   415  6.197801738E-03
   416  5.018630611E-04
   417 -4.074408685E-03
   418  2.525184025E-03
   419 -3.847323860E-03
   420  5.772667711E-02
   421  7.302594872E-02
   422 -1.160995528E-02
   423 -6.471708643E-03
   424  6.892983772E-04
   425  8.995939570E-03
   426 -5.780037438E-03
   427  5.604526531E-02
   428  7.124446251E-02
   429 -1.053879804E-02
   430 -3.351850294E-03
   431 -8.042251677E-03
   432 -6.593124754E-03
   433  7.743293276E-04
   434  5.583983683E-02
   435  7.104381722E-02
   436 -1.087667569E-02
   437  1.037662061E-02
   438 -1.752658251E-03
   439  2.850809991E-03
   440  6.286681501E-04
Ene=   -6.6813555714E-01
Spin= Alpha
Occup=   2.0000000
     1  1.440284442E-04
     2  2.233257029E-04
     3 -2.757540351E-02
     4 -1.824681904E-02
     5 -2.980717033E-02
     6 -5.688796286E-04
     7 -4.325289206E-02
     8 -2.866148722E-02
     9 -4.681334628E-02
    10 -5.943387429E-04
    11 -2.287468177E-02
    12 -1.451576336E-02
    13 -2.410194051E-02
    14  2.195990179E-03
    15  1.518087713E-03
    16  5.433830939E-03
    17 -7.330316262E-03
    18  4.052865578E-03
    19 -9.735288337E-03
    20 -2.927816177E-02
    21 -1.031012230E-02
    22 -1.587362484E-02
    23  1.313713218E-02
    24  2.041775524E-02
    25  1.889902563E-03
    26 -2.123947922E-03
    27 -3.448101486E-04
    28 -5.450424015E-02
    29  2.076629764E-03
    30 -2.272528518E-03
    31 -3.276364625E-04
    32 -3.323894892E-02
    33  5.159274992E-03
    34 -1.499984509E-04
    35  1.620090790E-03
    36  3.074396506E-03
    37  1.785816165E-03
    38  5.551625339E-05
    39 -3.659442234E-04
    40 -2.257743818E-03
    41 -1.346928709E-02
    42  7.561464671E-03
    43  1.348985120E-03
    44  5.289930853E-03
    46  7.797306551E-08
    47  3.783058806E-02
    48  7.367364768E-03
    49  2.659404122E-02
    50 -3.701343072E-06
    51  6.003575540E-02
    52  1.168164246E-02
    53  4.220101344E-02
    54  6.937611098E-05
    55  2.245231597E-02
    56  4.463709756E-03
    57  1.580652507E-02
    58 -2.414578776E-03
    59  1.686672083E-03
    60 -3.953330417E-03
    61  9.004087689E-03
    62 -4.563567821E-03
    63  1.104392604E-04
    64 -1.471704921E-02
    65 -2.789244594E-03
    66 -1.037994816E-02
    67 -6.212014905E-02
    68 -9.654694372E-02
    69  4.947491210E-03
    70 -1.292517172E-03
    71  1.229419236E-02
    72  2.577137224E-01
    73  5.408558595E-03
    74 -1.382930530E-03
    75  1.321777819E-02
    76  1.574434934E-01
    77  2.816761972E-03
    78  4.605238779E-04
    79  1.165073538E-02
    80 -6.423778085E-04
    81 -2.300410246E-04
    82  5.644038882E-04
    83 -9.172706522E-04
    84 -1.036744606E-03
    85  3.264012077E-02
    86  5.615048536E-03
    87  1.520292995E-03
    88  1.445082728E-02
    89 -6.880575804E-04
    90 -1.066583049E-03
    91 -1.744960488E-02
    92 -1.357292720E-02
    93  4.159780144E-02
    94  2.709373246E-03
    95 -2.743820429E-02
    96 -2.130807525E-02
    97  6.550302797E-02
    98  2.895165583E-03
    99 -1.457643937E-02
   100 -1.088816996E-02
   101  3.125276502E-02
   102  5.204532307E-03
   103 -6.607131509E-03
   104  3.518362385E-03
   105  5.901085371E-03
   106 -7.878100151E-04
   107  1.469733221E-02
   108  1.547278141E-03
   109 -1.446642479E-02
   110 -3.297152638E-03
   111  4.569465616E-02
   112  7.102536754E-02
   113 -8.960186779E-03
   114 -6.606406360E-03
   115  2.567766457E-03
   116 -1.895589892E-01
   117 -1.014175468E-02
   118 -7.400730068E-03
   119  3.094953071E-03
   120 -1.116045037E-01
   121 -8.755773310E-03
   122 -5.926379736E-03
   123  1.434506125E-03
   124  1.669421739E-03
   125  1.061573129E-03
   126 -1.332264142E-03
   127  6.973314434E-04
   128  1.698949144E-03
   129  3.171581263E-02
   130 -1.847744559E-02
   131 -2.410586823E-03
   132  6.212256115E-03
   133  4.897760702E-02
   134  7.612084207E-02
   135  8.246087427E-03
   136  6.355603706E-03
   137 -1.350180782E-03
   138 -2.031914729E-01
   139  8.897560957E-03
   140  6.851839930E-03
   141 -1.378378441E-03
   142 -1.240598274E-01
   143  9.400742025E-03
   144  3.044850976E-03
   145 -1.157107979E-03
   146  1.933013189E-03
   147  9.490984777E-04
   148 -6.979915828E-04
   149  7.171289908E-04
   150  1.753800034E-03
   151 -2.465710459E-02
   152  1.320095519E-02
   153  4.481464860E-03
   154  4.229129177E-04
   155  5.407021361E-04
   156  8.380210224E-04
   157  7.126839129E-03
   158  2.445009671E-02
   159 -3.843132131E-02
   160 -2.123836577E-03
   161  1.131189944E-02
   162  3.841841615E-02
   163 -6.042239003E-02
   164 -2.338806215E-03
   165  4.177517566E-03
   166  1.895576585E-02
   167 -3.062217904E-02
   168 -2.423065963E-03
   169  5.053916958E-03
   170 -5.287676893E-03
   171 -7.385990745E-03
   172  7.107191689E-05
   173 -1.746995105E-02
   174 -1.371141203E-02
   175  1.519612939E-02
   176 -3.648852732E-03
   177  1.227611386E-02
   178  1.908119918E-02
   179 -1.768602961E-03
   180  2.347763950E-03
   181  8.743363343E-04
   182 -5.092484197E-02
   183 -1.971176747E-03
   184  2.648358261E-03
   185  1.062945072E-03
   186 -2.994994325E-02
   187 -2.544980942E-03
   188  1.818650577E-03
   189  2.386354317E-05
   190  3.125294122E-03
   191  1.869438728E-03
   192  3.386548680E-04
   193 -5.207020781E-04
   194 -2.171841996E-03
   195 -5.063978417E-03
   196 -9.835125675E-03
   197 -3.444341877E-03
   198 -4.270581123E-03
   199 -5.796610182E-02
   200 -9.009874925E-02
   201 -4.061222623E-03
   202  1.380780609E-03
   203 -1.384702206E-02
   204  2.404515783E-01
   205 -4.351835405E-03
   206  1.544991866E-03
   207 -1.574063339E-02
   208  1.416413835E-01
   209 -4.661709015E-03
   210  1.014332213E-03
   211 -1.263881967E-02
   212 -8.199149630E-04
   213 -4.581318871E-04
   214  6.746206381E-04
   215 -1.577187105E-04
   216 -1.264416580E-03
   217 -1.347789570E-02
   218  2.911163581E-03
   219 -4.485995816E-03
   220 -1.916876094E-02
   221  3.762290935E-03
   222  5.840748250E-03
   223 -4.386997268E-03
   224 -3.216540246E-03
   225  9.820995259E-03
   226 -1.558894361E-02
   227 -6.082917004E-03
   228 -4.693641018E-03
   229  1.432886911E-02
   230 -8.277026320E-03
   231 -3.744131572E-03
   232 -1.522698718E-03
   233  5.674821351E-03
   234 -1.108154776E-03
   235 -2.073780086E-03
   236  6.912657845E-04
   237  1.161628975E-03
   238  5.385607840E-04
   239 -1.015940020E-02
   240  4.560769424E-03
   241  2.312746199E-03
   242 -5.197842287E-03
   243 -2.988371840E-03
   244 -4.638809450E-03
   245  1.594589463E-03
   246  5.708011542E-03
   247 -9.281705098E-03
   248  1.236856705E-02
   249  2.400670546E-03
   250  8.431249134E-03
   251 -1.331415255E-02
   252  6.714111576E-03
   253  1.124354102E-03
   254  2.434259655E-03
   255 -5.852950206E-03
   256 -2.162438828E-03
   257 -3.442251832E-04
   258 -9.101952433E-04
   259 -1.058175500E-03
   260  7.499243172E-04
   261  1.148678512E-02
   262  5.756554299E-04
   263 -2.466626239E-03
   264  7.365990545E-03
   265 -7.981955704E-04
   266 -1.238794727E-03
   267 -6.632846185E-03
   268 -4.327013100E-03
   269 -7.163076980E-03
   270  3.300188301E-03
   271 -9.573352956E-03
   272 -6.311056825E-03
   273 -1.033511041E-02
   274  1.813839313E-03
   275 -3.384081829E-03
   276 -2.115475208E-03
   277 -3.971337598E-03
   278 -1.370977434E-03
   279 -8.230761703E-04
   280  1.051698254E-03
   281 -1.130450875E-03
   282  1.366329320E-03
   283  3.435930944E-03
   284  5.540686325E-03
   285  2.301178429E-03
   286  5.510741573E-03
   287 -1.164919648E-02
   288 -1.292782172E-02
   289  1.058041543E-03
   290 -2.002930525E-03
   291  2.534683987E-04
   292 -6.302267377E-04
   293  3.082772115E-04
   294 -1.116539775E-02
   295 -1.454447919E-02
   296  7.211655327E-04
   297  7.483165145E-04
   298  1.569434954E-03
   299  1.271024959E-03
   300  2.549740205E-03
   301 -8.543082538E-07
   302 -1.192811701E-05
   303  1.464976763E-06
   304  1.956145831E-03
   305  3.807327070E-04
   306  1.376681858E-03
   307 -1.341401107E-04
   308  5.402770611E-02
   309  6.463086902E-02
   310 -3.033841077E-03
   311 -3.053610511E-03
   312 -7.815520715E-03
   313 -5.593800060E-03
   314 -7.871510194E-03
   315  5.386757504E-02
   316  6.514630223E-02
   317 -3.002482961E-03
   318 -3.056400463E-04
   319  8.921251494E-03
   320 -4.715926539E-03
   321 -8.647715778E-03
   322 -4.048111185E-02
   323 -4.897373453E-02
   324  4.263676744E-03
   325  4.178576127E-03
   326 -7.158831074E-04
   327 -6.224103473E-03
   328  1.096229907E-02
   329 -4.013024087E-02
   330 -4.794113924E-02
   331  4.484638288E-03
   332  1.991227484E-03
   333  5.450365611E-03
   334  4.640539377E-03
   335  4.708167659E-03
   336 -4.269690983E-02
   337 -5.060809956E-02
   338  2.402054825E-03
   339 -7.403340061E-03
   340  1.691187927E-03
   341 -2.323709942E-03
   342  5.732686111E-03
   343 -4.237006269E-02
   344 -5.171340537E-02
   345  2.198930243E-03
   346  7.301722344E-04
   347 -6.818638094E-03
   348  4.059412184E-03
   349  7.925687704E-03
   350 -1.087085269E-02
   351 -1.317850308E-02
   352  1.509399076E-03
   353  1.181365162E-03
   354  8.296424305E-06
   355 -1.641773513E-03
   356  2.566383754E-03
   357 -1.077976518E-02
   358 -1.289806350E-02
   359  1.489226939E-03
   360 -6.547278767E-06
   361 -1.689997301E-03
   362  1.063399194E-03
   363  8.937485208E-04
   364  5.090900086E-02
   365  6.083103348E-02
   366 -6.115289829E-03
   367  9.052494873E-03
   368 -1.614200916E-03
   369  2.059503831E-03
   370 -5.880387279E-03
   371  5.134852417E-02
   372  6.215788143E-02
   373 -5.778995876E-03
   374 -5.937868738E-03
   375  5.948422313E-04
   376  7.459945395E-03
   377 -1.389319874E-02
   378 -1.720072417E-03
   379 -2.673002392E-03
   380  1.222944315E-03
   381 -1.736880619E-04
   382 -1.672084819E-05
   383  8.774417600E-04
   384  1.447185941E-03
   385 -9.582941679E-03
   386 -1.063990753E-02
   387  5.949035043E-04
   388  9.041680268E-04
   389 -3.460890458E-04
   390 -1.002416795E-03
   391 -7.257261009E-03
   392  1.768339069E-03
   393  1.082003045E-03
   394  5.688833571E-04
   395 -2.542263682E-04
   396  2.134018387E-04
   397  4.490062274E-04
   398  5.747531529E-03
   399  7.572654289E-03
   400  8.390223623E-03
   401 -3.134108077E-04
   402 -8.569717985E-04
   403  5.047095940E-04
   404  6.740832023E-04
   405  5.791874531E-03
   406  3.665198789E-03
   407  4.599925006E-03
   408 -1.097102438E-03
   409  8.485063491E-04
   410  2.795276097E-04
   411 -4.359804237E-04
   412  1.976786076E-03
   413 -3.666504394E-03
   414 -3.300501516E-03
   415 -1.876283493E-04
   416  1.841213745E-04
   417 -3.498495071E-04
   418 -1.200982552E-04
   419 -7.683438511E-03
   420  2.026455953E-03
   421  2.250824779E-03
   422 -4.813807722E-05
   423 -7.479872578E-04
   424 -2.935078990E-04
   425 -1.627012776E-04
   426  1.671569810E-03
   427 -5.410521097E-03
   428 -5.658766212E-03
   429  5.913187922E-04
   430 -6.041477003E-05
   431  5.985216569E-04
   432  2.977569875E-04
   433 -7.459803790E-03
   434  5.403983962E-03
   435  6.005397286E-03
   436 -1.057082654E-03
   437  7.119925088E-04
   438 -4.803292178E-04
   439 -1.870380258E-04
   440  6.145480745E-03
Ene=   -6.6813411896E-01
Spin= Alpha
Occup=   2.0000000
     1  7.114567550E-04
     2  1.102812834E-03
     3  3.611299114E-02
     4 -1.119733640E-02
     5 -2.838179300E-02
     6 -2.799703778E-03
     7  5.682692937E-02
     8 -1.767875270E-02
     9 -4.469129077E-02
    10 -2.943213701E-03
    11  2.780761524E-02
    12 -7.152261215E-03
    13 -2.204767623E-02
    14 -5.469291329E-03
    15  9.421741305E-03
    16  1.001432347E-04
    17  4.166010376E-04
    18  7.170070251E-04
    19 -1.701810304E-02
    20  4.145749927E-03
    21  2.563591118E-03
    22  3.637424412E-03
    23  6.414914663E-02
    24  9.970112069E-02
    25  7.143659632E-03
    26 -1.131941163E-02
    27 -3.110454801E-03
    28 -2.661518195E-01
    29  7.659917399E-03
    30 -1.223979934E-02
    31 -3.293650995E-03
    32 -1.622781798E-01
    33  6.360397932E-03
    34 -9.487898642E-03
    35 -4.853037102E-03
    36 -7.772840208E-04
    37 -9.467582836E-04
    38 -3.660657751E-05
    39 -3.348964226E-04
    40 -2.151073143E-04
    41 -2.135909888E-02
    42  8.682484586E-03
    43 -1.537181638E-02
    44 -5.823532030E-03
    45 -2.204161251E-06
    46 -3.449486912E-06
    47  4.574111167E-03
    48 -4.619194020E-02
    49  6.261392949E-03
    50  8.730895414E-06
    51  7.258803366E-03
    52 -7.330306418E-02
    53  9.935217310E-03
    54  2.596728343E-06
    55  2.721621883E-03
    56 -2.750239324E-02
    57  3.778967498E-03
    58  1.979922699E-04
    59  2.566798097E-03
    60  9.450215744E-03
    61  4.946928074E-03
    62  2.427480111E-03
    63 -1.252783250E-02
    64 -3.467219638E-03
    65  1.786386168E-02
    66 -3.847455734E-04
    67 -2.068334090E-02
    68 -3.214582451E-02
    69  1.555243616E-03
    70 -9.971624947E-04
    71  4.065984495E-03
    72  8.580556691E-02
    73  1.692456927E-03
    74 -1.135836817E-03
    75  4.366183226E-03
    76  5.239426067E-02
    77  9.549442171E-05
    78 -4.865081879E-03
    79  3.651061097E-03
    80 -3.453075675E-04
    81 -8.428601914E-05
    82 -1.257829727E-03
    83  1.005164260E-03
    84  3.756229902E-03
    85  1.813258760E-02
    86  4.074104377E-04
    87 -9.130099962E-03
    88  3.363731991E-03
    89 -2.291726633E-04
    90 -3.554326387E-04
    91  1.794067854E-03
    92  4.156919488E-02
    93  1.631433470E-02
    94  9.067101735E-04
    95  2.804516478E-03
    96  6.524238973E-02
    97  2.567200605E-02
    98  9.033205493E-04
    99  1.283137008E-03
   100  3.398118616E-02
   101  1.245998777E-02
   102  7.736720616E-04
   103 -4.040617189E-03
   104 -9.159538648E-03
   105  6.154998378E-04
   106 -2.522717879E-03
   107  6.337518531E-03
   108  4.215756269E-03
   109  3.250320226E-02
   110 -3.083380847E-03
   111 -4.052286330E-02
   112 -6.298638271E-02
   113  7.892096521E-03
   114  5.929428255E-03
   115 -2.327452052E-03
   116  1.680950693E-01
   117  8.985305820E-03
   118  6.591287606E-03
   119 -2.762755095E-03
   120  9.908003131E-02
   121  6.650594378E-03
   122  6.387849339E-03
   123 -2.076397575E-03
   124  2.700791626E-03
   125  1.569562953E-03
   126 -7.604591634E-04
   127  3.208851136E-04
   128  8.722238064E-04
   129 -2.086181448E-02
   130  6.670928913E-03
   131  1.013794784E-02
   132 -1.115853859E-02
   133 -4.347532812E-02
   134 -6.756921880E-02
   135 -6.883699146E-03
   136 -6.096908968E-03
   137  1.541446904E-03
   138  1.803662503E-01
   139 -7.375389065E-03
   140 -6.625959116E-03
   141  1.632369987E-03
   142  1.100853679E-01
   143 -4.436637351E-03
   144 -6.802481958E-03
   145  4.146043322E-03
   146  2.355135352E-03
   147  1.739413609E-03
   148 -1.136391647E-03
   149  6.333183692E-04
   150  7.459672634E-04
   151  2.817134842E-02
   152 -3.640191856E-03
   153 -1.096394253E-02
   154  4.494514803E-03
   155 -4.821535761E-04
   156 -7.474527365E-04
   157 -4.250396278E-02
   158  1.589761242E-02
   159  5.794652995E-03
   160  1.895477417E-03
   161 -6.682407653E-02
   162  2.490793306E-02
   163  9.179477732E-03
   164  2.036396113E-03
   165 -3.317489574E-02
   166  1.394983987E-02
   167  4.171453466E-03
   168  5.277175716E-03
   169 -7.360821777E-03
   170 -1.331061806E-03
   171 -4.873161462E-03
   172  2.182139325E-03
   173  1.698895168E-02
   174 -1.149130457E-02
   175  1.931548201E-02
   176 -1.551722175E-02
   177  5.984221730E-02
   178  9.301435441E-02
   179 -8.342078516E-03
   180  1.158670114E-02
   181  4.484910024E-03
   182 -2.482190238E-01
   183 -9.530057167E-03
   184  1.296275172E-02
   185  5.280358289E-03
   186 -1.464611356E-01
   187 -7.202778222E-03
   188  1.129591996E-02
   189  3.542021446E-03
   190 -1.088511514E-03
   191 -5.263987497E-04
   192  5.795643794E-04
   193 -8.674404078E-06
   194 -3.040968712E-04
   195  1.725756723E-02
   196 -1.145053242E-02
   197  9.853693021E-03
   198  1.355340328E-02
   199 -1.930207516E-02
   200 -3.000222212E-02
   201 -1.343484666E-03
   202  5.439486745E-04
   203 -4.607187446E-03
   204  8.007252421E-02
   205 -1.452523355E-03
   206  5.456850636E-04
   207 -5.242398960E-03
   208  4.718834169E-02
   209 -1.325233412E-03
   210  1.732336057E-03
   211 -4.113379897E-03
   212 -4.332527931E-04
   213 -2.163015748E-04
   214 -1.534701700E-03
   215  1.224503398E-03
   216  3.633838088E-03
   217 -1.824980093E-02
   218  1.430041329E-03
   219  9.907972244E-03
   220 -7.735280222E-03
   221  1.240880015E-03
   222  1.926382316E-03
   223  3.651070685E-04
   224  9.989830473E-03
   225  3.861900641E-03
   226 -5.142323067E-03
   227  6.111762402E-04
   228  1.442538682E-02
   229  5.626482576E-03
   230 -2.690016985E-03
   231 -3.008673143E-04
   232  5.305614008E-03
   233  2.189224948E-03
   234 -4.577039177E-04
   235 -9.799452072E-04
   236 -7.039276502E-04
   237 -4.838788744E-04
   238 -2.229545413E-03
   239  3.269111716E-04
   240 -7.190455348E-04
   241 -7.825431290E-03
   242 -2.127223831E-03
   243  2.656303000E-03
   244  4.123386806E-03
   245 -1.009474305E-02
   246  3.955061762E-03
   247  1.444789517E-03
   248 -1.100144098E-02
   249 -1.468201791E-02
   250  5.558368210E-03
   251  1.995725570E-03
   252 -5.842630064E-03
   253 -5.483737872E-03
   254  2.610757841E-03
   255  1.678615212E-03
   256  3.894330048E-04
   257 -1.442392758E-03
   258  7.205971991E-04
   259 -1.527288764E-03
   260 -1.454011853E-03
   261 -5.204927311E-03
   262  6.358825493E-03
   263 -4.273455916E-03
   264 -5.325739418E-04
   265 -3.932256606E-03
   266 -6.104338043E-03
   267  8.589273543E-03
   268 -2.434458494E-03
   269 -6.867669981E-03
   270  1.628893123E-02
   271  1.246349772E-02
   272 -3.793646356E-03
   273 -9.812165116E-03
   274  8.631089842E-03
   275  5.039069056E-03
   276 -5.063097135E-04
   277 -4.919044789E-03
   278 -1.411383907E-03
   279  1.118025797E-03
   280  1.052963782E-03
   281 -4.390588941E-04
   282 -1.776993967E-03
   283  8.162443096E-03
   284 -5.286147739E-03
   285 -1.778664907E-04
   286  4.746169608E-03
   287 -5.565555121E-02
   288 -6.716329636E-02
   289  2.982292949E-03
   290 -9.860522513E-03
   291  1.360250715E-03
   292 -3.096493894E-03
   293  8.983394215E-03
   294 -5.576372219E-02
   295 -6.683845999E-02
   296  3.090563244E-03
   297  3.682778167E-03
   298  7.523541451E-03
   299  6.192857647E-03
   300  8.510388301E-03
   301  7.866122873E-06
   302 -2.521455239E-05
   303  2.346112856E-04
   304  2.352809084E-04
   305 -2.387529632E-03
   306  3.239911317E-04
   307 -1.389795224E-04
   308  1.772727117E-02
   309  2.237813690E-02
   310 -8.698867620E-04
   311 -1.036033676E-03
   312 -2.603091254E-03
   313 -1.885298244E-03
   314 -4.138288614E-03
   315  1.819822829E-02
   316  2.084898398E-02
   317 -1.277738588E-03
   318 -8.432882425E-05
   319  2.960913738E-03
   320 -1.547742098E-03
   321 -1.788988534E-03
   322  3.590180333E-02
   323  4.345245518E-02
   324 -3.898527982E-03
   325 -3.668615427E-03
   326  5.957876890E-04
   327  5.549859137E-03
   328 -9.374799772E-03
   329  3.559395885E-02
   330  4.249922929E-02
   331 -4.004927937E-03
   332 -1.795971117E-03
   333 -4.799574052E-03
   334 -4.138893075E-03
   335 -4.286775750E-03
   336  3.757196324E-02
   337  4.602606030E-02
   338 -2.061404627E-03
   339  6.602732479E-03
   340 -1.477492878E-03
   341  2.071523104E-03
   342 -7.041579745E-03
   343  3.793841325E-02
   344  4.481906583E-02
   345 -2.318415572E-03
   346 -6.690903086E-04
   347  6.019474389E-03
   348 -3.603581826E-03
   349 -4.972896344E-03
   350 -5.301395669E-02
   351 -6.416569711E-02
   352  5.708889423E-03
   353  5.585140354E-03
   354 -4.312067428E-05
   355 -8.127926114E-03
   356  1.401143254E-02
   357 -5.255330443E-02
   358 -6.279712598E-02
   359  6.253308650E-03
   360  1.140750577E-04
   361 -8.169022438E-03
   362  5.280645769E-03
   363  6.460106353E-03
   364  1.695771169E-02
   365  2.023569628E-02
   366 -1.750409633E-03
   367  3.021437346E-03
   368 -4.975996540E-04
   369  6.883748812E-04
   370 -2.086371837E-03
   371  1.709812206E-02
   372  2.068935417E-02
   373 -1.752751899E-03
   374 -1.985708617E-03
   375  1.509366145E-04
   376  2.481525990E-03
   377 -4.407251619E-03
   378  5.254622803E-03
   379  5.390505484E-03
   380 -4.536374712E-04
   381 -2.975674625E-04
   382 -2.567681058E-04
   383 -4.585186614E-04
   384  7.964560432E-03
   385 -3.183110258E-03
   386 -3.523742557E-03
   387  1.015966390E-04
   388  4.347302982E-04
   389  6.971745313E-04
   390 -2.877856035E-04
   391 -2.407377589E-03
   392 -5.216771813E-03
   393 -5.897879779E-03
   394  1.100756929E-03
   395  4.886130182E-05
   396 -3.170578186E-04
   397  8.646420903E-04
   398 -5.602739859E-03
   399 -6.725469172E-03
   400 -7.470246773E-03
   401  3.518309775E-04
   402  1.236170678E-04
   403  2.139818074E-04
   404 -1.099535008E-03
   405 -5.103615030E-03
   406  4.125716312E-03
   407  3.857694926E-03
   408  4.384380970E-05
   409  2.536037056E-04
   410  3.245357248E-05
   411  3.345258784E-04
   412  7.844058388E-03
   413 -4.129451352E-03
   414 -5.041636741E-03
   415  1.338127518E-03
   416 -6.704048787E-04
   417 -4.927381045E-04
   418  5.521584196E-04
   419 -2.872556867E-03
   420  9.932941722E-03
   421  1.104352639E-02
   422 -7.162197882E-04
   423 -6.465102992E-04
   424 -5.912855197E-05
   425  1.277241476E-03
   426  7.339744860E-03
   427  1.119169610E-03
   428  2.063886224E-03
   429 -1.058351801E-03
   430  5.624261874E-04
   431 -3.294842825E-04
   432 -5.424927926E-04
   433 -2.118120610E-03
   434 -1.090388094E-03
   435 -3.174046007E-04
   436 -7.732066932E-04
   437  2.548652968E-04
   438 -1.770014833E-04
   439 -5.454048172E-04
   440 -5.030065794E-03
Ene=   -5.8014298189E-01
Spin= Alpha
Occup=   2.0000000
     1 -1.951709955E-02
     2 -3.053363295E-02
     3 -2.975657634E-02
     4  9.626299828E-03
     5  3.697153591E-02
     6  8.470276160E-02
     7 -4.463454288E-02
     8  1.450785324E-02
     9  5.540827685E-02
    10  5.610551101E-02
    11 -3.166212936E-02
    12  1.396528449E-02
    13  3.680853268E-02
    14  1.828508434E-03
    15 -4.204451835E-03
    16  1.622985732E-04
    17  5.585330179E-04
    18 -1.156167300E-03
    19 -1.484006540E-01
    20  7.466340817E-02
    21 -3.011527467E-02
    22 -9.133433385E-02
    23 -2.218430953E-02
    24 -3.461542089E-02
    25  1.340279194E-02
    26  3.755089704E-02
    27 -4.449923918E-02
    28  9.454393143E-02
    29  2.057835332E-02
    30  5.677575108E-02
    31 -6.773875505E-02
    32  3.861595447E-02
    33  4.613803004E-03
    34  3.305754345E-02
    35 -2.865155966E-02
    36  1.421944946E-03
    37 -2.336679555E-03
    38  8.449268862E-03
    39  6.578784449E-03
    40 -6.636819121E-04
    41  9.820494309E-02
    42  1.001554305E-02
    43  2.992276529E-02
    44 -3.428497667E-02
    45  6.306095434E-02
    46  9.860633699E-02
    47  2.762602834E-02
    48 -2.495494656E-03
    49 -3.860993434E-02
    50 -2.716735882E-01
    51  3.727023508E-02
    52 -3.361312426E-03
    53 -5.209854807E-02
    54 -1.723475817E-01
    55  3.002745297E-02
    56 -2.663414248E-03
    57 -4.200842651E-02
    58 -2.214652828E-03
    59  3.702591424E-03
    60 -3.334545601E-04
    61 -1.314200083E-03
    62  2.398797592E-04
    63  2.949188857E-01
    64  7.693908120E-02
    65 -5.982000775E-03
    66 -1.083490754E-01
    67 -2.218451544E-02
    68 -3.461491772E-02
    69  5.830392492E-02
    70 -9.105711704E-03
    71 -9.349877667E-03
    72  9.452225121E-02
    73  8.850576092E-02
    74 -1.379637069E-02
    75 -1.457259931E-02
    76  3.899034261E-02
    77  4.322666698E-02
    78 -7.302755429E-03
    79  1.583579173E-03
    80  6.275219453E-03
    81 -5.165730160E-03
    82  6.685737313E-04
    83 -7.000336068E-03
    84  2.661106275E-03
    85  1.037951786E-01
    86  4.331442698E-02
    87 -7.543611007E-03
    88 -7.280178554E-03
    89 -1.951354604E-02
    90 -3.052747249E-02
    91 -2.170670092E-02
    92  1.271441070E-03
    93  4.326762556E-02
    94  8.467082398E-02
    95 -3.249536765E-02
    96  1.898197410E-03
    97  6.490940169E-02
    98  5.644027290E-02
    99 -1.847069289E-02
   100  6.030520639E-04
   101  4.695908313E-02
   102  2.989285898E-03
   103 -3.003180089E-03
   104  1.026036141E-04
   105  2.100959922E-03
   106 -5.480446981E-04
   107 -1.449673514E-01
   108  6.459208255E-02
   109 -3.364975811E-03
   110 -1.078886739E-01
   111  1.824091340E-02
   112  2.843912073E-02
   113 -2.331830872E-02
   114 -2.590014806E-03
   115  2.635015427E-02
   116 -7.678852341E-02
   117 -3.406229211E-02
   118 -3.874629925E-03
   119  3.837231092E-02
   120 -3.990646939E-02
   121 -1.994842624E-02
   122 -5.632468609E-03
   123  1.785002858E-02
   124 -1.781712814E-03
   125  1.572033236E-04
   126 -3.334801081E-03
   127  1.185967344E-03
   128 -2.252364021E-04
   129 -6.988249315E-02
   130 -1.177363227E-02
   131  2.322214902E-02
   132  3.907378772E-02
   133 -2.218762176E-02
   134 -3.462026161E-02
   135  1.435477518E-03
   136 -3.503581520E-02
   137 -4.836860657E-02
   138  9.454690245E-02
   139  2.475293999E-03
   140 -5.302816335E-02
   141 -7.359890510E-02
   142  3.885261067E-02
   143 -5.631954538E-03
   144 -2.959366330E-02
   145 -3.190459185E-02
   146 -1.027242613E-04
   147 -5.180958800E-03
   148 -7.976394547E-03
   149  4.919581499E-03
   150 -2.814771579E-03
   151  1.005929178E-01
   152  1.028074904E-03
   153 -2.664614732E-02
   154 -3.593030810E-02
   155 -1.951932219E-02
   156 -3.053652957E-02
   157 -3.189671926E-02
   158 -3.371794308E-03
   159  3.627649904E-02
   160  8.469587995E-02
   161 -4.786375760E-02
   162 -5.107814020E-03
   163  5.436670270E-02
   164  5.640515230E-02
   165 -3.515132860E-02
   166 -6.918850924E-03
   167  3.554898958E-02
   168  1.883361349E-03
   169 -3.986890901E-03
   170  7.482569319E-04
   171  1.314457297E-03
   172  9.790199992E-04
   173 -1.426414370E-01
   174  7.850081956E-02
   175  6.883852058E-03
   176 -9.543421515E-02
   177  1.823950539E-02
   178  2.843735817E-02
   179 -2.171177626E-02
   180  7.170397551E-03
   181  2.686443996E-02
   182 -7.679454812E-02
   183 -3.168575277E-02
   184  1.057484030E-02
   185  3.913154996E-02
   186 -3.968198574E-02
   187 -1.741575916E-02
   188  9.890148217E-03
   189  1.880627927E-02
   190 -1.175389796E-03
   191  1.220036281E-03
   192  3.234771828E-03
   193  1.385682244E-03
   194 -7.243063447E-04
   195 -6.396101621E-02
   196 -1.820808021E-02
   197 -2.035137937E-02
   198  3.861195876E-02
   199  1.824076562E-02
   200  2.843843240E-02
   201 -1.566521576E-02
   202  8.941008250E-04
   203  3.159877107E-02
   204 -7.677502915E-02
   205 -2.274000511E-02
   206  1.282864505E-03
   207  4.614004343E-02
   208 -4.007820480E-02
   209 -7.678008609E-03
   210 -6.461352495E-05
   211  2.617471023E-02
   212  1.649136391E-03
   213  8.067809123E-04
   214 -9.771731477E-05
   215 -3.349724169E-03
   216  1.090250275E-03
   217 -7.688318593E-02
   218 -4.235249053E-02
   219  8.076092900E-03
   220  1.631167596E-02
   221  1.029441934E-02
   222  1.602268491E-02
   223 -2.034444572E-02
   224  2.691578481E-03
   225  1.242441736E-02
   226 -4.240077999E-02
   227 -2.924474326E-02
   228  3.882713587E-03
   229  1.753503358E-02
   230 -3.197768023E-02
   231 -1.369046533E-02
   232  2.031328864E-03
   233  4.152930301E-03
   234 -2.651067648E-03
   235 -5.658782765E-04
   236  1.791866151E-04
   237  2.821991415E-03
   238 -9.235855955E-04
   239 -1.762799532E-02
   240 -2.046495129E-03
   241 -1.947739631E-04
   242  1.436762879E-02
   243  1.030368378E-02
   244  1.603702423E-02
   245 -7.716478144E-03
   246  8.455167236E-03
   247  2.108416365E-02
   248 -4.244136967E-02
   249 -1.083283582E-02
   250  1.228501384E-02
   251  3.015995106E-02
   252 -3.194221579E-02
   253 -1.855354280E-03
   254  7.460091555E-03
   255  1.227839305E-02
   256  1.665260272E-03
   257  7.245787922E-04
   258  3.225519905E-03
   259 -1.516010619E-03
   260 -4.552320956E-04
   261 -1.318630334E-02
   262 -1.112722211E-02
   263 -3.867902158E-03
   264  8.591712625E-03
   265  1.030366551E-02
   266  1.603725955E-02
   267 -1.037591856E-02
   268 -7.678790993E-03
   269  2.022631359E-02
   270 -4.245514173E-02
   271 -1.470889114E-02
   272 -1.122946103E-02
   273  2.890751094E-02
   274 -3.169197823E-02
   275 -4.348496964E-03
   276 -7.830906014E-03
   277  1.153075565E-02
   278  1.052793025E-03
   279 -2.705117405E-04
   280 -3.396749506E-03
   281 -1.271795703E-03
   282  1.372727918E-03
   283 -4.007588927E-03
   284 -9.341653326E-03
   285  5.211225989E-03
   286  1.008755203E-02
   287  2.426015642E-02
   288  3.159540357E-02
   289 -1.598544306E-03
   290  4.325083389E-03
   291  9.577676817E-04
   292 -1.266424405E-03
   293 -9.383309674E-03
   294  2.425647084E-02
   295  3.156805758E-02
   296 -1.532994202E-03
   297 -3.123207852E-04
   298 -1.155164424E-03
   299 -4.448103434E-03
   300 -9.448639675E-03
   301 -8.746288573E-02
   302 -1.075739677E-01
   303 -6.582810096E-03
   304 -7.486411753E-03
   305  6.729861234E-04
   306  1.046400263E-02
   307  6.482790920E-02
   308  2.426583219E-02
   309  3.160186406E-02
   310 -1.331907959E-03
   311  1.613000196E-03
   312 -3.157537334E-03
   313 -2.942964839E-03
   314 -8.842929223E-03
   315  2.425828038E-02
   316  3.156511194E-02
   317 -1.425014788E-03
   318  2.589219805E-03
   319  2.759118860E-03
   320 -2.626268603E-03
   321 -9.740376512E-03
   322 -4.131742208E-02
   323 -5.180175961E-02
   324  4.405169191E-03
   325  2.994421453E-03
   326 -7.710003076E-05
   327 -3.927062887E-03
   328  1.135022840E-02
   329 -1.242477879E-02
   330 -1.697816788E-02
   331  8.141134582E-04
   332 -5.297626747E-04
   333  1.367662315E-03
   334  2.495150515E-03
   335 -1.239792152E-03
   336  2.426163054E-02
   337  3.160438075E-02
   338 -1.457429321E-03
   339  3.811921823E-03
   340 -2.155353300E-03
   341 -1.434063232E-03
   342 -9.053728857E-03
   343  2.425395369E-02
   344  3.154448940E-02
   345 -1.376853690E-03
   346  1.517441780E-04
   347  1.646294866E-03
   348 -4.298191243E-03
   349 -9.440280272E-03
   350 -4.131640358E-02
   351 -5.176311931E-02
   352  4.401006964E-03
   353  2.926434300E-03
   354 -4.784504864E-04
   355 -3.947285516E-03
   356  1.168828085E-02
   357 -1.242385734E-02
   358 -1.698790934E-02
   359  8.460710835E-04
   360 -9.830210710E-04
   361 -1.377841541E-03
   362  2.349426837E-03
   363 -1.381828187E-03
   364 -1.243288980E-02
   365 -1.698361336E-02
   366  9.083049199E-04
   367 -2.680311436E-03
   368  3.867478953E-04
   369  1.018449794E-03
   370 -9.573108250E-04
   371 -4.131412954E-02
   372 -5.181258821E-02
   373  4.432511296E-03
   374  2.679214879E-03
   375 -2.211524026E-04
   376 -4.142736389E-03
   377  1.084155506E-02
   378 -7.529624468E-03
   379 -9.267602570E-03
   380  3.940318084E-03
   381 -8.147914284E-04
   382  7.931236243E-04
   383  1.522572232E-03
   384 -3.343880792E-03
   385 -2.488504929E-02
   386 -3.175301157E-02
   387 -2.858562911E-03
   388  1.916198365E-03
   389 -1.727855937E-04
   390 -2.684694588E-03
   391  6.320731418E-03
   392 -7.525977380E-03
   393 -9.276352411E-03
   394  4.031977642E-03
   395 -1.052509922E-03
   396 -6.438709603E-04
   397  1.446325911E-03
   398 -2.876273257E-03
   399 -2.489042901E-02
   400 -3.177755775E-02
   401 -2.734732902E-03
   402  1.923285923E-03
   403 -1.709524151E-04
   404 -2.682589523E-03
   405  6.458064775E-03
   406 -7.540458079E-03
   407 -9.288582979E-03
   408  3.997768549E-03
   409 -1.521294222E-03
   410  4.720775182E-04
   411  1.038385664E-03
   412 -3.503844803E-03
   413 -7.533100448E-03
   414 -9.286445503E-03
   415  4.082301368E-03
   416 -6.308761321E-04
   417 -4.521761404E-04
   418  1.736334057E-03
   419 -2.971756613E-03
   420 -2.489073108E-02
   421 -3.180001574E-02
   422 -2.493339157E-03
   423  1.923548722E-03
   424 -1.760561657E-04
   425 -2.684263531E-03
   426  6.437418479E-03
   427 -7.531600009E-03
   428 -9.300469622E-03
   429  4.294447322E-03
   430 -4.824518283E-04
   431  4.488494981E-04
   432  1.784622103E-03
   433 -3.346796885E-03
   434 -7.540177517E-03
   435 -9.306518566E-03
   436  4.230009603E-03
   437 -1.610848533E-03
   438 -6.462764098E-05
   439  1.009566549E-03
   440 -3.517254496E-03
Ene=   -5.5223871970E-01
Spin= Alpha
Occup=   2.0000000
     1  5.667357339E-02
     2  8.875363432E-02
     3 -2.313020899E-02
     4  4.297469628E-03
     5  2.060631903E-04
     6 -2.461371161E-01
     7 -3.457481808E-02
     8  7.394768113E-03
     9 -2.656650487E-04
    10 -1.841666048E-01
    11 -2.533503609E-02
    12  2.986872617E-03
    13  1.646076408E-03
    14  6.949088584E-04
    15 -7.281143286E-04
    16 -1.657339414E-03
    17 -2.665405282E-03
    18 -8.940791535E-04
    19  4.754165051E-01
    20  5.485045690E-02
    21  5.420057493E-02
    22  5.964272471E-03
    23 -1.964539968E-02
    24 -3.066752259E-02
    25 -3.797702837E-02
    26  1.784471680E-03
    27  3.387436294E-02
    28  8.296549359E-02
    29 -5.620024954E-02
    30  1.293279589E-03
    31  5.169455013E-02
    32  5.347999634E-02
    33 -3.063764623E-02
    34  5.665575109E-03
    35  2.263355413E-02
    36 -4.228745714E-03
    37  7.947555056E-03
    38 -9.452218142E-04
    39 -2.753751341E-03
    40  1.187944624E-03
    41 -8.008752579E-02
    42 -6.064044658E-02
    43 -2.295629179E-02
    44  5.566627098E-02
    45  4.166455223E-06
    46  6.301849898E-06
    47 -2.117208595E-02
    48  2.982445236E-02
    49 -1.707967114E-02
    50 -1.236610343E-05
    51 -3.194817594E-02
    52  4.501742681E-02
    53 -2.577578648E-02
    54 -4.063620810E-05
    55 -1.889618688E-02
    56  2.625126240E-02
    57 -1.509619327E-02
    58 -4.301174166E-04
    59 -1.221494344E-03
    60 -1.041505748E-03
    61 -2.522838555E-03
    62 -4.663471699E-04
    63 -1.480817098E-02
    64  4.636663671E-02
    65 -6.375361422E-02
    66  4.052539199E-02
    67  1.657185159E-02
    68  2.587033066E-02
    69  2.515908653E-02
    70  1.605631393E-02
    71 -3.463410531E-02
    72 -7.001249658E-02
    73  3.883606213E-02
    74  2.289108797E-02
    75 -5.130821939E-02
    76 -4.470909981E-02
    77  1.527236165E-02
    78  1.580192973E-02
    79 -2.797256357E-02
    80  4.475254690E-03
    81 -6.276377407E-03
    82  7.181363369E-05
    83  2.264562363E-03
    84 -4.919077246E-04
    85  7.649483902E-02
    86  5.679311855E-02
    87  3.277389127E-02
    88 -4.546768995E-02
    89 -4.781016143E-02
    90 -7.487312868E-02
    91  4.535499923E-03
    92  2.765166946E-02
    93 -1.290861935E-02
    94  2.076436619E-01
    95  5.853405772E-03
    96  4.144942484E-02
    97 -1.952895656E-02
    98  1.554219599E-01
    99  6.788680308E-03
   100  2.947209079E-02
   101 -1.402077104E-02
   102 -1.003281838E-04
   103 -1.017632146E-03
   104 -1.535422163E-03
   105 -2.265772136E-03
   106  1.649387077E-03
   107 -4.029069742E-01
   108 -5.023370476E-02
   109 -7.616270480E-02
   110 -4.014657326E-03
   111 -2.738753226E-03
   112 -4.275485318E-03
   113  5.064473683E-02
   114 -4.500982941E-02
   115  3.838034586E-02
   116  1.157574580E-02
   117  7.623152137E-02
   118 -6.808629576E-02
   119  5.782784176E-02
   120  6.644439358E-03
   121  3.246138177E-02
   122 -2.677668978E-02
   123  2.349587760E-02
   124  2.581554515E-03
   125 -4.065266154E-03
   126 -5.234405728E-03
   127 -1.237444603E-02
   128  1.845771925E-03
   129 -1.656935316E-03
   130  8.981224663E-02
   131 -9.046572959E-02
   132  7.331894498E-02
   133  3.070253301E-03
   134  4.792680984E-03
   135 -1.279107533E-02
   136  1.823208336E-02
   137 -1.989595899E-02
   138 -1.295984479E-02
   139 -1.837557386E-02
   140  2.616767208E-02
   141 -2.923190954E-02
   142 -8.476050433E-03
   143 -1.208867151E-02
   144  1.722145446E-02
   145 -1.669050467E-02
   146  8.553318049E-04
   147 -1.359579836E-03
   148 -2.379481758E-04
   149 -8.094925636E-05
   150  1.492165520E-04
   151  1.274979685E-02
   152 -3.465054705E-02
   153  3.851032986E-02
   154 -3.854242159E-02
   155 -8.863488507E-03
   156 -1.388072165E-02
   157 -2.442579625E-02
   158  2.864466310E-02
   159 -2.198972665E-02
   160  3.849201581E-02
   161 -3.640707594E-02
   162  4.289059045E-02
   163 -3.273140791E-02
   164  2.875891775E-02
   165 -2.642415456E-02
   166  3.081899082E-02
   167 -2.388841453E-02
   168  1.846146220E-03
   169  3.833938630E-04
   170 -2.003710564E-03
   171 -1.405594645E-03
   172  8.583662786E-04
   173 -7.808012777E-02
   174  9.091030486E-02
   175 -8.450595429E-02
   176  7.973928896E-02
   177  1.752261346E-02
   178  2.735273091E-02
   179  1.100840402E-02
   180  4.301205540E-02
   181  1.002018772E-02
   182 -7.406149853E-02
   183  1.714127430E-02
   184  6.332679502E-02
   185  1.535435055E-02
   186 -4.147593210E-02
   187  1.388950271E-03
   188  3.472291139E-02
   189  8.660012104E-03
   190 -8.294778269E-04
   191  2.962005575E-03
   192  5.859626960E-03
   193 -2.631854702E-03
   194  2.244599013E-03
   195 -1.724506577E-01
   196  7.237734707E-02
   197  1.631661409E-02
   198 -5.572191014E-03
   199 -1.478448735E-02
   200 -2.307968994E-02
   201 -2.942879299E-02
   202 -4.338737974E-02
   203 -2.241328568E-02
   204  6.252711289E-02
   205 -4.338458125E-02
   206 -6.566452256E-02
   207 -3.286263015E-02
   208  3.441769623E-02
   209 -2.110223461E-02
   210 -2.585561208E-02
   211 -2.196049626E-02
   212 -7.724786948E-04
   213 -3.496599653E-03
   214 -8.166204883E-03
   215  2.335553115E-03
   216 -3.934855122E-03
   217  1.733323989E-01
   218 -3.383112305E-02
   219 -8.473408491E-02
   220  3.217995478E-02
   221  2.281154231E-02
   222  3.556428830E-02
   223 -4.467350653E-02
   224  2.132740916E-02
   225 -1.948850777E-02
   226 -9.470313250E-02
   227 -6.475515660E-02
   228  3.050388458E-02
   229 -2.797962106E-02
   230 -7.463401565E-02
   231 -3.400126321E-02
   232  1.386021779E-02
   233 -1.429837651E-02
   234 -3.047517779E-03
   235  4.578619650E-03
   236 -8.890273500E-04
   237  6.294826921E-03
   238 -3.966684033E-03
   239  1.169611059E-02
   240  7.574513174E-03
   241  1.266393345E-03
   242  3.443775104E-03
   243  4.228115556E-03
   244  6.592022000E-03
   245 -8.538638022E-03
   246  2.017289481E-02
   247 -4.847202083E-03
   248 -1.755650302E-02
   249 -1.204931703E-02
   250  2.883564117E-02
   251 -6.726660058E-03
   252 -1.375278149E-02
   253 -4.252006356E-03
   254  1.280227767E-02
   255 -1.787421676E-03
   256 -1.490175777E-03
   257 -6.496780991E-04
   258  1.600373559E-03
   259 -1.818376180E-03
   260 -2.281365198E-07
   261  1.528802562E-02
   262 -2.285204081E-03
   263  4.600555058E-03
   264 -1.015232526E-03
   265 -2.703894322E-02
   266 -4.215454109E-02
   267 -1.351757735E-02
   268  5.248394413E-02
   269 -2.946651946E-02
   270  1.122379218E-01
   271 -1.923278556E-02
   272  7.589750464E-02
   273 -4.273103437E-02
   274  8.855750217E-02
   275 -8.611467586E-03
   276  3.965976964E-02
   277 -2.167256345E-02
   278  1.240214514E-03
   279 -8.950777181E-04
   280  7.927090237E-03
   281  7.083131135E-03
   282  1.923434371E-03
   283 -1.461783674E-02
   284 -3.759043631E-04
   285 -8.635826320E-03
   286  2.821703936E-03
   287  3.852204706E-02
   288  4.854933446E-02
   289  5.004262097E-03
   290  3.751447986E-03
   291 -1.197659292E-03
   292  2.999160716E-03
   293 -1.219628457E-02
   294  2.566911005E-02
   295  3.357453273E-02
   296  7.921012190E-03
   297 -2.948169095E-03
   298 -2.903015771E-03
   299 -7.544540886E-04
   300  2.737939241E-03
   301 -2.600015330E-06
   302 -5.357125144E-05
   303  3.250367688E-04
   304 -1.124442561E-03
   305  1.586165504E-03
   306 -9.028251624E-04
   307 -5.764715979E-04
   308 -1.625297424E-02
   309 -2.209502021E-02
   310 -8.059545241E-03
   311  1.968879906E-03
   312  2.697170034E-03
   313 -1.400387008E-04
   314 -7.727185586E-03
   315 -3.789238593E-02
   316 -4.719656501E-02
   317 -2.919464588E-03
   318  1.580553316E-03
   319 -3.976016676E-03
   320  1.578110634E-03
   321  1.690819614E-02
   322  3.119520211E-03
   323  3.978676123E-03
   324  5.271223779E-04
   325  2.098608059E-03
   326 -2.077292664E-03
   327  2.169779916E-03
   328  1.591305469E-03
   329  6.297304519E-03
   330  8.064726021E-03
   331  1.869141881E-04
   332  1.989187800E-03
   333 -2.809079051E-03
   334  1.283000429E-03
   335 -1.685442077E-03
   336  1.223055570E-02
   337  1.361351405E-02
   338 -4.810891835E-03
   339  1.136810339E-03
   340  8.322994506E-04
   341 -5.969119587E-04
   342 -1.929869124E-02
   343 -2.226067751E-02
   344 -2.644971050E-02
   345  3.127192685E-03
   346 -8.264847507E-04
   347 -2.011133724E-03
   348  6.762693791E-04
   349  1.941270975E-02
   350 -1.995133055E-02
   351 -2.566464701E-02
   352  6.930428552E-04
   353  2.230951676E-03
   354  1.872378413E-03
   355 -1.939504478E-03
   356 -1.382722037E-02
   357 -4.020115131E-02
   358 -5.192831335E-02
   359  2.741828614E-03
   360  1.156885992E-03
   361 -3.408882889E-03
   362  3.116073682E-03
   363  1.055255725E-02
   364  3.391936307E-02
   365  4.383372526E-02
   366 -2.672044692E-03
   367  3.317278070E-03
   368 -2.883647709E-03
   369  8.145152217E-04
   370 -8.639449475E-03
   371  1.683053830E-02
   372  2.168705426E-02
   373 -1.182975619E-03
   374 -2.841377855E-03
   375 -1.892171395E-03
   376  9.728934238E-04
   377  1.169984459E-02
   378 -2.887480619E-02
   379 -3.732629174E-02
   380  4.990642871E-03
   381 -6.632535440E-04
   382  4.564402719E-03
   383  1.556721317E-03
   384 -4.247780450E-03
   385 -3.006662059E-02
   386 -3.912313746E-02
   387  4.314670832E-03
   388  6.877104025E-04
   389  1.011785133E-03
   390 -4.820492414E-03
   391 -4.805316751E-03
   392 -4.387064919E-02
   393 -5.668760374E-02
   394 -3.267813501E-04
   395 -1.356079923E-03
   396 -5.184656875E-03
   397  2.789902530E-03
   398 -5.839618208E-03
   399 -5.576939275E-03
   400 -7.232974531E-03
   401  5.904736702E-04
   402 -1.331536344E-04
   403  1.168439219E-03
   404 -1.143536496E-03
   405 -5.567490769E-04
   406  5.209953722E-03
   407  6.723633245E-03
   408  4.837825751E-03
   409  6.620476791E-04
   410  1.196066054E-03
   411  5.351315264E-05
   412  9.646304048E-04
   413 -1.869472494E-02
   414 -2.411555478E-02
   415 -4.481040394E-03
   416 -5.774798640E-04
   417 -2.013831182E-03
   418  1.125534752E-03
   419 -2.109243735E-03
   420  3.564024839E-02
   421  4.633310613E-02
   422 -4.813535414E-03
   423 -4.068366263E-03
   424  2.759095013E-03
   425  3.126758033E-03
   426  5.675974278E-03
   427  3.864955576E-02
   428  4.998776840E-02
   429 -4.803358521E-03
   430 -2.776071323E-03
   431 -2.145816775E-03
   432 -4.931523264E-03
   433  4.674495912E-03
   434  4.757192048E-02
   435  6.146397719E-02
   436 -6.566367099E-04
   437  6.630468101E-03
   438  8.805001837E-04
   439  9.532733034E-04
   440  6.717617252E-03
Ene=   -5.5223599629E-01
Spin= Alpha
Occup=   2.0000000
     1 -2.248865154E-02
     2 -3.521869631E-02
     3 -2.735171459E-02
     4 -1.835977284E-02
     5 -2.513775566E-02
     6  9.767488737E-02
     7 -4.081325057E-02
     8 -2.779019636E-02
     9 -3.730360914E-02
    10  7.299890131E-02
    11 -2.939643939E-02
    12 -1.924431205E-02
    13 -2.767651361E-02
    14  2.072280961E-03
    15  1.128862080E-03
    16  2.008566699E-03
    17 -8.939517992E-04
    18  2.541709336E-04
    19 -1.823295208E-01
    20  1.062282515E-01
    21  3.065966825E-02
    22  8.507323372E-02
    23  7.790862995E-03
    24  1.216150934E-02
    25 -9.132283278E-03
    26 -1.173958077E-02
    27 -3.004952050E-02
    28 -3.288927843E-02
    29 -1.271311639E-02
    30 -1.647141633E-02
    31 -4.453782845E-02
    32 -2.137423479E-02
    33 -9.898552202E-03
    34 -1.229115874E-02
    35 -2.407708975E-02
    36  1.951718028E-03
    37 -3.155853171E-03
    38  7.486133899E-04
    39  5.762184198E-04
    40 -2.315318175E-04
    41  3.456171609E-02
    42 -2.957563896E-02
    43 -1.577331768E-02
    44 -6.043646175E-02
    45  4.759051589E-06
    46  7.581716318E-06
    47 -2.511282738E-02
    48 -2.711996715E-02
    49 -1.621929714E-02
    50 -2.481853099E-05
    51 -3.790621387E-02
    52 -4.092323425E-02
    53 -2.448449617E-02
    54  8.265205484E-06
    55 -2.210802549E-02
    56 -2.398715187E-02
    57 -1.431957184E-02
    58 -8.754502449E-05
    59 -3.651180405E-04
    60  1.929385759E-03
    61 -9.958277685E-04
    62  2.115943810E-03
    63  7.739715422E-03
    64  5.789277578E-02
    65  6.015967257E-02
    66  3.619912686E-02
    67  1.311088796E-02
    68  2.046709556E-02
    69  1.387758676E-02
    70 -2.391478867E-02
    71 -2.936125138E-02
    72 -5.537774786E-02
    73  2.200292118E-02
    74 -3.485938091E-02
    75 -4.342439184E-02
    76 -3.558651731E-02
    77  6.710685418E-03
    78 -2.102726388E-02
    79 -2.386213857E-02
    80  3.621533333E-03
    81 -4.823808309E-03
    82  8.986415406E-04
    83  1.876172408E-03
    84 -2.747171040E-04
    85  4.730814085E-02
    86  3.450502358E-02
    87 -5.602547870E-02
    88 -3.752240081E-02
    89 -3.783689628E-02
    90 -5.925423443E-02
    91 -5.524560512E-03
    92 -3.339518896E-02
    93 -1.316086126E-02
    94  1.643242698E-01
    95 -8.968077319E-03
    96 -4.972121633E-02
    97 -1.985258396E-02
    98  1.229592673E-01
    99 -4.504966605E-03
   100 -3.626592447E-02
   101 -1.416105479E-02
   102  2.604923866E-04
   103 -2.875549404E-04
   104  2.470707712E-03
   105 -2.127926592E-03
   106 -3.033795746E-04
   107 -3.245765589E-01
   108 -7.807074842E-03
   109  1.206759837E-01
   110  8.410782670E-03
   111  1.865265673E-02
   112  2.911729427E-02
   113 -1.556321003E-02
   114 -3.569073945E-02
   115 -3.586452945E-03
   116 -7.885503732E-02
   117 -2.241174056E-02
   118 -5.248479875E-02
   119 -4.995819598E-03
   120 -4.393647999E-02
   121 -1.787043191E-02
   122 -2.876856426E-02
   123 -3.975737788E-04
   124 -2.578954401E-03
   125  1.865092268E-03
   126 -4.788850929E-03
   127 -1.304035654E-03
   128 -6.103013696E-04
   129 -1.987389424E-01
   130  4.528721735E-02
   131 -1.458188206E-02
   132 -2.830312578E-02
   133 -2.090804514E-02
   134 -3.263883796E-02
   135 -3.512593516E-02
   136  2.851375478E-03
   137  3.978515073E-02
   138  8.830915991E-02
   139 -5.169571782E-02
   140  5.550239184E-03
   141  6.057387272E-02
   142  5.677095833E-02
   143 -2.931783628E-02
   144 -1.865198449E-03
   145  2.691819115E-02
   146 -4.512157068E-03
   147  8.475085687E-03
   148 -5.346168866E-04
   149 -3.225206057E-03
   150 -1.083016441E-04
   151 -8.394221829E-02
   152 -4.400155597E-02
   153  2.622708364E-02
   154  7.059104283E-02
   155  6.032346021E-02
   156  9.446961348E-02
   157 -1.816165371E-02
   158 -3.343698152E-03
   159  5.347302554E-03
   160 -2.619930647E-01
   161 -2.748519278E-02
   162 -5.888213398E-03
   163  7.267062288E-03
   164 -1.959316525E-01
   165 -1.941796582E-02
   166 -2.133399556E-03
   167  7.441300987E-03
   168  6.138641092E-04
   169 -5.713341511E-05
   170  2.369706455E-03
   171 -1.089410085E-03
   172  2.164963479E-03
   173  5.153961531E-01
   174  8.556808715E-03
   175 -4.792928506E-02
   176 -3.012192851E-02
   177 -6.951698327E-03
   178 -1.085114633E-02
   179  6.082296947E-02
   180  1.264788326E-02
   181  4.074497042E-02
   182  2.937150177E-02
   183  9.151597022E-02
   184  1.969207413E-02
   185  6.135313496E-02
   186  1.655524202E-02
   187  3.976974198E-02
   188  4.638998386E-03
   189  2.429314136E-02
   190  4.005507945E-03
   191 -2.558366018E-03
   192  5.711306710E-03
   193 -9.887858593E-03
   194  5.789479721E-03
   195  8.063556968E-02
   196  9.682460733E-02
   197  5.344247674E-02
   198  9.050301024E-02
   199 -1.170140574E-02
   200 -1.826662439E-02
   201 -7.038347788E-03
   202  6.429526485E-02
   203 -1.248104373E-02
   204  4.947697609E-02
   205 -9.814810398E-03
   206  9.680653595E-02
   207 -1.808242485E-02
   208  2.749660229E-02
   209 -6.669147239E-03
   210  4.046363445E-02
   211 -1.401904068E-02
   212  9.724083990E-04
   213  3.757994903E-04
   214  1.055594735E-02
   215  4.746915896E-03
   216  2.588172181E-03
   217  1.114507511E-01
   218  7.061648541E-04
   219  1.171044640E-01
   220  3.112197356E-02
   221  1.805384326E-02
   222  2.814677743E-02
   223 -3.960814641E-02
   224 -8.901077340E-03
   225 -1.679662831E-02
   226 -7.494972630E-02
   227 -5.728459847E-02
   228 -1.245692353E-02
   229 -2.410138186E-02
   230 -5.903094711E-02
   231 -2.938522900E-02
   232 -3.828719994E-03
   233 -1.204846187E-02
   234 -2.406410096E-03
   235  3.794231307E-03
   236 -6.728531290E-04
   237  5.962091184E-03
   238 -2.502892587E-04
   239  5.089896498E-03
   240  6.315093611E-03
   241 -4.753282143E-03
   242  2.692056429E-03
   243 -2.878047182E-02
   244 -4.487042785E-02
   245 -2.787320173E-02
   246 -4.795626664E-02
   247 -3.431139847E-02
   248  1.194913053E-01
   249 -4.005972304E-02
   250 -6.937128111E-02
   251 -4.979932540E-02
   252  9.397930975E-02
   253 -2.017507223E-02
   254 -3.625100591E-02
   255 -2.594604183E-02
   256  1.155099229E-04
   257 -3.868834019E-03
   258 -8.430242426E-03
   259  4.265620759E-03
   260 -5.471315913E-03
   261 -2.282210893E-02
   262  3.296208601E-03
   263  6.709429080E-03
   264  3.834138783E-03
   265  1.072824924E-02
   266  1.672550925E-02
   267 -1.166939180E-02
   268 -2.859131261E-02
   269  7.089757718E-06
   270 -4.453103429E-02
   271 -1.656439313E-02
   272 -4.114777437E-02
   273  3.647591497E-04
   274 -3.510817546E-02
   275 -6.239984962E-03
   276 -2.017025364E-02
   277  1.932955386E-03
   278 -2.056357454E-03
   279 -8.003855206E-04
   280 -2.737142013E-03
   281 -3.249639534E-03
   282  8.135875824E-04
   283  1.011033722E-02
   284 -3.492642951E-03
   285  1.146690389E-03
   286 -3.223546314E-03
   287  3.473486774E-03
   288  2.538681713E-03
   289 -6.503870157E-03
   290 -4.121596478E-05
   291 -8.316213836E-04
   292 -1.426798271E-03
   293 -1.613983295E-02
   294 -2.893671429E-02
   295 -3.509313324E-02
   296  9.792258974E-04
   297  5.396932308E-04
   298  2.831735710E-03
   299  1.097706231E-03
   300  2.042334173E-02
   301 -5.804840729E-06
   302  2.046533590E-05
   303 -2.140274427E-04
   304 -1.333843757E-03
   305 -1.441673394E-03
   306 -8.621939059E-04
   307  1.968526102E-04
   308 -3.508767393E-02
   309 -4.329071593E-02
   310 -8.892674322E-04
   311  2.353685946E-03
   312  2.523018704E-03
   313  2.038542612E-03
   314  1.896578961E-02
   315 -7.756447020E-03
   316 -1.155514330E-02
   317 -7.311851669E-03
   318  6.591370400E-04
   319 -2.302383649E-03
   320 -8.388460944E-04
   321 -1.279617227E-02
   322 -2.124104985E-02
   323 -2.735519756E-02
   324  8.600231786E-04
   325  1.094876143E-03
   326 -1.848259895E-03
   327 -2.736531204E-03
   328 -1.476506532E-02
   329 -4.280073301E-02
   330 -5.527090307E-02
   331  2.964923143E-03
   332  1.723065632E-03
   333  3.250702702E-03
   334  3.225004341E-03
   335  1.168910021E-02
   336  3.669251307E-02
   337  4.667496620E-02
   338  6.137510293E-03
   339  3.723979579E-03
   340 -5.916252355E-04
   341  3.267000211E-03
   342 -8.008886363E-03
   343  3.163111755E-02
   344  4.077461022E-02
   345  7.406999574E-03
   346 -1.706487592E-03
   347  4.336118082E-03
   348 -5.712200496E-04
   349 -2.212559928E-03
   350  7.922678767E-03
   351  1.022728588E-02
   352 -5.287849142E-04
   353  2.158651227E-03
   354  6.458954777E-04
   355  2.860861488E-03
   356  5.830766924E-03
   357  1.596380280E-02
   358  2.062929017E-02
   359 -1.296387219E-03
   360  2.564256254E-03
   361  2.732782971E-03
   362  8.367157119E-04
   363 -4.074880081E-03
   364  2.685224187E-02
   365  3.468478412E-02
   366 -1.737673549E-03
   367  3.379980362E-03
   368  2.292012676E-03
   369  8.885216351E-04
   370 -7.693905382E-03
   371  1.332536008E-02
   372  1.713068385E-02
   373 -3.198422793E-04
   374 -1.489351399E-03
   375  3.109701518E-03
   376  1.015151870E-03
   377  9.565395474E-03
   378 -3.826228486E-02
   379 -4.943102349E-02
   380 -1.770161674E-03
   381  4.938090684E-04
   382  4.088694252E-03
   383  3.057719228E-03
   384 -5.754746022E-03
   385 -2.379642836E-02
   386 -3.094930350E-02
   387  3.534680397E-03
   388  2.561701898E-04
   389 -9.333946849E-04
   390 -3.905939443E-03
   391 -3.855581161E-03
   392 -1.931049723E-02
   393 -2.500571760E-02
   394  5.726926599E-03
   395 -1.856134049E-03
   396 -3.141362173E-03
   397  4.585063616E-04
   398 -2.650044027E-03
   399  3.793206258E-02
   400  4.934835222E-02
   401 -5.504179436E-03
   402 -4.890936868E-03
   403 -1.943261176E-03
   404  3.244722226E-03
   405  5.916027027E-03
   406  4.764326337E-02
   407  6.156255025E-02
   408 -2.238466149E-03
   409  5.990136245E-03
   410 -3.415949893E-03
   411  7.520010736E-04
   412  6.684875756E-03
   413  4.412118428E-02
   414  5.704245335E-02
   415 -3.716520900E-03
   416 -1.773493819E-03
   417  3.989241750E-03
   418 -5.027533170E-03
   419  6.100445812E-03
   420 -1.414823227E-02
   421 -1.838490210E-02
   422  1.760428024E-03
   423  4.668746067E-04
   424 -1.617314362E-03
   425 -2.029290763E-03
   426 -2.452992587E-03
   427 -2.833419181E-02
   428 -3.658277895E-02
   429 -3.350714590E-03
   430  7.345549736E-04
   431  2.525299512E-03
   432  2.538163719E-03
   433 -4.017302922E-03
   434 -5.873438113E-03
   435 -7.634241739E-03
   436  5.515486617E-03
   437 -1.315977779E-03
   438 -1.589741941E-03
   439 -3.081570839E-04
   440 -5.571840993E-04
Ene=   -5.1324028871E-01
Spin= Alpha
Occup=   2.0000000
     1 -1.583806543E-02
     2 -2.467587945E-02
     3  3.365470718E-03
     4 -3.019953356E-02
     5  1.515597466E-02
     6  6.566406668E-02
     7  4.902423430E-03
     8 -4.174225470E-02
     9  2.058841326E-02
    10  9.544766470E-02
    11  4.392883566E-03
    12 -5.343227073E-02
    13  2.917946447E-02
    14 -7.881285229E-04
    15  3.295874670E-04
    16 -6.937103599E-03
    17 -5.588833223E-03
    18 -3.003954813E-04
    19  2.664701038E-01
    20  3.085734387E-03
    21  8.113947459E-02
    22 -4.578265804E-02
    23  1.852761248E-02
    24  2.893122613E-02
    25  3.734708864E-02
    26 -6.039396390E-02
    27 -1.429639810E-02
    28 -7.536715125E-02
    29  5.302578710E-02
    30 -8.634847417E-02
    31 -1.989275771E-02
    32 -1.081806269E-01
    33  1.903160916E-02
    34 -3.177983203E-02
    35 -6.659211677E-03
    36  1.008294612E-04
    37 -5.576557230E-03
    38 -3.665713329E-03
    39 -4.593565825E-03
    40 -4.320642173E-03
    41 -1.115394913E-01
    42 -1.516136220E-02
    43 -4.261303843E-03
    44  2.324458707E-02
    45 -2.459356191E-02
    46 -3.839478596E-02
    47  2.557616069E-02
    48 -2.308988363E-03
    49 -3.574149061E-02
    50  1.037072777E-01
    51  3.682760822E-02
    52 -3.318476050E-03
    53 -5.143566652E-02
    54  1.189775476E-01
    55  3.841329389E-02
    56 -3.474330171E-03
    57 -5.388821661E-02
    58  3.455284258E-03
    59 -5.770670334E-03
    60  5.214744224E-04
    61  2.047510503E-03
    62 -3.725895321E-04
    63  1.847863531E-01
    64  5.338296291E-02
    65 -3.711230679E-03
    66 -7.586742446E-02
    67  1.852709080E-02
    68  2.892962858E-02
    69 -2.870383883E-02
    70  8.246249759E-03
    71 -6.600014004E-02
    72 -7.534315576E-02
    73 -4.145264786E-02
    74  1.183924825E-02
    75 -9.385129063E-02
    76 -1.083644359E-01
    77 -1.588152075E-02
    78  4.348090121E-03
    79 -3.385355941E-02
    80  3.697944570E-03
    81  1.119132390E-03
    82 -9.700290234E-04
    83  7.814859587E-03
    84 -2.719185716E-03
    85 -1.044194483E-01
    86 -2.228774262E-02
    87  1.334115541E-03
    88  1.717854954E-02
    89 -1.584412996E-02
    90 -2.468519886E-02
    91 -3.125988834E-02
    92  5.788957554E-03
    93 -1.193652299E-02
    94  6.567798446E-02
    95 -4.292915446E-02
    96  7.976072210E-03
    97 -1.683586879E-02
    98  9.562312733E-02
    99 -5.713226566E-02
   100  1.047544233E-02
   101 -1.898339474E-02
   102 -3.779474833E-03
   103  3.637229509E-03
   104 -6.366952748E-04
   105  6.780250499E-03
   106 -2.504585341E-03
   107  2.826825293E-01
   108  8.802455068E-02
   109 -1.000594616E-02
   110  1.810752638E-02
   111  1.711162229E-02
   112  2.673274799E-02
   113 -4.929716191E-02
   114 -3.931697719E-02
   115  1.078587572E-02
   116 -6.962800050E-02
   117 -7.000183471E-02
   118 -5.584043269E-02
   119  1.531474037E-02
   120 -1.018466371E-01
   121 -2.338568141E-02
   122 -2.020272055E-02
   123  2.831240270E-03
   124 -4.774182689E-03
   125  1.969747482E-03
   126 -6.019006760E-03
   127  1.527098978E-03
   128  7.961492475E-04
   129 -1.454186176E-01
   130  7.942690305E-04
   131 -4.468083838E-04
   132 -5.922088894E-03
   133  1.852772974E-02
   134  2.893116656E-02
   135  5.494977504E-02
   136  4.639187630E-02
   137 -8.598075638E-03
   138 -7.536188646E-02
   139  7.819918055E-02
   140  6.639138883E-02
   141 -1.175556574E-02
   142 -1.081727658E-01
   143  2.834107483E-02
   144  2.454364927E-02
   145 -3.486630522E-03
   146  9.420307707E-04
   147 -3.467539498E-03
   148  5.349609249E-03
   149 -4.060022624E-04
   150  6.525946689E-03
   151 -1.177278894E-01
   152 -1.450701704E-02
   153  5.987993497E-03
   154  2.703456466E-02
   155 -1.583494815E-02
   156 -2.467027356E-02
   157  1.259288486E-02
   158  2.578712699E-02
   159  1.814724648E-02
   160  6.562491509E-02
   161  1.765363490E-02
   162  3.560486912E-02
   163  2.472177373E-02
   164  9.581051104E-02
   165  2.065182138E-02
   166  4.585273353E-02
   167  3.443986888E-02
   168  5.025409580E-04
   169  2.830512990E-03
   170  6.959674153E-03
   171 -3.602945536E-03
   172  3.241475559E-03
   173  2.776207541E-01
   174 -2.785437268E-02
   175 -7.602800366E-02
   176 -6.057258902E-02
   177  1.711255841E-02
   178  2.673445185E-02
   179 -3.429948342E-02
   180  5.167779566E-02
   181  1.563991371E-02
   182 -6.963347222E-02
   183 -4.870434389E-02
   184  7.339387384E-02
   185  2.220458324E-02
   186 -1.018306823E-01
   187 -1.569865766E-02
   188  2.625467153E-02
   189  5.430621724E-03
   190 -3.691803180E-03
   191  3.754404709E-03
   192  5.699885980E-03
   193  1.221382961E-03
   194 -2.044486833E-03
   195 -1.220207586E-01
   196  1.889128051E-03
   197  5.958976135E-03
   198 -8.589923407E-04
   199  1.710905816E-02
   200  2.672959584E-02
   201  2.197270036E-02
   202 -6.801861909E-03
   203  5.967997789E-02
   204 -6.963569300E-02
   205  3.121133867E-02
   206 -9.664180754E-03
   207  8.475545857E-02
   208 -1.017217595E-01
   209  1.310407920E-02
   210 -3.529750122E-03
   211  2.795864608E-02
   212  2.607042719E-03
   213  4.064239928E-03
   214 -5.617238311E-04
   215 -6.223001587E-03
   216  1.881549585E-03
   217 -9.836069306E-02
   218  7.703601767E-03
   219  2.548336449E-03
   220  6.771136353E-03
   221 -8.589300938E-03
   222 -1.350022655E-02
   223  1.240115557E-02
   224 -2.109883330E-03
   225  1.265425298E-03
   226  3.798448625E-02
   227  1.704939384E-02
   228 -2.908141316E-03
   229  1.675264874E-03
   230  4.431574650E-02
   231  8.827590142E-03
   232 -1.401028024E-03
   233  6.328268912E-05
   234  6.336318276E-04
   235 -4.768004844E-04
   236  7.340234428E-05
   237 -9.524844570E-04
   238  3.496447364E-04
   239 -1.217330191E-01
   240  2.464773445E-02
   241 -4.445057313E-03
   242  1.198820843E-02
   243 -8.590724062E-03
   244 -1.350245165E-02
   245 -2.263907990E-03
   246 -8.800843600E-03
   247 -8.797537158E-03
   248  3.799655352E-02
   249 -3.056994503E-03
   250 -1.207003842E-02
   251 -1.213578290E-02
   252  4.416595650E-02
   253 -1.027071483E-03
   254 -6.040679365E-03
   255 -6.605003012E-03
   256 -1.109377192E-04
   257 -4.423430129E-04
   258 -1.014538622E-03
   259  5.397817827E-04
   260 -3.786732220E-04
   261 -1.294292506E-01
   262 -1.202150507E-02
   263 -2.185326113E-02
   264 -1.418521120E-02
   265 -8.590102429E-03
   266 -1.350118710E-02
   267  8.233796375E-04
   268  9.920985703E-03
   269 -7.801937234E-03
   270  3.797795392E-02
   271  1.169778571E-03
   272  1.359875303E-02
   273 -1.077558771E-02
   274  4.443859161E-02
   275  1.130754837E-03
   276  6.550313226E-03
   277 -5.847462306E-03
   278  7.908063087E-05
   279 -8.628596781E-05
   280  1.027937106E-03
   281  7.696403094E-04
   282 -3.658964317E-05
   283 -1.248335629E-01
   284 -4.540196143E-03
   285  2.611917583E-02
   286 -1.121060982E-02
   287 -5.059369318E-02
   288 -6.534636270E-02
   289 -1.873310504E-02
   290 -5.453505214E-03
   291 -1.367766960E-03
   292 -2.727366294E-03
   293  1.642797527E-04
   294 -5.059517007E-02
   295 -6.532824001E-02
   296 -1.881822879E-02
   297  4.015612913E-03
   298  2.950300507E-03
   299  3.768522818E-03
   300  7.762655163E-04
   301 -7.424057732E-03
   302 -6.051436166E-03
   303  1.180180244E-02
   304 -2.188701882E-04
   305  1.862231356E-05
   306  3.060542408E-04
   307  2.290471038E-02
   308 -5.059902078E-02
   309 -6.531857316E-02
   310 -1.898769299E-02
   311  1.119326175E-03
   312  5.958719526E-03
   313  1.500998002E-03
   314  1.653606006E-03
   315 -5.060179806E-02
   316 -6.533287408E-02
   317 -1.909204038E-02
   318 -8.724752457E-04
   319 -6.126807194E-03
   320  8.583534863E-04
   321  5.013358376E-04
   322 -4.414363667E-02
   323 -5.718491956E-02
   324 -1.426493175E-02
   325  1.616716757E-03
   326 -2.141043932E-03
   327 -4.905988751E-03
   328  1.842347176E-03
   329 -4.685091680E-02
   330 -5.982516065E-02
   331 -1.308942946E-02
   332  3.962425028E-07
   333  3.380909151E-03
   334  4.489464797E-03
   335  1.687451482E-02
   336 -5.058916579E-02
   337 -6.534231228E-02
   338 -1.827218553E-02
   339 -4.678077389E-03
   340  3.316733905E-03
   341 -2.479232995E-03
   342  2.437935325E-04
   343 -5.058923864E-02
   344 -6.534175965E-02
   345 -1.847033649E-02
   346  2.796444740E-03
   347 -4.454400917E-03
   348  3.372515518E-03
   349 -1.010728137E-04
   350 -4.414877843E-02
   351 -5.713969207E-02
   352 -1.462777933E-02
   353  2.299741334E-03
   354  2.006866699E-03
   355 -4.683054259E-03
   356  2.731745261E-03
   357 -4.684689588E-02
   358 -5.980165297E-02
   359 -1.340858897E-02
   360 -1.159393597E-03
   361 -3.648892222E-03
   362  4.115088691E-03
   363  1.703567302E-02
   364 -4.684925506E-02
   365 -5.978672966E-02
   366 -1.387785014E-02
   367 -5.509671477E-03
   368  8.698263002E-04
   369  7.092492255E-04
   370  1.766029883E-02
   371 -4.413958152E-02
   372 -5.709057315E-02
   373 -1.520013814E-02
   374  4.863525554E-03
   375 -6.589208100E-04
   376 -2.674883291E-03
   377  2.906105379E-03
   378  9.180871437E-03
   379  1.110367184E-02
   380 -5.489084346E-03
   381  5.124559786E-04
   382 -1.677576218E-03
   383 -9.738068539E-04
   384 -4.588657741E-03
   385  1.163458416E-02
   386  1.414650538E-02
   387 -5.578971829E-03
   388 -3.254515876E-04
   389 -6.001189468E-05
   390  2.121962688E-03
   391  5.320905686E-04
   392  9.181859240E-03
   393  1.108247056E-02
   394 -5.139878761E-03
   395  1.038177576E-03
   396  1.515663068E-03
   397 -8.042654984E-04
   398 -3.804522509E-03
   399  1.163855178E-02
   400  1.419121946E-02
   401 -5.711947351E-03
   402 -1.642337391E-03
   403 -6.575913902E-04
   404  1.222688627E-03
   405  5.894206215E-04
   406  9.184985389E-03
   407  1.111073749E-02
   408 -5.478212885E-03
   409  1.610290100E-03
   410 -1.175669142E-03
   411 -2.219066331E-04
   412 -3.913669329E-03
   413  9.177806518E-03
   414  1.108890113E-02
   415 -5.558145644E-03
   416 -3.643306367E-04
   417  8.744277907E-04
   418 -1.766637317E-03
   419 -3.927840264E-03
   420  1.164446365E-02
   421  1.415108380E-02
   422 -5.211048702E-03
   423 -1.365409211E-03
   424  1.016798144E-03
   425  1.310425140E-03
   426  6.182725695E-04
   427  9.175027744E-03
   428  1.106993851E-02
   429 -5.263532559E-03
   430 -5.945957005E-04
   431 -5.233564624E-04
   432 -1.841274394E-03
   433 -4.648166346E-03
   434  9.185734417E-03
   435  1.109026294E-02
   436 -4.997962610E-03
   437  1.905301970E-03
   438  6.142752791E-04
   439 -1.261663868E-04
   440 -4.238042690E-03
Ene=   -4.5199153488E-01
Spin= Alpha
Occup=   2.0000000
     1  9.332095373E-03
     2  1.473024509E-02
     3 -2.382397097E-02
     4  1.652562608E-02
     5  2.435609765E-02
     6 -4.281265175E-02
     7 -3.361858486E-02
     8  2.278709168E-02
     9  3.474033361E-02
    10 -2.190683686E-02
    11 -3.765369307E-02
    12  3.055957319E-02
    13  3.539766819E-02
    14  2.821769876E-03
    15  6.647605386E-03
    16 -1.754277249E-03
    17  4.413755124E-03
    18  9.247470281E-03
    19  1.592161207E-01
    20  2.233585074E-02
    21  1.754150068E-03
    22 -2.342053586E-02
    23  8.526874746E-03
    24  1.345424324E-02
    25  2.764165876E-02
    26 -3.935912004E-02
    27 -1.278332308E-02
    28 -3.715680703E-02
    29  3.839229474E-02
    30 -5.539283030E-02
    31 -1.723552399E-02
    32 -5.782861362E-02
    33  1.903573382E-02
    34 -4.385247334E-02
    35  2.742605888E-03
    36 -1.375734522E-04
    37 -1.467348166E-03
    38 -3.093460013E-03
    39 -2.906663361E-03
    40 -1.189370344E-03
    41 -5.102129097E-02
    42 -1.309606286E-02
    43  5.825610941E-03
    44  1.461324605E-02
    45 -1.477456710E-02
    46 -2.323404512E-02
    47  2.374099074E-02
    48 -2.141090504E-03
    49 -3.279510259E-02
    50  6.701376513E-02
    51  3.428697919E-02
    52 -3.084220240E-03
    53 -4.737513726E-02
    54  1.845424889E-02
    55  3.293960208E-02
    56 -3.066963638E-03
    57 -4.567561490E-02
    58  5.129417463E-04
    59 -1.065876982E-03
    60  1.111712830E-04
    61  3.103516421E-04
    62 -4.339651963E-05
    63  1.093129197E-02
    64  1.397238732E-02
    65  6.107310245E-04
    66 -1.778918420E-02
    67  8.711998257E-03
    68  1.374718182E-02
    69 -1.606189908E-02
    70  5.226918349E-03
    71 -4.771572733E-02
    72 -3.799769843E-02
    73 -2.316210406E-02
    74  7.407888550E-03
    75 -6.643451394E-02
    76 -5.853231133E-02
    77 -3.070084166E-02
    78  7.131735909E-03
    79 -3.705459773E-02
    80 -1.412564153E-04
    81  1.239602349E-03
    82 -4.301509961E-04
    83  4.256128916E-03
    84 -1.513546269E-03
    85 -5.214075564E-02
    86 -8.269762453E-03
    87 -2.835501085E-04
    88  1.954130949E-02
    89  9.163446076E-03
    90  1.446353163E-02
    91 -7.955827956E-03
    92 -6.687023730E-04
    93  3.738142672E-02
    94 -4.201509621E-02
    95 -1.183774981E-02
    96 -8.294829775E-04
    97  5.264454304E-02
    98 -2.185230729E-02
    99 -7.344581909E-03
   100 -2.035799870E-03
   101  6.003161530E-02
   102 -1.059679976E-02
   103 -3.909070026E-03
   104  1.920240790E-03
   105 -5.093064721E-03
   106  1.955463284E-03
   107  1.508220059E-01
   108  2.505699536E-02
   109  3.343436185E-03
   110 -2.141856479E-02
   111 -1.211729854E-02
   112 -1.911356814E-02
   113  2.757849609E-02
   114  7.200590436E-02
   115  6.018658508E-02
   116  5.335835888E-02
   117  3.822254413E-02
   118  1.016677151E-01
   119  8.589655228E-02
   120  5.838651609E-02
   121  3.077153418E-02
   122  6.683543545E-02
   123  4.980608477E-02
   124  1.438601461E-03
   125 -3.128320378E-04
   126  6.130016570E-03
   127 -2.053088456E-03
   128  3.646091786E-03
   129 -6.171805943E-02
   130 -2.218872235E-03
   131  1.228597430E-02
   132  1.983965670E-02
   133  8.524638995E-03
   134  1.345116108E-02
   135  3.897802352E-02
   136  2.952122942E-02
   137 -9.137373725E-03
   138 -3.715588901E-02
   139  5.436118707E-02
   140  4.163565939E-02
   141 -1.209528649E-02
   142 -5.777647123E-02
   143  3.197750834E-02
   144  3.488802759E-02
   145  6.820728814E-03
   146  4.805481867E-04
   147 -1.487557347E-04
   148  3.559778589E-03
   149 -1.215261507E-03
   150  2.677473654E-03
   151 -4.655087440E-02
   152 -1.430768237E-02
   153 -1.923760627E-03
   154  1.671694332E-02
   155  9.334590983E-03
   156  1.473412110E-02
   157 -2.828287712E-02
   158 -1.048807329E-02
   159  2.293526061E-02
   160 -4.281815730E-02
   161 -3.974581011E-02
   162 -1.432876629E-02
   163  3.278423624E-02
   164 -2.201346527E-02
   165 -4.609262074E-02
   166 -2.051760955E-02
   167  3.274184309E-02
   168  2.877309764E-03
   169  5.658932036E-03
   170 -9.325772844E-04
   171 -2.295947980E-03
   172 -1.066499222E-02
   173  1.473909702E-01
   174  1.517429493E-02
   175 -5.997848984E-03
   176 -2.899949698E-02
   177 -1.212231716E-02
   178 -1.912089932E-02
   179  2.057644675E-03
   180 -8.288606215E-02
   181  5.191365119E-02
   182  5.337226085E-02
   183  2.208456836E-03
   184 -1.168965588E-01
   185  7.422758473E-02
   186  5.833994814E-02
   187  6.882284573E-03
   188 -7.793805898E-02
   189  4.199314565E-02
   190  3.574478706E-04
   191 -2.514186873E-03
   192 -5.465674218E-03
   193 -4.386495041E-03
   194 -1.302872029E-03
   195 -2.451843361E-02
   196 -8.277817298E-03
   197 -6.458460152E-03
   198  2.257365905E-02
   199 -1.231123480E-02
   200 -1.941972449E-02
   201 -9.305771938E-02
   202  1.664255659E-02
   203 -2.407240017E-02
   204  5.422058787E-02
   205 -1.319829150E-01
   206  2.354270026E-02
   207 -3.298916364E-02
   208  5.920319086E-02
   209 -8.244555425E-02
   210  1.511027249E-02
   211 -2.929077932E-02
   212 -8.248139721E-04
   213  1.246718048E-03
   214 -5.278733085E-04
   215  7.038350232E-03
   216 -2.457194113E-03
   217 -3.447490107E-02
   218 -2.159225230E-02
   219  5.696125455E-03
   220  1.130164625E-02
   221  7.896097547E-04
   222  1.257031426E-03
   223  1.086381677E-03
   224 -1.268961939E-03
   225  2.062668288E-02
   226 -3.436847031E-03
   227  2.285384013E-03
   228 -1.988866276E-03
   229  3.030059346E-02
   230 -1.617270245E-02
   231  9.125893188E-03
   232 -2.010394011E-03
   233  1.138655676E-02
   234 -2.472649515E-03
   235 -9.559180836E-05
   236  4.067213970E-04
   237 -2.841468735E-03
   238  9.706334749E-04
   239 -4.359840381E-02
   240  5.151374270E-03
   241 -1.734348102E-03
   242  1.447148905E-02
   243  8.365400574E-04
   244  1.331317433E-03
   245 -1.600685072E-02
   246 -9.254185164E-03
   247  8.617937892E-03
   248 -3.635838345E-03
   249 -2.360315283E-02
   250 -1.407657773E-02
   251  1.212479367E-02
   252 -1.680068972E-02
   253 -9.724073324E-03
   254 -1.091282067E-02
   255 -1.816866276E-03
   256 -3.022384452E-04
   257  2.120875059E-03
   258 -1.591928206E-03
   259 -3.586680863E-04
   260 -2.800897733E-03
   261 -3.756856724E-02
   262 -1.100014713E-02
   263 -8.043276763E-03
   264  3.789621084E-03
   265  8.353397932E-04
   266  1.329136670E-03
   267 -1.234902512E-02
   268  1.293194331E-02
   269  9.767322912E-03
   270 -3.629370141E-03
   271 -1.807298022E-02
   272  1.953821836E-02
   273  1.386594054E-02
   274 -1.681380751E-02
   275 -5.595614697E-03
   276  1.355966143E-02
   277 -5.069233720E-04
   278 -7.977633732E-05
   279  2.786323722E-03
   280  7.528538487E-04
   281  1.456449887E-03
   282  2.151515862E-03
   283 -4.024639438E-02
   284 -8.213521558E-03
   285  1.176772184E-02
   286  4.018140313E-03
   287 -3.127534411E-02
   288 -4.176769324E-02
   289 -9.727160292E-03
   290 -3.437183386E-03
   291 -8.492169853E-04
   292 -3.063783465E-03
   293 -3.730819633E-03
   294 -3.035254702E-02
   295 -4.053809681E-02
   296 -9.512707175E-03
   297  3.649198239E-03
   298  2.281305311E-03
   299  1.732786431E-03
   300 -4.083500654E-03
   301 -1.715943233E-02
   302 -1.129600939E-02
   303  1.222195068E-02
   304  1.983281720E-04
   305 -1.623725017E-05
   306 -2.590194643E-04
   307  5.757128263E-03
   308 -3.136260813E-02
   309 -4.190140899E-02
   310 -9.575712394E-03
   311  1.730615797E-03
   312  4.407328279E-03
   313  2.572492051E-04
   314 -4.049402076E-03
   315 -3.141348360E-02
   316 -4.196909583E-02
   317 -9.385639407E-03
   318  2.248453943E-04
   319 -4.732678230E-03
   320 -2.254404842E-04
   321 -3.934110074E-03
   322 -1.675457515E-02
   323 -2.295161001E-02
   324 -2.306263460E-02
   325  3.395050836E-03
   326  4.341200799E-03
   327  1.396304442E-03
   328  1.582901392E-03
   329  8.991285276E-02
   330  1.205661383E-01
   331  2.467330072E-02
   332 -3.590566650E-03
   333 -7.142477535E-03
   334 -4.922375467E-03
   335  6.237078355E-03
   336 -3.125213833E-02
   337 -4.173236634E-02
   338 -9.681574878E-03
   339 -2.929343139E-03
   340  2.216449250E-03
   341 -2.900090609E-03
   342 -4.213941495E-03
   343 -3.035213600E-02
   344 -4.052775378E-02
   345 -9.342905662E-03
   346  2.694908500E-03
   347 -3.495728529E-03
   348  1.423633448E-03
   349 -4.635964191E-03
   350 -1.674229785E-02
   351 -2.288096107E-02
   352 -2.381116486E-02
   353  1.802749699E-03
   354 -5.320587290E-03
   355  8.835821463E-04
   356  1.829282012E-03
   357  8.992219449E-02
   358  1.206223933E-01
   359  2.418642570E-02
   360 -1.031496018E-03
   361  8.384792669E-03
   362 -4.097012877E-03
   363  6.551895802E-03
   364  8.992575754E-02
   365  1.206079503E-01
   366  2.403065481E-02
   367  8.630479183E-03
   368 -1.601767214E-03
   369  3.371223788E-03
   370  6.005823677E-03
   371 -1.560526099E-02
   372 -2.137853119E-02
   373 -2.325810660E-02
   374 -4.229285478E-03
   375  8.960834645E-04
   376 -3.684667445E-03
   377  2.175422613E-03
   378  9.680865793E-03
   379  1.500822497E-02
   380  2.359831150E-03
   381 -6.055845063E-04
   382 -5.917884684E-04
   383  1.817637881E-04
   384 -6.876889644E-03
   385 -1.392087927E-02
   386 -1.990047364E-02
   387 -1.522353294E-02
   388  1.428079555E-03
   389 -2.258607511E-04
   390 -1.918373709E-04
   391  1.219438962E-02
   392  9.672669994E-03
   393  1.498817328E-02
   394  2.717605317E-03
   395 -3.867861344E-04
   396  7.321748335E-04
   397  2.515808368E-04
   398 -6.389580688E-03
   399 -1.375763120E-02
   400 -1.961963430E-02
   401 -1.547502924E-02
   402  1.697564560E-05
   403 -8.654862744E-04
   404 -1.150562061E-03
   405  1.221914222E-02
   406  9.359650373E-03
   407  1.458822624E-02
   408  2.143592343E-03
   409  2.620728999E-04
   410 -1.775906747E-04
   411  7.788371523E-04
   412 -6.180337753E-03
   413  9.659840879E-03
   414  1.502765243E-02
   415  2.299713788E-03
   416 -5.081746592E-04
   417  6.626282332E-04
   418  1.616324845E-04
   419 -6.330128304E-03
   420 -1.373065178E-02
   421 -1.961523528E-02
   422 -1.524644820E-02
   423  3.102610668E-04
   424  9.278681395E-04
   425 -1.055086616E-03
   426  1.189721561E-02
   427  9.638971041E-03
   428  1.497367440E-02
   429  2.396226366E-03
   430 -6.956139906E-04
   431 -4.746763862E-04
   432  1.002380211E-04
   433 -6.664651521E-03
   434  9.371125154E-03
   435  1.457510065E-02
   436  2.566493728E-03
   437  2.930810680E-04
   438  1.700335111E-06
   439  7.862487866E-04
   440 -6.228424356E-03
Ene=   -4.5092685075E-01
Spin= Alpha
Occup=   2.0000000
     1 -2.770014571E-03
     2 -4.375960511E-03
     3 -3.877038110E-02
     4 -1.745330565E-02
     5 -1.730680290E-02
     6  1.289032220E-02
     7 -5.524846531E-02
     8 -2.447000079E-02
     9 -2.473240659E-02
    10  3.756351332E-03
    11 -5.562041308E-02
    12 -2.607509015E-02
    13 -2.485820233E-02
    14 -9.555285660E-03
    15 -4.068744014E-03
    16 -3.782402885E-03
    17  4.125281000E-03
    18  3.867002223E-03
    19  1.195898804E-02
    20  7.891359835E-02
    21  1.042655146E-01
    22  8.764089947E-03
    23  3.107707129E-03
    24  4.913122959E-03
    25 -6.412176234E-02
    26 -4.340959769E-02
    27 -5.612642768E-02
    28 -1.399047811E-02
    29 -9.104335308E-02
    30 -6.110696360E-02
    31 -7.956003313E-02
    32 -1.255924693E-02
    33 -6.039672362E-02
    34 -4.286141498E-02
    35 -5.439562910E-02
    36  4.689938909E-04
    37 -3.505490000E-04
    38 -2.944570311E-03
    39  2.744103293E-03
    40 -2.555225577E-03
    41  2.119082327E-02
    42 -5.072488224E-02
    43 -3.428985064E-02
    44 -2.275167481E-02
    45 -1.232671108E-04
    46 -1.938773500E-04
    47 -2.050243765E-02
    48 -3.883501899E-03
    49 -1.481900629E-02
    50  5.594855590E-04
    51 -2.868836727E-02
    52 -5.444531916E-03
    53 -2.075379908E-02
    54  1.467230418E-04
    55 -2.114019439E-02
    56 -4.072597196E-03
    57 -1.543134909E-02
    58  9.651885923E-03
    59  7.290965046E-03
    60 -2.462077073E-03
    61  3.755309720E-03
    62 -6.427833826E-03
    63  1.198641843E-03
    64  7.467353613E-02
    65  1.568274099E-02
    66  5.230491790E-02
    67 -1.393788665E-02
    68 -2.203491995E-02
    69  3.706510054E-03
    70 -3.439121460E-02
    71  6.342534890E-02
    72  6.276575068E-02
    73  3.960749865E-03
    74 -4.844730313E-02
    75  8.837834654E-02
    76  5.589769578E-02
    77  4.106222265E-03
    78 -3.337567147E-02
    79  6.895942852E-02
    80 -1.573467357E-03
    81  3.679338286E-03
    82 -1.346012891E-03
    83 -5.997660253E-03
    84  9.639789398E-04
    85 -1.186232640E-01
    86  7.444191024E-02
    87 -3.268286922E-02
    88  3.233234454E-03
    89  1.317160221E-02
    90  2.080925740E-02
    91  2.517135163E-02
    92 -1.750256009E-02
    93 -2.186529934E-02
    94 -6.132399636E-02
    95  3.428537796E-02
    96 -2.459185497E-02
    97 -3.210737374E-02
    98 -1.724770278E-02
    99  4.003404216E-02
   100 -2.615843175E-02
   101 -2.806470044E-02
   102  4.195834865E-03
   103 -1.835540417E-03
   104 -2.747133492E-03
   105 -1.324377059E-03
   106  3.501522219E-03
   107 -1.604469571E-02
   108 -3.283742984E-01
   109  9.162871462E-02
   110 -6.855020967E-02
   111 -1.129022765E-02
   112 -1.783337278E-02
   113  5.326835043E-02
   114 -4.237174844E-04
   115 -4.962095737E-02
   116  5.012086994E-02
   117  7.434878616E-02
   118 -1.346295206E-03
   119 -7.086660845E-02
   120  5.437720495E-02
   121  4.322534852E-02
   122  1.498996744E-02
   123 -5.262132573E-02
   124  2.335062763E-03
   125 -4.481221818E-03
   126  3.356527920E-03
   127  1.169913331E-03
   128  7.027496888E-04
   129 -1.423427256E-01
   130  8.546305667E-02
   131 -5.494469275E-02
   132  6.461718029E-03
   133  1.103923971E-02
   134  1.745158297E-02
   135  2.084527574E-03
   136  6.675202753E-02
   137 -4.919190824E-02
   138 -4.968063348E-02
   139  1.913998073E-03
   140  9.343556962E-02
   141 -6.991223160E-02
   142 -4.484983952E-02
   143  6.895035910E-03
   144  6.697501160E-02
   145 -4.960971366E-02
   146  3.055340814E-03
   147 -2.281586696E-03
   148  4.340814615E-03
   149  2.812710238E-03
   150  1.030933230E-03
   151  1.008105981E-01
   152 -1.661997887E-02
   153  6.961920655E-02
   154  2.285527690E-02
   155 -1.018294280E-02
   156 -1.608799543E-02
   157 -3.003665195E-02
   158  2.690346391E-02
   159  9.500872968E-03
   160  4.742290583E-02
   161 -4.346741653E-02
   162  3.715642015E-02
   163  1.296635359E-02
   164  1.307355855E-02
   165 -4.087717989E-02
   166  4.183080248E-02
   167  1.478309438E-02
   168 -5.547895406E-03
   169  5.726999824E-05
   170  6.341829574E-03
   171 -5.251525585E-04
   172 -4.152764888E-03
   173  1.663059486E-02
   174 -2.334418391E-02
   175 -2.356743243E-01
   176 -1.393029663E-01
   177 -3.200040297E-03
   178 -5.055017195E-03
   179  2.252401791E-02
   180  8.338663263E-05
   181 -7.947548272E-03
   182  1.422162601E-02
   183  3.123836320E-02
   184  2.256316308E-04
   185 -1.168805657E-02
   186  1.512206351E-02
   187  2.753274833E-03
   188 -1.020351076E-02
   189 -2.023338308E-02
   190 -4.734445536E-04
   191 -1.914183687E-03
   192 -1.136481048E-03
   193  8.150060495E-04
   194 -7.946931219E-05
   195 -4.265922328E-02
   196  1.099034472E-01
   197  4.284776402E-02
   198  5.963536285E-02
   199  1.419840449E-02
   200  2.242754847E-02
   201 -4.198269057E-02
   202  6.822590077E-03
   203  8.242501240E-02
   204 -6.304317300E-02
   205 -6.079943270E-02
   206  9.714679945E-03
   207  1.156120005E-01
   208 -6.820408543E-02
   209 -3.443672603E-02
   210 -2.621964397E-03
   211  8.169880707E-02
   212 -2.809975729E-03
   213  4.656834038E-03
   214 -6.947422192E-04
   215 -5.182899104E-03
   216  1.764982422E-03
   217  1.736948306E-01
   218 -2.328171926E-02
   219  4.328663859E-02
   220  5.569652568E-02
   221  3.379743168E-03
   222  5.348044878E-03
   223  6.696350305E-04
   224 -7.922851933E-03
   225 -2.296033736E-02
   226 -1.479705927E-02
   227  3.023394979E-03
   228 -1.190086022E-02
   229 -3.235905117E-02
   230 -3.940908339E-02
   231  9.595898128E-03
   232 -6.180885876E-03
   233 -1.545612563E-02
   234  2.218953421E-03
   235 -8.478783912E-04
   236 -1.392915807E-03
   237  7.595138489E-04
   238  3.583687614E-04
   239  2.257410652E-01
   240 -2.294109039E-02
   241  4.558390212E-03
   242 -7.724733205E-03
   243 -2.633671926E-03
   244 -4.167573952E-03
   245 -2.564775342E-02
   246  5.873530934E-03
   247  3.045062079E-04
   248  1.153411024E-02
   249 -3.648619545E-02
   250  9.918532258E-03
   251  1.298816017E-03
   252  3.065565147E-02
   253 -1.572305897E-02
   254  7.797881293E-03
   255  6.062020259E-03
   256 -1.918868791E-03
   257  1.233333449E-03
   258  1.681811368E-03
   259  7.299068398E-04
   260 -2.103373927E-03
   261 -1.720083519E-01
   262 -5.803671278E-03
   263 -1.489526225E-02
   264 -9.390639619E-03
   265 -7.250354814E-04
   266 -1.147450079E-03
   267 -2.499562179E-02
   268 -7.259988100E-03
   269 -1.204745650E-02
   270  3.183770252E-03
   271 -3.623343832E-02
   272 -1.099512111E-02
   273 -1.731029572E-02
   274  8.227315373E-03
   275 -1.557481713E-02
   276 -5.518612262E-03
   277 -5.841491913E-03
   278 -3.039478674E-03
   279 -6.147764743E-04
   280 -1.879898850E-03
   281  2.481975114E-03
   282  4.409080336E-04
   283 -5.876354019E-02
   284  9.246092626E-04
   285  7.126099322E-03
   286 -2.727551015E-03
   287  5.155249604E-02
   288  6.817886076E-02
   289  2.460038911E-02
   290  4.344828338E-03
   291 -4.465894643E-03
   292 -1.356096303E-03
   293 -2.120855215E-02
   294 -7.092723657E-02
   295 -9.435857127E-02
   296 -2.303539082E-02
   297 -6.558936516E-04
   298  6.506565424E-03
   299  3.871149390E-03
   300  2.179767554E-02
   301 -1.323605367E-04
   302 -7.338233374E-05
   303  2.513792574E-05
   304 -9.373180492E-04
   305 -1.726075184E-04
   306 -6.641621070E-04
   307  8.543187733E-05
   308  2.380011633E-02
   309  3.257588901E-02
   310 -1.073247092E-02
   311 -8.573265856E-04
   312 -5.391465775E-03
   313  1.189558026E-03
   314  4.988716675E-03
   315  6.263099990E-02
   316  8.413694363E-02
   317  4.448145513E-03
   318 -2.685400974E-05
   319  7.160888435E-03
   320 -2.045849788E-03
   321 -7.951212897E-03
   322  6.778469310E-02
   323  9.065679352E-02
   324  1.373118477E-02
   325 -3.192938475E-03
   326 -1.278206052E-04
   327  6.640213006E-03
   328 -1.634733966E-02
   329  9.626695486E-04
   330  4.628619759E-04
   331 -1.409071238E-02
   332  3.482773483E-03
   333 -7.204233921E-04
   334 -3.094670870E-03
   335  1.276632391E-02
   336  7.496033376E-03
   337  9.163504113E-03
   338  1.813717426E-02
   339  1.119114506E-03
   340  4.149870578E-03
   341 -2.678244589E-03
   342 -1.399523993E-02
   343 -7.607409844E-02
   344 -1.016994965E-01
   345 -1.424409886E-02
   346  2.421408553E-04
   347 -7.179521956E-03
   348  3.916846384E-03
   349  1.618296258E-02
   350  1.869136566E-02
   351  2.497379720E-02
   352  3.619067826E-03
   353  3.443212036E-04
   354  6.371147018E-04
   355  2.671471098E-03
   356 -4.833767740E-03
   357  7.991837428E-04
   358  8.611164681E-04
   359 -3.741548175E-03
   360  1.994325887E-03
   361  4.786695915E-04
   362 -1.836861442E-04
   363  3.399782570E-03
   364  4.030879755E-04
   365  1.599187601E-03
   366  1.849298861E-02
   367 -2.868675423E-03
   368  7.264786512E-04
   369  5.044071635E-03
   370 -1.597360432E-02
   371 -8.687244703E-02
   372 -1.161788881E-01
   373 -1.789567533E-02
   374  5.816593581E-03
   375  4.486495549E-05
   376 -7.240052770E-03
   377  2.165206490E-02
   378 -1.814158805E-02
   379 -2.413787092E-02
   380 -4.283988297E-03
   381  9.647861842E-04
   382  1.761397749E-03
   383  4.932001258E-04
   384 -7.245032358E-03
   385  1.375526760E-02
   386  1.957912413E-02
   387  1.380281386E-02
   388 -1.462324638E-03
   389 -1.160372529E-04
   390 -3.200968579E-04
   391 -4.324157343E-03
   392 -5.835493237E-03
   393 -6.598332326E-03
   394  4.743978038E-03
   395 -2.820623942E-04
   396 -1.554166504E-03
   397 -5.685222798E-04
   398 -5.143827756E-03
   399 -1.097177969E-02
   400 -1.561038359E-02
   401 -1.115615697E-02
   402 -7.814613327E-04
   403 -3.396429037E-04
   404 -1.118067195E-03
   405  3.470204701E-03
   406  2.279104238E-02
   407  3.115299843E-02
   408  9.465212257E-03
   409  1.865759970E-03
   410 -6.482093203E-05
   411  1.148577228E-03
   412  7.413208080E-03
   413 -3.750943232E-03
   414 -6.681603099E-03
   415 -9.613040918E-03
   416 -1.465828850E-03
   417 -5.416113346E-05
   418 -4.059178426E-04
   419  2.052019382E-03
   420 -3.112004810E-03
   421 -4.416359112E-03
   422 -3.229361356E-03
   423 -9.022955963E-04
   424 -1.410089851E-04
   425 -8.029769750E-04
   426  7.656726071E-04
   427 -1.681523385E-02
   428 -2.432500384E-02
   429 -1.418510987E-02
   430 -6.615267478E-04
   431  1.604382431E-03
   432  1.001760446E-04
   433 -2.420123487E-03
   434  2.219204909E-02
   435  3.126212206E-02
   436  1.405273990E-02
   437  1.392934665E-03
   438 -1.350359786E-03
   439  5.358522156E-04
   440  5.048506326E-03
Ene=   -4.5091671065E-01
Spin= Alpha
Occup=   2.0000000
     1  1.345630219E-02
     2  2.125877757E-02
     3  1.002008372E-02
     4  4.435698005E-03
     5 -3.581299905E-02
     6 -6.265052516E-02
     7  1.468437229E-02
     8  4.554284654E-03
     9 -5.042584173E-02
    10 -1.761935776E-02
    11  1.270454058E-02
    12  1.123094792E-02
    13 -5.232275253E-02
    14 -1.885614673E-03
    15 -3.222832709E-03
    16  3.395057850E-03
    17  3.003083868E-03
    18 -1.294928507E-03
    19 -6.900948154E-04
    20  2.564439530E-02
    21 -2.977166422E-01
    22  2.112368424E-01
    23 -1.444100743E-02
    24 -2.283073990E-02
    25 -5.624121375E-02
    26  3.962228954E-02
    27  1.787326157E-02
    28  6.504076299E-02
    29 -7.890714332E-02
    30  5.424584862E-02
    31  2.543330886E-02
    32  5.782398714E-02
    33 -5.897431488E-02
    34  4.349499096E-02
    35  2.100919824E-02
    36 -3.206385094E-03
    37  6.034899698E-03
    38  2.825989167E-03
    39  1.583208781E-03
    40  3.371574901E-05
    41 -1.184459042E-01
    42 -1.242105820E-03
    43  5.875652045E-02
    44 -6.485122645E-02
    45  3.496237473E-05
    46  5.499144810E-05
    47  2.320584784E-03
    48 -2.523191858E-02
    49  3.438677343E-03
    50 -1.578279647E-04
    51  3.241992968E-03
    52 -3.529992767E-02
    53  4.811154973E-03
    54 -1.244793641E-04
    55  2.375190205E-03
    56 -2.621228475E-02
    57  3.531217872E-03
    58 -3.172691967E-03
    59 -3.200362654E-03
    60  7.236707946E-04
    61 -6.098434764E-03
    62 -1.223708207E-02
    63  3.889638324E-03
    64 -9.515436000E-03
    65  9.423609096E-02
    66 -1.166281939E-02
    67  4.556801537E-03
    68  7.204633915E-03
    69 -1.768060757E-02
    70 -8.872637865E-02
    71 -2.605701872E-02
    72 -2.053291572E-02
    73 -2.463876758E-02
    74 -1.258276528E-01
    75 -3.643709698E-02
    76 -1.816108588E-02
    77 -1.714031456E-02
    78 -8.484572894E-02
    79 -2.768197973E-02
    80  1.541963590E-04
    81 -1.996376603E-03
    82 -3.472471075E-03
    83  8.871462497E-04
    84 -2.841286812E-03
    85  5.723015384E-02
    86 -3.358116400E-02
    87 -5.747303496E-02
    88 -8.724919591E-03
    89 -4.310851950E-03
    90 -6.810573991E-03
    91 -1.607977647E-02
    92 -4.201715025E-02
    93  4.614076556E-03
    94  2.006971063E-02
    95 -2.238015934E-02
    96 -5.986226538E-02
    97  6.877655159E-03
    98  5.745240705E-03
    99 -2.424387154E-02
   100 -6.037488843E-02
   101  5.690610818E-03
   102 -2.216466653E-03
   103 -4.033347848E-04
   104 -8.282852914E-03
   105  3.029544916E-03
   106  8.024486802E-03
   107  1.511847834E-02
   108  1.416684825E-01
   109  8.804922625E-02
   110  2.238882855E-02
   111 -1.001368813E-02
   112 -1.581791352E-02
   113  3.651336671E-02
   114  1.036053207E-02
   115 -5.375931317E-02
   116  4.446710829E-02
   117  5.132527200E-02
   118  1.340923167E-02
   119 -7.620633266E-02
   120  4.824206287E-02
   121  4.870841790E-02
   122  2.091721638E-03
   123 -3.987026504E-02
   124  3.558326160E-03
   125 -3.651653272E-03
   126  1.768596177E-03
   127  8.165911121E-05
   128  1.484541115E-03
   129 -1.715628677E-01
   130 -3.054734311E-02
   131  7.290912223E-02
   132 -8.505384352E-02
   133  9.824843156E-03
   134  1.553151918E-02
   135  8.057909903E-02
   136 -2.259966807E-02
   137  1.784185300E-02
   138 -4.421087387E-02
   139  1.132583593E-01
   140 -3.306916735E-02
   141  2.508262492E-02
   142 -3.988505547E-02
   143  8.172757744E-02
   144 -1.905697372E-02
   145  1.493344995E-02
   146  2.540678741E-03
   147 -4.287187092E-03
   148  1.909886325E-03
   149 -2.929454680E-03
   150  9.971224211E-04
   151  9.386336469E-02
   152  3.898938375E-02
   153  5.299123836E-03
   154  6.190646004E-02
   155 -9.230270234E-03
   156 -1.458276057E-02
   157  1.119358218E-02
   158 -1.514043040E-02
   159  3.796282064E-02
   160  4.296852060E-02
   161  1.526880874E-02
   162 -2.254450717E-02
   163  5.350699488E-02
   164  1.216602053E-02
   165  1.814537536E-02
   166 -1.908339186E-02
   167  5.567899894E-02
   168  7.028647433E-03
   169  5.017303567E-03
   170 -2.003941863E-03
   171 -3.357326168E-03
   172  3.444697337E-03
   173  3.641944008E-02
   174 -1.066733346E-01
   175 -1.203522918E-01
   176 -2.044742306E-01
   177  1.474816205E-02
   178  2.329590270E-02
   179 -5.636467406E-02
   180  1.958304905E-02
   181  7.418326442E-02
   182 -6.548703065E-02
   183 -7.939763269E-02
   184  2.599836241E-02
   185  1.052927247E-01
   186 -7.074686934E-02
   187 -5.913734462E-02
   188  2.439071569E-02
   189  6.521537676E-02
   190 -3.736328498E-03
   191  6.666478810E-03
   192  2.137221635E-03
   193  4.470349336E-04
   194  1.032540148E-03
   195  1.958653478E-01
   196 -1.809189377E-02
   197  2.219017091E-02
   198  7.028899830E-02
   199 -4.639565411E-03
   200 -7.330316718E-03
   201  1.603520914E-02
   202  1.193700643E-02
   203 -2.617396158E-02
   204  2.064313825E-02
   205  2.302028818E-02
   206  1.614637001E-02
   207 -3.674812749E-02
   208  2.189153356E-02
   209  9.251389069E-03
   210 -1.186403275E-02
   211 -2.744971110E-02
   212  7.724743419E-04
   213 -1.735585940E-03
   214 -1.343100131E-03
   215  1.891401913E-03
   216  2.667861326E-04
   217 -9.278674628E-02
   218  2.848216577E-02
   219  1.360921974E-01
   220 -1.502904805E-02
   221 -1.102806597E-03
   222 -1.745715689E-03
   223 -5.142639537E-03
   224 -2.711373322E-02
   225  5.929850348E-03
   226  4.853231871E-03
   227 -8.153208422E-03
   228 -3.928029234E-02
   229  8.292800075E-03
   230  1.257775760E-02
   231 -5.932717671E-03
   232 -1.578345552E-02
   233  4.121687751E-03
   234 -1.117815989E-03
   235 -3.172797152E-04
   236 -3.785500464E-03
   237  1.345488330E-04
   238  1.722862095E-03
   239 -9.013707103E-02
   240  1.131043056E-02
   241 -9.209964533E-05
   242  3.967671376E-03
   243 -2.370454801E-03
   244 -3.751945204E-03
   245  7.752423472E-04
   246 -1.921855780E-02
   247  1.873453367E-02
   248  1.041221306E-02
   249  1.825719493E-03
   250 -2.666614877E-02
   251  2.800026705E-02
   252  2.728424413E-02
   253  1.930508636E-04
   254 -7.908440662E-03
   255  1.654273718E-02
   256  1.875264565E-03
   257  1.790846920E-03
   258 -1.554354690E-03
   259 -2.260862958E-03
   260  3.311170197E-04
   261 -1.594776278E-01
   262 -6.812788385E-03
   263 -1.181634341E-02
   264 -1.036724740E-02
   265  3.468931333E-03
   266  5.488381920E-03
   267  1.015067393E-02
   268 -1.441079717E-02
   269 -1.669734067E-02
   270 -1.517744782E-02
   271  1.437604644E-02
   272 -1.877671739E-02
   273 -2.515975239E-02
   274 -4.038020052E-02
   275  8.435807271E-03
   276 -2.790714343E-03
   277 -1.731550918E-02
   278 -3.718180569E-04
   279 -2.272214199E-03
   280  4.349972804E-04
   281  5.977842694E-04
   282 -1.400906178E-03
   283  2.297259790E-01
   284  1.675018219E-03
   285 -1.993115144E-02
   286  1.169018786E-02
   287  5.778290199E-02
   288  7.776233394E-02
   289  1.507988187E-03
   290  6.317798759E-03
   291  6.512697538E-04
   292  3.423661399E-03
   293 -5.827929368E-03
   294  3.185899287E-02
   295  4.330968194E-02
   296 -8.473259894E-03
   297 -5.072054958E-03
   298 -1.738720681E-03
   299 -2.556556555E-03
   300  3.976363075E-03
   301  5.742883945E-05
   302  9.468307200E-05
   303 -3.466548260E-04
   304  1.119399622E-04
   305 -1.146032226E-03
   306  1.505866074E-04
   307  2.619744559E-04
   308 -7.353678522E-02
   309 -9.786509301E-02
   310 -2.245210556E-02
   311  2.694501537E-03
   312  3.675054490E-03
   313  6.321335901E-03
   314  2.149422895E-02
   315  4.527202160E-02
   316  5.976784811E-02
   317  2.405145632E-02
   318 -1.549175164E-03
   319  9.256826675E-04
   320 -5.767115880E-03
   321 -2.019158994E-02
   322  6.100689124E-02
   323  8.155308826E-02
   324  1.285201358E-02
   325 -4.490519457E-03
   326  1.498506691E-03
   327  4.699038091E-03
   328 -1.561044888E-02
   329 -2.367846714E-05
   330 -8.166726867E-04
   331 -1.208085031E-02
   332  1.815791161E-03
   333  8.213704472E-04
   334 -3.781839594E-03
   335  1.226701075E-02
   336 -7.708635954E-02
   337 -1.029609156E-01
   338 -1.603388456E-02
   339 -7.898769341E-03
   340  6.665530128E-04
   341 -2.039891042E-03
   342  1.782226298E-02
   343  1.614830690E-02
   344  2.073239763E-02
   345  2.020671693E-02
   346  5.028954031E-03
   347  8.827617150E-04
   348 -4.655599259E-05
   349 -1.655193130E-02
   350 -8.928076847E-02
   351 -1.193570301E-01
   352 -1.851670447E-02
   353  5.715001833E-03
   354  1.000205493E-04
   355 -7.646110796E-03
   356  2.433025116E-02
   357 -5.192645509E-04
   358  4.053322908E-04
   359  1.856283210E-02
   360 -3.344141218E-03
   361  8.469059424E-04
   362  4.936041065E-03
   363 -1.703454191E-02
   364 -1.150308342E-04
   365 -5.059749896E-04
   366 -5.640414707E-03
   367  1.225120002E-03
   368  1.479366928E-03
   369 -1.556296909E-03
   370  5.747663930E-03
   371  2.837959329E-02
   372  3.790995298E-02
   373  6.027870558E-03
   374 -1.568298327E-03
   375  2.015398279E-03
   376  2.472754141E-03
   377 -6.546393574E-03
   378 -1.491486333E-02
   379 -2.180879609E-02
   380 -1.402591445E-02
   381  9.088342429E-04
   382 -3.233088979E-04
   383  1.351233263E-03
   384 -2.428873783E-03
   385 -4.521177803E-03
   386 -6.376436861E-03
   387 -4.993078102E-03
   388  2.733979418E-04
   389 -1.191465663E-03
   390  4.174779852E-05
   391  7.783311286E-04
   392  2.274770083E-02
   393  3.185044732E-02
   394  1.395158382E-02
   395 -9.670685535E-04
   396  1.295190442E-03
   397 -1.271673600E-03
   398  6.254396828E-03
   399 -9.745402189E-03
   400 -1.377303866E-02
   401 -1.072598254E-02
   402  2.763639331E-04
   403 -1.318437607E-03
   404 -2.217138585E-04
   405  2.457853684E-03
   406 -6.453083312E-03
   407 -1.037292880E-02
   408 -1.133514198E-02
   409 -4.012778079E-04
   410 -1.392114701E-03
   411  4.708011201E-04
   412  1.181741186E-03
   413  2.337060723E-02
   414  3.208477313E-02
   415  1.060817619E-02
   416 -6.906046005E-05
   417  2.145955486E-03
   418 -4.608774760E-04
   419  8.334252294E-03
   420  1.432215568E-02
   421  2.035474576E-02
   422  1.456952539E-02
   423 -1.968665123E-04
   424 -1.350638266E-03
   425  7.002886427E-04
   426 -4.898377685E-03
   427 -1.664588365E-02
   428 -2.198321209E-02
   429 -2.553411835E-03
   430  1.403803727E-03
   431  1.242806546E-03
   432  7.702358031E-04
   433 -8.116733695E-03
   434 -8.242478741E-03
   435 -1.004873068E-02
   436  3.864876354E-03
   437 -1.090404139E-03
   438 -7.356648746E-04
   439 -1.157871183E-03
   440 -6.025304260E-03
Ene=   -4.4820339365E-01
Spin= Alpha
Occup=   2.0000000
     1  3.129158432E-05
     2  4.979537329E-05
     3  5.928757994E-02
     4  2.702222624E-02
     5  4.058730758E-02
     6 -1.511859846E-04
     7  8.714366684E-02
     8  3.970732808E-02
     9  5.966849222E-02
    10  5.145803809E-05
    11  7.713305919E-02
    12  3.521301471E-02
    13  5.268509374E-02
    14 -3.851325650E-03
    15 -2.185728944E-03
    16 -4.437581337E-04
    17  8.605522513E-04
    18  2.200094756E-03
    19 -6.659356813E-03
    20 -7.518760347E-04
    21  6.115829269E-03
    22  1.133548431E-03
    23 -2.462906385E-05
    24 -3.849549466E-05
    25  3.456404743E-02
    26  1.585896234E-02
    27  2.383314593E-02
    28  9.589520288E-05
    29  5.095504627E-02
    30  2.337034910E-02
    31  3.512663416E-02
    32  3.199672713E-04
    33  2.361144286E-02
    34  1.081856403E-02
    35  1.627008919E-02
    36 -2.667910078E-03
    37 -2.293616384E-03
    38  1.445673066E-03
    39 -1.734069561E-03
    40  3.539821510E-03
    41 -3.430428225E-03
    42  1.646230938E-02
    43  7.336324273E-03
    44  1.383327741E-02
    45 -9.535712765E-07
    46 -1.484177913E-06
    47  5.164185095E-06
    48 -2.465456981E-05
    49 -1.457492438E-05
    50  3.361922301E-06
    51  1.273642315E-05
    52 -3.843508737E-05
    53 -1.797177584E-05
    54  5.397311598E-05
    55 -3.015635112E-05
    56 -3.320634302E-05
    57 -8.816621100E-06
    58  1.506542251E-08
    59 -3.427699520E-06
    60  2.578707541E-08
    61 -1.050123670E-05
    62 -2.560065350E-05
    63 -9.986995419E-04
    64 -4.312409795E-04
    65 -9.778773844E-04
    66 -6.605784096E-04
    67  2.309753366E-06
    68  3.836189958E-06
    69 -7.326856140E-03
    70 -4.445515003E-02
    71 -2.389231003E-03
    72 -1.646260688E-05
    73 -1.080479161E-02
    74 -6.551172854E-02
    75 -3.520748470E-03
    76  6.205225323E-05
    77 -4.932783978E-03
    78 -3.041194877E-02
    79 -1.674063056E-03
    80 -1.170215127E-04
    81 -4.894593397E-04
    82 -1.238928674E-03
    83 -1.770009927E-03
    84 -5.018903273E-03
    85  1.728820815E-03
    86 -4.759798164E-03
    87 -2.210111375E-02
    88 -1.705266773E-03
    89 -3.105457326E-07
    90 -5.965680869E-07
    91 -1.249322125E-02
    92 -7.575980877E-02
    93 -4.027400311E-03
    94  8.183281208E-06
    95 -1.836529726E-02
    96 -1.113590570E-01
    97 -5.916327045E-03
    98 -1.226941616E-04
    99 -1.627328866E-02
   100 -9.853316097E-02
   101 -5.328762964E-03
   102  2.040104354E-04
   103  1.338103657E-04
   104  2.252247768E-03
   105 -1.321673794E-03
   106 -4.265032174E-03
   107 -1.103709884E-02
   108 -4.272377672E-03
   109 -4.243080634E-03
   110  1.623225534E-03
   111 -2.685278845E-05
   112 -4.186084891E-05
   113 -4.035204421E-02
   114  4.206044457E-02
   115 -3.178531083E-02
   116  1.065469267E-04
   117 -5.819392123E-02
   118  6.064415944E-02
   119 -4.583572122E-02
   120  2.444222426E-04
   121 -2.475163029E-02
   122  2.586335477E-02
   123 -1.949194515E-02
   124 -4.022230609E-03
   125 -8.524499274E-04
   126  3.392869921E-03
   127  3.119473260E-03
   128 -2.444410050E-03
   129  1.313185122E-02
   130  1.630388442E-02
   131 -1.959194855E-02
   132  1.415815858E-02
   133  2.330189767E-05
   134  3.656233420E-05
   135 -2.724051750E-02
   136  2.846634187E-02
   137 -2.145847115E-02
   138 -9.849522230E-05
   139 -4.015899760E-02
   140  4.194959418E-02
   141 -3.162835661E-02
   142 -1.528679126E-04
   143 -1.863014571E-02
   144  1.947603607E-02
   145 -1.469066512E-02
   146  2.783943343E-03
   147  2.786617863E-03
   148 -2.001729129E-04
   149  3.504428965E-03
   150  1.471463886E-03
   151 -1.078073011E-02
   152 -1.601759119E-02
   153  1.406118890E-02
   154 -1.004425126E-02
   155 -2.280649531E-05
   156 -3.583251633E-05
   157 -4.681747238E-02
   158  4.862697954E-02
   159 -3.654387157E-02
   160  1.006574774E-04
   161 -6.882359288E-02
   162  7.147066378E-02
   163 -5.371888479E-02
   164  5.371329494E-05
   165 -6.076500656E-02
   166  6.327059817E-02
   167 -4.742787635E-02
   168  3.648701695E-03
   169  2.053634265E-03
   170 -1.821450845E-03
   171  4.669888940E-04
   172  2.086661216E-03
   173 -5.186002184E-03
   174 -1.702321731E-03
   175  1.065977072E-03
   176  6.338640752E-03
   177  2.606148829E-05
   178  4.104454350E-05
   179  5.113898041E-02
   180  2.337764604E-02
   181  3.529165253E-02
   182 -1.118600953E-04
   183  7.374291380E-02
   184  3.370543902E-02
   185  5.089134533E-02
   186 -2.250136324E-04
   187  3.150506554E-02
   188  1.435209399E-02
   189  2.172328698E-02
   190  4.573844866E-03
   191  1.683880588E-03
   192  2.559435688E-03
   193 -3.709585469E-03
   194 -2.784265545E-04
   195 -1.849450625E-03
   196 -1.941422867E-02
   197 -9.430398520E-03
   198 -1.569965634E-02
   199 -3.422134048E-06
   200 -5.131932751E-06
   201 -1.077939137E-02
   202 -6.536479896E-02
   203 -3.496577936E-03
   204  9.935601667E-06
   205 -1.554127201E-02
   206 -9.426073545E-02
   207 -5.039331169E-03
   208  3.973355062E-05
   209 -6.707190296E-03
   210 -4.025905185E-02
   211 -2.161429848E-03
   212 -5.488962365E-04
   213 -8.328660226E-04
   214 -5.950225347E-03
   215  5.929165828E-04
   216  2.732669168E-03
   217  1.646034024E-02
   218  5.499522255E-03
   219  2.297576226E-02
   220  3.876618412E-03
   221 -3.364237278E-07
   222 -4.335636155E-08
   223 -1.275701320E-02
   224 -7.733321830E-02
   225 -4.111199100E-03
   226 -1.317252991E-05
   227 -1.819611667E-02
   228 -1.103324535E-01
   229 -5.865616343E-03
   230  1.758245322E-04
   231 -1.084662780E-02
   232 -6.519092631E-02
   233 -3.496307322E-03
   234 -5.140217836E-04
   235 -7.906870517E-04
   236 -5.570360254E-03
   237  4.968358753E-04
   238  2.380727800E-03
   239  5.050569051E-03
   240 -4.132916041E-03
   241 -1.847822089E-02
   242 -1.217151272E-03
   243 -6.352902358E-06
   244 -9.748902131E-06
   245 -4.782704240E-02
   246  4.963166009E-02
   247 -3.737775539E-02
   248  1.659358150E-05
   249 -6.823819955E-02
   250  7.081627166E-02
   251 -5.333432340E-02
   252  2.065638607E-04
   253 -4.029679903E-02
   254  4.189666867E-02
   255 -3.143758617E-02
   256 -3.656553451E-03
   257 -6.897792750E-04
   258  3.141373513E-03
   259  3.002833309E-03
   260 -2.232223309E-03
   261  4.594874337E-03
   262 -1.095330144E-02
   263  1.252641027E-02
   264 -8.463711146E-03
   265  5.733514045E-06
   266  9.436461386E-06
   267  6.054985268E-02
   268  2.757523003E-02
   269  4.148133786E-02
   270 -2.916539254E-05
   271  8.638914102E-02
   272  3.934843414E-02
   273  5.917712302E-02
   274 -1.074822842E-04
   275  5.104162368E-02
   276  2.330954958E-02
   277  3.498743931E-02
   278  4.172329202E-03
   279  1.474716001E-03
   280  2.424521373E-03
   281 -3.497054388E-03
   282 -1.539043110E-04
   283 -5.899482433E-04
   284  1.471006156E-02
   285  6.017642865E-03
   286  9.862280364E-03
   287 -2.951940949E-02
   288 -4.115926380E-02
   289 -1.277781418E-02
   290 -2.347533928E-03
   291  1.324606152E-03
   292  6.008809442E-04
   293  9.515567214E-03
   294  2.967137153E-02
   295  4.133463140E-02
   296  1.321337907E-02
   297  7.465419479E-04
   298 -2.057936789E-03
   299 -1.696643064E-03
   300 -9.845544566E-03
   301 -1.095789117E-05
   302 -3.161963529E-05
   303  8.213603569E-05
   304 -1.512669004E-06
   305  4.855142391E-07
   306  1.022180405E-06
   307 -1.382012124E-04
   308 -2.976098391E-02
   309 -4.148272031E-02
   310 -1.309510216E-02
   311  4.130664631E-04
   312  8.535065424E-04
   313  2.617747663E-03
   314  1.004440403E-02
   315  2.973413544E-02
   316  4.145259089E-02
   317  1.283156118E-02
   318 -7.543437547E-05
   319  1.203052569E-03
   320 -2.507126292E-03
   321 -9.678501251E-03
   322  1.523879604E-04
   323  2.163540680E-04
   324  6.616024028E-05
   325 -2.335414390E-03
   326  2.418897822E-03
   327 -1.807455212E-03
   328  2.989633308E-06
   329 -3.311585802E-09
   330  7.269149187E-06
   331 -1.868447831E-04
   332 -2.996101140E-03
   333  3.120229794E-03
   334 -2.356969352E-03
   335 -6.731657056E-04
   336  2.950898476E-02
   337  4.110731186E-02
   338  1.309577216E-02
   339  2.655544251E-03
   340  5.593409123E-04
   341 -5.010622578E-04
   342 -1.030822269E-02
   343 -2.966007473E-02
   344 -4.134615990E-02
   345 -1.279146825E-02
   346 -1.393087230E-03
   347 -1.874905651E-03
   348  1.486355119E-03
   349  9.998926026E-03
   350 -1.552420865E-04
   351 -2.276567971E-04
   352  4.230540537E-05
   353  2.955111800E-03
   354  1.342472284E-03
   355  2.007795437E-03
   356 -8.939890691E-04
   357  2.746977354E-05
   358  3.135659014E-05
   359  9.954216316E-05
   360  3.793991171E-03
   361  1.737562695E-03
   362  2.614922309E-03
   363  1.370188497E-04
   364  5.757657718E-06
   365  1.164289039E-05
   366 -2.695000896E-04
   367 -7.991748051E-04
   368 -4.847096145E-03
   369 -2.586438617E-04
   370  1.570998321E-04
   371  6.148783307E-06
   372  3.020344202E-05
   373 -1.774670806E-04
   374 -6.191844926E-04
   375 -3.754376648E-03
   376 -1.991530206E-04
   377  1.337259230E-05
   378 -5.166565058E-02
   379 -6.951624469E-02
   380 -2.258437967E-02
   381  2.413207911E-03
   382  1.408754143E-03
   383  4.712813018E-03
   384  6.223071620E-03
   385 -5.952973313E-06
   386 -3.336455124E-05
   387  2.439765397E-04
   388 -7.866227348E-04
   389 -4.776935407E-03
   390 -2.570792415E-04
   391  2.520993489E-04
   392  5.166818238E-02
   393  6.952986693E-02
   394  2.267119221E-02
   395 -1.754935275E-03
   396  2.586607172E-03
   397 -4.499766680E-03
   398 -6.363242607E-03
   399 -3.929835514E-05
   400 -8.210131112E-05
   401  2.449048586E-04
   402 -2.951282657E-03
   403  3.066068465E-03
   404 -2.316552860E-03
   405  2.079022032E-04
   406  5.164884588E-02
   407  6.947750505E-02
   408  2.280470818E-02
   409  5.077333187E-03
   410  2.002810513E-03
   411  4.292022567E-04
   412 -5.807949345E-03
   413 -5.158765990E-02
   414 -6.940492116E-02
   415 -2.269975061E-02
   416 -2.609096972E-03
   417 -4.568730587E-03
   418  1.506303280E-03
   419  5.708020839E-03
   420  5.629942677E-05
   421  8.976357280E-05
   422 -1.317127720E-05
   423  3.736634599E-03
   424  1.702372083E-03
   425  2.570798583E-03
   426  1.203686685E-04
   427  5.158263927E-02
   428  6.940994275E-02
   429  2.249332966E-02
   430  1.036760417E-03
   431 -4.980066878E-03
   432 -2.015814741E-03
   433 -5.645645478E-03
   434 -5.164472479E-02
   435 -6.945888685E-02
   436 -2.287264449E-02
   437 -4.160304528E-03
   438  3.555531167E-03
   439 -1.344544388E-04
   440  6.199934607E-03
Ene=   -4.3639589401E-01
Spin= Alpha
Occup=   2.0000000
     1 -1.143641534E-03
     2 -1.783554066E-03
     3 -4.885610929E-02
     4  3.259413862E-02
     5  3.661120006E-02
     6  4.531915900E-03
     7 -7.163741696E-02
     8  4.738122790E-02
     9  5.385790111E-02
    10  1.420620249E-02
    11 -6.923713744E-02
    12  4.234553732E-02
    13  4.872914307E-02
    14 -8.641050504E-04
    15  3.113872996E-04
    16  2.849040479E-03
    17 -2.358932694E-03
    18 -5.547133562E-03
    19 -2.175942169E-01
    20  1.775257112E-02
    21 -1.620396668E-01
    22  6.915206500E-02
    23  3.704374248E-03
    24  5.805228647E-03
    25  4.145776842E-02
    26  5.570148070E-02
    27 -3.805148135E-02
    28 -1.502880054E-02
    29  6.074663731E-02
    30  8.035460680E-02
    31 -5.586449624E-02
    32 -4.095676175E-02
    33  3.278244076E-02
    34  5.340852709E-02
    35 -1.779248970E-02
    36  5.269589261E-03
    37 -2.071848989E-03
    38  3.256385912E-03
    39  1.764610197E-03
    40 -3.861293167E-04
    41  5.491962109E-02
    42  3.650668505E-02
    43  2.650276466E-02
    44 -2.671813929E-02
    45 -7.300136110E-06
    46 -1.144592261E-05
    47  5.364675076E-02
    48 -5.556307986E-02
    49  4.201311265E-02
    50  2.871068470E-05
    51  7.972625165E-02
    52 -8.257045576E-02
    53  6.243498684E-02
    54  3.820359738E-05
    55  4.919609012E-02
    56 -5.084230178E-02
    57  3.845042225E-02
    58 -2.431598940E-03
    59 -1.859626318E-04
    60  2.346627945E-03
    61  2.711516531E-03
    62 -1.509410255E-03
    63  7.438343108E-03
    64 -2.194795545E-02
    65  2.295645307E-02
    66 -1.827489424E-02
    67 -3.705071618E-03
    68 -5.807166196E-03
    69 -7.589540479E-02
    70 -1.985151373E-02
    71  1.122953695E-02
    72  1.505858508E-02
    73 -1.103003338E-01
    74 -2.877190374E-02
    75  1.728519597E-02
    76  4.059711138E-02
    77 -6.002352254E-02
    78 -2.506162654E-02
    79 -3.404468176E-03
    80 -2.908645352E-03
    81  4.634113669E-03
    82 -3.250790433E-03
    83  1.675640113E-03
    84  1.603788531E-03
    85 -5.493167073E-02
    86 -4.230766856E-02
    87 -1.721328773E-02
    88  1.960777360E-02
    89  1.131975757E-03
    90  1.765094373E-03
    91  8.732157323E-03
    92  9.089539938E-03
    93 -6.817778187E-02
    94 -4.481995588E-03
    95  1.323286381E-02
    96  1.330395758E-02
    97 -9.981470844E-02
    98 -1.420126522E-02
    99  1.342986303E-02
   100  1.565099371E-02
   101 -9.250055537E-02
   102 -4.941764342E-03
   103 -3.911145533E-03
   104 -2.597798106E-04
   105  7.629074801E-04
   106  2.249265073E-03
   107  2.297647108E-01
   108  1.591951001E-01
   109 -2.444525506E-02
   110  6.393905756E-02
   111  6.787759291E-06
   112  1.016321141E-05
   113  2.540477922E-02
   114 -2.646041605E-02
   115  1.981897817E-02
   116 -1.421003005E-05
   117  3.667540519E-02
   118 -3.819501034E-02
   119  2.860933853E-02
   120 -2.278068016E-04
   121  1.587394225E-02
   122 -1.653544356E-02
   123  1.228140841E-02
   124 -4.322139512E-03
   125 -3.901141149E-03
   126  7.462990761E-04
   127 -4.301933446E-03
   128 -2.337436099E-03
   129 -5.199870890E-03
   130 -5.787314654E-02
   131  6.132707410E-02
   132 -4.537610518E-02
   133  1.581516206E-05
   134  2.513631933E-05
   135  3.825198131E-02
   136 -3.981281713E-02
   137  2.978371936E-02
   138 -7.390942678E-05
   139  5.543993134E-02
   140 -5.770127024E-02
   141  4.316841690E-02
   142 -2.142528606E-05
   143  4.224319100E-02
   144 -4.391630388E-02
   145  3.291047449E-02
   146  4.923281012E-03
   147  1.842159127E-03
   148 -3.332542118E-03
   149 -1.675740816E-03
   150  2.900002048E-03
   151  5.885558945E-03
   152  2.882136151E-02
   153 -2.889079983E-02
   154  1.962024999E-02
   155 -1.643365528E-05
   156 -2.586815287E-05
   157 -8.460960307E-03
   158  8.597115955E-03
   159 -6.442080222E-03
   160  7.246499333E-05
   161 -1.246576250E-02
   162  1.267925826E-02
   163 -9.492700149E-03
   164  1.553939174E-04
   165 -1.577592775E-02
   166  1.597368302E-02
   167 -1.213312894E-02
   168  3.705810234E-03
   169  1.944149703E-03
   170 -1.996459301E-03
   171  1.108543148E-04
   172  2.152613308E-03
   173  3.194116876E-03
   174 -5.637760361E-03
   175  2.421097049E-03
   176 -1.174412330E-02
   177  2.626293699E-03
   178  4.156033286E-03
   179  1.961357762E-02
   180  3.901254525E-02
   181 -1.500188372E-02
   182 -1.180021245E-02
   183  2.912233316E-02
   184  5.652531180E-02
   185 -2.297089638E-02
   186 -8.435753407E-03
   187  8.971049228E-03
   188  3.199188893E-02
   189 -9.707238989E-03
   190 -1.243235777E-03
   191 -2.723731517E-03
   192  3.509465261E-03
   193  1.567665361E-03
   194  2.522554853E-03
   195 -1.139537932E-02
   196 -3.598327356E-02
   197 -5.231122039E-05
   198 -3.684547849E-02
   199 -2.622942788E-03
   200 -4.150370707E-03
   201 -4.397924784E-02
   202 -1.364219169E-02
   203 -3.968289023E-03
   204  1.176954777E-02
   205 -6.461932480E-02
   206 -1.956227264E-02
   207 -4.668544707E-03
   208  8.728198503E-03
   209 -3.269307755E-02
   210 -7.321971102E-03
   211 -8.671519795E-03
   212 -1.997949803E-03
   213  2.093246893E-03
   214 -7.591993408E-04
   215  1.028826760E-03
   216 -4.468188565E-03
   217 -2.604345212E-03
   218 -1.442196798E-02
   219  5.065702649E-02
   220 -1.639295263E-03
   221 -1.140456503E-03
   222 -1.785145167E-03
   223  3.755530967E-02
   224  1.006656964E-02
   225 -7.939081789E-02
   226  4.344944366E-03
   227  5.339926756E-02
   228  1.419238466E-02
   229 -1.133912016E-01
   230  1.256603517E-02
   231  2.985789623E-02
   232  9.510053248E-03
   233 -6.909290979E-02
   234  5.841811567E-03
   235 -2.816588341E-03
   236  4.720288143E-04
   237  2.799237618E-03
   238 -8.086361987E-04
   239 -1.465004802E-01
   240  2.351540557E-02
   241  4.211708057E-03
   242 -1.049083494E-02
   243  2.750058572E-06
   244  4.029854166E-06
   245 -1.463761728E-02
   246  1.507126470E-02
   247 -1.119601134E-02
   248  6.504630095E-07
   249 -2.063814359E-02
   250  2.124396542E-02
   251 -1.577421969E-02
   252 -1.740165286E-04
   253 -1.311856997E-02
   254  1.345547544E-02
   255 -1.009644573E-02
   256 -5.614544163E-04
   257  1.240145123E-04
   258  6.838552848E-04
   259  9.966874618E-04
   260 -3.662763161E-04
   261 -9.375716227E-03
   262 -9.560098823E-03
   263  7.573493131E-03
   264 -8.166237952E-03
   265  1.142512327E-03
   266  1.787747887E-03
   267 -6.351890776E-02
   268  1.684250234E-02
   269  5.888382623E-02
   270 -4.338559756E-03
   271 -9.051587875E-02
   272  2.427453141E-02
   273  8.408312475E-02
   274 -1.266491217E-02
   275 -5.515890069E-02
   276  1.669273959E-02
   277  4.907791581E-02
   278 -1.921631312E-03
   279  5.996873497E-03
   280 -1.481368456E-03
   281  2.202095666E-04
   282  2.948779530E-03
   283  1.458791500E-01
   284 -1.543554518E-02
   285 -1.204339145E-02
   286  1.680988249E-02
   287 -1.865614260E-02
   288 -2.211936494E-02
   289 -1.226130004E-02
   290  1.571972909E-04
   291  4.075998462E-03
   292 -3.482918855E-03
   293  8.648912257E-03
   294  2.229560996E-02
   295  2.979157648E-02
   296 -3.407031735E-04
   297  1.271772742E-03
   298  6.599574706E-04
   299 -4.537842380E-03
   300 -1.136876207E-02
   301  3.065521499E-05
   302  7.112179637E-05
   303 -2.081281714E-04
   304  3.151385132E-03
   305 -3.262777030E-03
   306  2.460343754E-03
   307  3.885031032E-04
   308 -2.220664846E-02
   309 -2.964012029E-02
   310  1.731672230E-04
   311 -3.488080918E-03
   312  1.626935037E-03
   313  2.808668047E-03
   314  1.127994016E-02
   315  1.854473346E-02
   316  2.195839101E-02
   317  1.212402231E-02
   318 -5.216815407E-03
   319  1.172196883E-03
   320 -4.626029909E-04
   321 -8.681813680E-03
   322  3.974000286E-05
   323  4.969116020E-05
   324 -9.806556366E-05
   325  2.332322145E-03
   326 -2.428333702E-03
   327  1.828213737E-03
   328 -4.199226170E-05
   329 -7.331824219E-05
   330 -8.414524698E-05
   331 -2.005044015E-05
   332  1.093266595E-03
   333 -1.130463523E-03
   334  8.544414136E-04
   335  3.926981162E-04
   336 -4.085956203E-02
   337 -5.174826096E-02
   338 -1.212066069E-02
   339 -3.606777114E-03
   340 -1.465485111E-03
   341 -4.286832011E-04
   342  1.959705003E-02
   343  4.082758681E-02
   344  5.172781050E-02
   345  1.193330251E-02
   346  1.814064903E-03
   347  3.317895934E-03
   348 -9.939315616E-04
   349 -1.922936622E-02
   350  1.581780751E-02
   351  2.196020213E-02
   352  1.297100672E-02
   353  7.700236359E-04
   354  2.395692775E-03
   355  9.160052365E-04
   356 -3.340923361E-04
   357 -3.561023730E-02
   358 -4.836952666E-02
   359 -1.290317403E-02
   360  9.389583600E-04
   361 -2.234777009E-03
   362  1.814971966E-03
   363  8.628049259E-03
   364  3.569516927E-02
   365  4.847462446E-02
   366  1.317382212E-02
   367  2.544184647E-03
   368 -1.375301715E-03
   369  9.126506293E-04
   370 -8.745271204E-03
   371 -1.589589184E-02
   372 -2.207119450E-02
   373 -1.283663215E-02
   374 -1.512945298E-03
   375 -1.608638504E-03
   376 -1.506049212E-03
   377  1.134480684E-03
   378 -2.123784072E-02
   379 -2.937458029E-02
   380 -1.665672354E-02
   381  3.698745103E-03
   382  3.079829720E-03
   383 -2.976649193E-03
   384  2.024064884E-03
   385  7.155652174E-02
   386  9.673228588E-02
   387  3.006667590E-02
   388 -4.893355271E-03
   389  1.290130324E-03
   390  4.179923993E-03
   391  1.666890399E-04
   392 -3.684799152E-02
   393 -5.011960678E-02
   394 -2.374075131E-02
   395  2.921395581E-03
   396 -4.459164305E-03
   397 -1.674115198E-03
   398  7.854569506E-03
   399 -1.774178959E-04
   400 -2.211255300E-04
   401 -2.416781041E-04
   402 -8.442419510E-04
   403  8.810236530E-04
   404 -6.781529117E-04
   405 -3.227264383E-04
   406  1.573306608E-02
   407  2.089892731E-02
   408  7.200553971E-03
   409  1.710404052E-03
   410  6.604522747E-04
   411 -1.808800495E-04
   412 -5.578742476E-03
   413 -1.561041753E-02
   414 -2.073935633E-02
   415 -6.976762141E-03
   416 -1.071669435E-03
   417 -1.321793146E-03
   418  7.062475590E-04
   419  5.506425751E-03
   420 -7.143298526E-02
   421 -9.654705373E-02
   422 -3.023068500E-02
   423  2.687535849E-03
   424  9.949217865E-04
   425 -5.890450359E-03
   426 -3.433276961E-04
   427  2.113788763E-02
   428  2.922420433E-02
   429  1.680298845E-02
   430 -5.050049186E-03
   431 -1.661062231E-03
   432  1.911632874E-03
   433 -2.295489583E-03
   434  3.679069736E-02
   435  5.002970258E-02
   436  2.373553863E-02
   437  1.713273450E-03
   438 -3.675223432E-04
   439  5.295464657E-03
   440 -7.928223324E-03
Ene=   -4.3639358861E-01
Spin= Alpha
Occup=   2.0000000
     1 -6.735752458E-04
     2 -1.050477909E-03
     3 -1.614167304E-02
     4  2.448903144E-02
     5  2.957923189E-02
     6  2.671248763E-03
     7 -2.357760560E-02
     8  3.571262791E-02
     9  4.354113400E-02
    10  8.345561576E-03
    11 -1.745308420E-02
    12  3.491724199E-02
    13  4.376691922E-02
    14 -5.076028369E-03
    15 -2.300918628E-03
    16  8.811222208E-04
    17 -3.919603362E-05
    18 -8.736465769E-04
    19 -1.239136349E-01
    20  2.069439921E-02
    21 -8.647620108E-02
    22  4.956292724E-02
    23  2.157202589E-03
    24  3.380705908E-03
    25 -3.193584471E-02
    26  6.774301075E-03
    27 -6.046592905E-02
    28 -8.756770733E-03
    29 -4.590669577E-02
    30  9.601421971E-03
    31 -8.805206407E-02
    32 -2.371749440E-02
    33 -4.266235860E-02
    34  2.759727835E-03
    35 -5.260580568E-02
    36 -3.177042531E-03
    37 -4.064873079E-03
    38 -3.341630363E-04
    39  4.386524739E-03
    40  1.625744316E-03
    41  2.950545647E-02
    42 -1.937222039E-02
    43 -3.971696121E-03
    44 -4.345565233E-02
    45 -1.829184226E-05
    46 -2.873391290E-05
    47 -4.736799156E-02
    48 -6.798378613E-02
    49 -2.939634296E-02
    50  8.052436477E-05
    51 -7.039683423E-02
    52 -1.010260162E-01
    53 -4.369841251E-02
    54  3.349042429E-05
    55 -4.337225582E-02
    56 -6.237285759E-02
    57 -2.693557978E-02
    58  1.868895627E-03
    59  8.561253755E-04
    60  3.687306741E-03
    61 -1.735549733E-03
    62 -5.080790062E-04
    63  7.561813842E-03
    64  2.204430320E-02
    65  2.959745551E-02
    66  1.212721090E-02
    67  2.147346249E-03
    68  3.365793518E-03
    69  3.187961121E-02
    70 -5.992346947E-02
    71 -1.026846084E-02
    72 -8.734326016E-03
    73  4.638131503E-02
    74 -8.684637024E-02
    75 -1.545893456E-02
    76 -2.337009727E-02
    77  2.152100021E-02
    78 -6.429737998E-02
    79 -2.264091778E-03
    80  1.114649237E-03
    81 -3.385808294E-03
    82 -4.183729764E-03
    83  4.634699522E-04
    84  4.264426295E-03
    85  2.278420269E-02
    86  1.699861443E-02
    87 -4.356131872E-02
    88 -1.287322339E-02
    89 -6.751813673E-04
    90 -1.052955761E-03
    91 -2.422534963E-03
    92  1.025749906E-02
    93  4.004903895E-02
    94  2.678729001E-03
    95 -3.783393072E-03
    96  1.518088024E-02
    97  5.863942145E-02
    98  8.389191938E-03
    99 -2.833710651E-03
   100  1.988414555E-02
   101  5.485533770E-02
   102  2.552180743E-03
   103  2.014087888E-03
   104 -2.924829780E-03
   105  1.020640155E-03
   106  3.510557126E-03
   107 -1.310958153E-01
   108 -8.132532275E-02
   109  3.226198008E-02
   110 -3.195740718E-02
   111 -3.028630224E-03
   112 -4.791980474E-03
   113  7.442263558E-03
   114  3.259795044E-02
   115  3.391921740E-02
   116  1.358010254E-02
   117  9.906678040E-03
   118  4.742610816E-02
   119  5.051275359E-02
   120  1.025149536E-02
   121  1.092985810E-02
   122  2.731189580E-02
   123  2.251750417E-02
   124 -4.658155050E-04
   125  2.308040799E-03
   126  2.960627977E-03
   127 -1.969388880E-03
   128  1.551136552E-03
   129 -3.883993428E-03
   130  5.980960326E-03
   131  1.920741978E-02
   132  1.417407374E-02
   133 -4.256965405E-03
   134 -6.672141112E-03
   135 -3.291550415E-03
   136  4.830175366E-02
   137  6.861393548E-02
   138  1.729727708E-02
   139 -5.653976509E-03
   140  6.975609560E-02
   141  1.002422980E-01
   142  4.672962295E-02
   143  7.944705139E-03
   144  4.256879153E-02
   145  4.667543315E-02
   146 -2.500952098E-03
   147  4.759659423E-03
   148  2.094838943E-03
   149 -2.575369764E-03
   150  2.135883651E-03
   151 -6.750686523E-02
   152 -1.554648411E-02
   153  2.092139519E-02
   154  4.755460172E-02
   155  1.292061480E-03
   156  2.014207718E-03
   157  6.140453357E-02
   158  2.677784024E-02
   159 -4.295915374E-02
   160 -5.101834136E-03
   161  8.984890122E-02
   162  3.886859197E-02
   163 -6.328038436E-02
   164 -1.641549204E-02
   165  8.334838300E-02
   166  3.571503769E-02
   167 -5.925947959E-02
   168  3.733009282E-03
   169  1.080725384E-03
   170  1.890212411E-03
   171 -1.349708497E-03
   172 -5.593503802E-03
   173  2.611194691E-01
   174 -8.036623736E-02
   175 -1.488569487E-01
   176 -1.009602104E-01
   177  1.522519426E-03
   178  2.409550885E-03
   179 -2.584712944E-02
   180  5.649096599E-03
   181 -3.418753022E-02
   182 -6.841920249E-03
   183 -3.685090799E-02
   184  8.272007954E-03
   185 -5.011923764E-02
   186 -4.963735236E-03
   187 -1.796307121E-02
   188  7.984672700E-03
   189 -2.151275221E-02
   190  4.177260125E-03
   191  2.306341450E-03
   192  1.999354583E-04
   193  3.021261630E-03
   194 -4.116174970E-03
   195  1.976880029E-02
   196  6.375579943E-02
   197  4.355135058E-02
   198  3.944247653E-02
   199  1.513292988E-03
   200  2.393986652E-03
   201  1.743657051E-02
   202 -3.956184109E-02
   203 -2.315950648E-04
   204 -6.776810645E-03
   205  2.581997565E-02
   206 -5.719031987E-02
   207 -9.471175497E-04
   208 -5.148918157E-03
   209  1.395262913E-02
   210 -2.536159335E-02
   211  3.395031613E-03
   212  1.046839870E-03
   213 -1.828386024E-03
   214 -5.327894496E-04
   215 -3.455149310E-03
   216 -5.688048655E-03
   217 -8.207904846E-03
   218  2.559291621E-02
   219  8.204169050E-02
   220  4.916412521E-03
   221  6.585972268E-04
   222  1.030661461E-03
   223 -1.720929058E-02
   224  2.123136945E-02
   225  4.708666359E-02
   226 -2.499653189E-03
   227 -2.452914126E-02
   228  2.991257452E-02
   229  6.722092008E-02
   230 -7.361933058E-03
   231 -1.317423402E-02
   232  1.881234483E-02
   233  4.105648849E-02
   234 -3.219064940E-03
   235  1.880526672E-03
   236  1.291646508E-03
   237 -1.541319710E-03
   238  3.945422919E-04
   239  7.336985071E-02
   240 -8.281361177E-03
   241  1.379427385E-02
   242  7.440418622E-03
   243 -1.317088777E-03
   244 -2.061615834E-03
   245  6.851806616E-02
   246  1.071063587E-02
   247 -7.345866942E-02
   248  5.016173993E-03
   249  9.788137592E-02
   250  1.544819895E-02
   251 -1.047333865E-01
   252  1.455237033E-02
   253  5.995475572E-02
   254  1.157309227E-02
   255 -6.143706755E-02
   256  1.748642497E-03
   257 -6.741308946E-03
   258  4.708677591E-04
   259  2.600856713E-03
   260  3.375175140E-03
   261 -1.607797152E-01
   262  8.324909681E-03
   263 -1.030348475E-02
   264 -2.395326092E-02
   265  6.642690822E-04
   266  1.039368953E-03
   267 -1.560829827E-02
   268  1.941390696E-02
   269  4.873475054E-02
   270 -2.523803431E-03
   271 -2.257587517E-02
   272  2.767338645E-02
   273  6.932035467E-02
   274 -7.360892716E-03
   275 -1.289126065E-02
   276  1.834298719E-02
   277  4.154461749E-02
   278 -3.237597183E-04
   279  3.608270653E-03
   280 -8.044417584E-05
   281 -9.665379803E-04
   282  2.054462696E-03
   283  8.090243732E-02
   284  3.808587304E-03
   285 -2.222672602E-04
   286  1.801285639E-02
   287  3.638623172E-02
   288  4.700027498E-02
   289  6.717570513E-03
   290  3.492663922E-03
   291 -6.100763521E-04
   292 -1.784172952E-03
   293 -1.666640450E-02
   294 -3.429873073E-02
   295 -4.258039388E-02
   296 -1.417474981E-02
   297 -3.444597020E-05
   298  4.557511302E-03
   299 -1.062370184E-03
   300  1.620218842E-02
   301  9.229858309E-05
   302  1.576162656E-04
   303 -1.270884124E-04
   304 -2.769062469E-03
   305 -3.989335305E-03
   306 -1.737935067E-03
   307 -6.611766333E-05
   308 -3.438982409E-02
   309 -4.272931442E-02
   310 -1.371247690E-02
   311  4.115232363E-03
   312  2.419550000E-04
   313  2.204336507E-03
   314  1.649714556E-02
   315  3.644610801E-02
   316  4.705785407E-02
   317  7.082262057E-03
   318  1.445551798E-03
   319  1.497441766E-03
   320 -3.375288655E-03
   321 -1.804517905E-02
   322 -1.832570054E-02
   323 -2.544838139E-02
   324 -1.467107674E-02
   325  1.422486444E-03
   326  1.593027621E-03
   327  3.090827185E-04
   328  7.440683440E-04
   329  4.119542284E-02
   330  5.593627337E-02
   331  1.524441398E-02
   332 -1.187046843E-03
   333 -2.529764506E-03
   334 -1.837958922E-03
   335 -9.786259431E-03
   336 -2.215761859E-03
   337 -4.557044340E-03
   338  7.036096961E-03
   339 -8.324158889E-04
   340  3.227405028E-03
   341  4.251093092E-03
   342  1.178580402E-03
   343 -2.042287352E-03
   344 -4.356296979E-03
   345  7.236730777E-03
   346 -1.858619038E-04
   347  2.579263368E-03
   348  4.746793251E-03
   349  1.402443218E-03
   350  9.128183177E-03
   351  1.270002933E-02
   352  7.061768956E-03
   353 -2.969207233E-03
   354 -1.711634176E-04
   355 -1.816029401E-03
   356 -7.404463274E-05
   357 -2.063706346E-02
   358 -2.799390240E-02
   359 -7.958204251E-03
   360 -1.053222766E-03
   361 -2.023281396E-03
   362 -4.228473290E-05
   363  5.129547374E-03
   364 -2.050770306E-02
   365 -2.783679499E-02
   366 -7.436263673E-03
   367 -1.796016518E-03
   368 -1.247527770E-03
   369 -6.316439408E-04
   370  4.957366846E-03
   371  9.104975445E-03
   372  1.261564237E-02
   373  7.523790979E-03
   374  1.517028453E-04
   375 -3.428783362E-03
   376  6.299486865E-04
   377 -8.510904491E-04
   378  3.023708625E-02
   379  4.085332706E-02
   380  1.751038208E-02
   381 -2.737311569E-03
   382 -2.181556755E-03
   383 -2.786341582E-04
   384 -8.219861886E-03
   385 -4.118291715E-02
   386 -5.567006081E-02
   387 -1.722930965E-02
   388  3.072187693E-03
   389  8.415573874E-04
   390 -2.322495013E-03
   391 -2.756100574E-04
   392  3.131817091E-03
   393  4.807285230E-03
   394  5.794787650E-03
   395 -1.275819291E-03
   396  1.774080127E-03
   397  2.890126049E-03
   398  2.261526076E-03
   399  8.251839772E-02
   400  1.115442944E-01
   401  3.466545701E-02
   402 -3.181904643E-03
   403  1.884671338E-03
   404  6.554226046E-03
   405  5.012452624E-04
   406 -3.344066712E-02
   407 -4.576185539E-02
   408 -2.348759325E-02
   409 -9.175481760E-04
   410  1.254738839E-03
   411 -6.207060621E-03
   412  5.893018452E-03
   413 -3.355447417E-02
   414 -4.589784404E-02
   415 -2.348528248E-02
   416  4.335042057E-03
   417 -4.218900886E-03
   418 -2.085046957E-03
   419  6.074501104E-03
   420 -4.143420618E-02
   421 -5.603544303E-02
   422 -1.735802369E-02
   423  2.804422595E-03
   424  1.141321010E-03
   425 -2.564317706E-03
   426 -1.829131517E-04
   427  3.034781132E-02
   428  4.098549542E-02
   429  1.777538308E-02
   430 -2.242902314E-03
   431 -2.720713901E-03
   432  1.249738329E-04
   433 -7.856826816E-03
   434  3.217572625E-03
   435  4.936310948E-03
   436  5.746041338E-03
   437 -6.372612639E-04
   438  1.112988981E-03
   439  3.407825857E-03
   440  1.582644937E-03
Ene=   -4.3197770025E-01
Spin= Alpha
Occup=   2.0000000
     1 -2.812373482E-02
     2 -4.431032514E-02
     3 -6.156921639E-03
     4  5.216753395E-02
     5 -2.569595305E-02
     6  1.247043247E-01
     7 -8.543139399E-03
     8  7.500235586E-02
     9 -3.740343646E-02
    10  1.323144941E-01
    11 -1.294643901E-02
    12  5.383240227E-02
    13 -1.683729927E-02
    14 -2.663998711E-03
    15  3.665569224E-03
    16 -3.761160523E-03
    17 -4.223223195E-03
    18 -1.529086919E-04
    19 -2.813278142E-01
    20 -1.708494006E-02
    21 -2.447956655E-02
    22  3.870079253E-02
    23  1.658592044E-02
    24  2.608389535E-02
    25  9.587402771E-04
    26  9.515945785E-03
    27 -7.641585001E-03
    28 -7.276332427E-02
    29  6.499077658E-04
    30  1.438145912E-02
    31 -1.038266660E-02
    32 -5.096422549E-02
    33  1.007186130E-03
    34 -5.175086752E-03
    35  2.039332622E-03
    36  7.912948832E-03
    37 -6.319418145E-03
    38 -7.135305445E-03
    39  1.568857760E-03
    40  5.497153619E-03
    41  8.998852219E-02
    42  1.552046137E-02
    43 -1.243205756E-02
    44 -1.460646775E-02
    45 -1.885350245E-02
    46 -2.973996138E-02
    47 -6.603245773E-02
    48  6.031016287E-03
    49  9.231406354E-02
    50  8.383627010E-02
    51 -9.289394257E-02
    52  8.497661727E-03
    53  1.298785503E-01
    54  6.559956850E-02
    55 -7.448390635E-02
    56  6.663917863E-03
    57  1.040971404E-01
    58  6.861879875E-03
    59 -1.146391524E-02
    60  1.034910651E-03
    61  4.069330827E-03
    62 -7.377851072E-04
    63 -2.428402605E-01
    64 -7.585540845E-02
    65  2.739355621E-03
    66  1.035065852E-01
    67  1.658564420E-02
    68  2.608269181E-02
    69  1.208143675E-02
    70 -1.975358451E-03
    71  1.034598273E-03
    72 -7.273863796E-02
    73  1.737850163E-02
    74 -2.907150037E-03
    75  2.662013800E-03
    76 -5.130460035E-02
    77 -4.868738411E-03
    78  1.086835772E-03
    79 -2.455301932E-03
    80 -4.415037998E-03
    81 -1.043923985E-02
    82  1.743256807E-03
    83  7.157466610E-03
    84 -1.840859679E-03
    85  7.628439818E-02
    86  5.233395966E-03
    87  1.061633742E-03
    88 -2.129873691E-02
    89 -2.812327386E-02
    90 -4.430960910E-02
    91  5.363814254E-02
    92 -9.971788293E-03
    93  2.112855700E-02
    94  1.246988759E-01
    95  7.747322482E-02
    96 -1.438221749E-02
    97  2.994976043E-02
    98  1.322817892E-01
    99  4.784491679E-02
   100 -9.535318987E-03
   101  3.094050997E-02
   102 -3.816479802E-03
   103  5.597928846E-03
   104 -6.962834364E-04
   105  2.228079379E-03
   106 -1.073650053E-03
   107 -2.782410940E-01
   108 -5.583630543E-02
   109  6.971704615E-03
   110  1.503258917E-02
   111  8.522737087E-03
   112  1.334566757E-02
   113 -1.169102163E-02
   114  3.857430189E-03
   115  2.002757800E-02
   116 -3.588855013E-02
   117 -1.632997776E-02
   118  5.671050394E-03
   119  2.835424573E-02
   120 -2.223188541E-02
   121 -1.580716544E-02
   122 -7.910221760E-04
   123  1.908510835E-02
   124 -2.137175574E-03
   125  7.077879736E-03
   126 -4.335739362E-03
   127 -1.391147753E-03
   128 -6.689705375E-03
   129  1.564737595E-01
   130 -1.218572838E-02
   131 -8.701684946E-03
   132  6.588366599E-03
   133  1.658773548E-02
   134  2.608566733E-02
   135 -2.055199923E-03
   136 -8.497257011E-03
   137 -8.731107033E-03
   138 -7.274247814E-02
   139 -3.884672716E-03
   140 -1.271691300E-02
   141 -1.202823570E-02
   142 -5.138545784E-02
   143  2.348994112E-03
   144  4.299570166E-03
   145  2.501231166E-03
   146  9.238215452E-03
   147 -4.516782348E-03
   148  7.318427263E-03
   149 -1.178872290E-03
   150 -5.037325243E-03
   151  5.601253502E-02
   152  1.340362576E-02
   153  1.938304912E-03
   154 -1.398739700E-02
   155 -2.812308330E-02
   156 -4.430910165E-02
   157 -2.216957444E-02
   158 -4.451345705E-02
   159 -3.079465808E-02
   160  1.246917797E-01
   161 -3.157515528E-02
   162 -6.406441283E-02
   163 -4.473750114E-02
   164  1.323367926E-01
   165 -2.933954120E-02
   166 -4.470764497E-02
   167 -2.181844649E-02
   168 -2.026522554E-03
   169  4.937380251E-03
   170  3.174190029E-03
   171 -3.045873716E-03
   172  2.142931932E-03
   173 -2.798611578E-01
   174 -1.018187296E-02
   175  3.283165182E-02
   176  5.288791113E-02
   177  8.512038161E-03
   178  1.332788566E-02
   179 -1.261362532E-02
   180 -2.007736379E-03
   181  1.974638745E-02
   182 -3.581998761E-02
   183 -1.771522218E-02
   184 -3.109529203E-03
   185  2.793838134E-02
   186 -2.250383935E-02
   187 -1.493444608E-02
   188  3.708683057E-03
   189  1.925633650E-02
   190 -1.544595880E-03
   191  8.788389585E-03
   192  1.950755964E-03
   193  3.009839523E-03
   194  5.251441029E-03
   195  1.621000052E-01
   196 -1.324294824E-02
   197  1.175036325E-02
   198  4.458827639E-03
   199  8.512728861E-03
   200  1.332993519E-02
   201 -1.625983151E-02
   202  1.799140488E-03
   203  1.690755787E-02
   204 -3.584859668E-02
   205 -2.317934032E-02
   206  2.590946018E-03
   207  2.368230336E-02
   208 -2.214598345E-02
   209 -1.217793195E-02
   210  8.511548509E-04
   211  2.157162222E-02
   212 -6.888296800E-03
   213  1.793392604E-03
   214  7.868201911E-04
   215 -7.880173018E-03
   216  2.585340658E-03
   217  1.568313730E-01
   218  3.202324344E-03
   219 -4.675821877E-03
   220  1.620868515E-02
   221  2.227012790E-03
   222  3.425810982E-03
   223 -8.054440790E-02
   224  1.356949264E-02
   225 -5.741899446E-03
   226 -7.169487368E-03
   227 -1.168033555E-01
   228  1.972302503E-02
   229 -9.117138816E-03
   230 -1.756836043E-02
   231 -7.041351446E-02
   232  1.186451159E-02
   233 -4.624211457E-03
   234 -5.190410229E-03
   235  5.808340143E-03
   236 -8.730999943E-04
   237  6.932008108E-03
   238 -2.676558234E-03
   239  1.064054944E-01
   240 -1.871758891E-02
   241  3.098089716E-03
   242 -9.566736617E-03
   243  2.233161220E-03
   244  3.435686849E-03
   245  1.267149230E-02
   246  5.608337633E-02
   247  5.829478976E-02
   248 -7.204110955E-03
   249  1.900771999E-02
   250  8.165623981E-02
   251  8.416788705E-02
   252 -1.750478177E-02
   253  1.071976206E-02
   254  4.892679134E-02
   255  5.120455334E-02
   256 -5.112733948E-04
   257  4.867803340E-03
   258  7.565534742E-03
   259 -4.614024059E-03
   260  3.762871270E-03
   261  1.045511288E-01
   262  9.096811508E-03
   263  1.552714355E-02
   264  9.137020014E-03
   265  2.227400119E-03
   266  3.426762002E-03
   267 -6.840885517E-03
   268 -6.296236606E-02
   269  5.184605293E-02
   270 -7.171950202E-03
   271 -9.432247631E-03
   272 -9.177464362E-02
   273  7.478638729E-02
   274 -1.763178370E-02
   275 -6.207554702E-03
   276 -5.478542958E-02
   277  4.548198300E-02
   278 -1.937214132E-03
   279  2.076076694E-03
   280 -7.842797358E-03
   281 -6.851548459E-03
   282 -2.674420015E-04
   283  9.771485320E-02
   284  3.309933071E-03
   285 -1.806236701E-02
   286  7.100798235E-03
   287 -1.671663951E-02
   288 -2.347556996E-02
   289  1.046221378E-03
   290 -1.640051560E-03
   291  9.570626999E-04
   292 -6.895636243E-04
   293  3.574314791E-03
   294 -1.665694239E-02
   295 -2.341994354E-02
   296  1.256284090E-03
   297  3.593337954E-04
   298  1.864198676E-03
   299  6.785850912E-04
   300  4.396180793E-03
   301  1.138573245E-01
   302  1.530001407E-01
   303  5.149903633E-02
   304  6.362685597E-03
   305 -5.679155475E-04
   306 -8.889847337E-03
   307 -3.975087727E-02
   308 -1.662763425E-02
   309 -2.339999884E-02
   310  1.329529665E-03
   311  1.139908582E-03
   312  1.052935586E-03
   313  1.283961358E-03
   314  3.135099310E-03
   315 -1.672132553E-02
   316 -2.348875303E-02
   317  1.283600663E-03
   318  7.213832162E-04
   319 -1.491477777E-03
   320  1.156413355E-03
   321  3.658540952E-03
   322 -3.223527209E-02
   323 -4.549496002E-02
   324 -9.969850066E-03
   325  1.829727203E-03
   326  5.406929908E-04
   327 -1.623833148E-03
   328  4.150107093E-03
   329 -2.549695962E-03
   330 -3.800325287E-03
   331  3.649138203E-03
   332 -7.051310737E-04
   333 -8.545362250E-05
   334  7.862469694E-04
   335 -1.165399882E-02
   336 -1.664705362E-02
   337 -2.346872460E-02
   338  1.829928657E-03
   339 -1.841448818E-03
   340 -3.083198719E-04
   341 -7.655932780E-04
   342  3.153048390E-03
   343 -1.669480363E-02
   344 -2.349815573E-02
   345  1.765409633E-03
   346 -2.698151732E-04
   347 -1.946875683E-03
   348  4.685915044E-04
   349  2.997437340E-03
   350 -3.222628841E-02
   351 -4.548888628E-02
   352 -1.044783689E-02
   353  1.590210809E-03
   354 -9.277207582E-04
   355 -1.697755458E-03
   356  4.171248947E-03
   357 -2.495358183E-03
   358 -3.703324493E-03
   359  3.142735348E-03
   360 -6.515099155E-04
   361  2.284872643E-04
   362  7.982950355E-04
   363 -1.031344058E-02
   364 -2.517009522E-03
   365 -3.761764090E-03
   366  3.481586182E-03
   367 -4.597780636E-04
   368  2.517319604E-05
   369  9.535341645E-04
   370 -1.049943012E-02
   371 -3.223719688E-02
   372 -4.548905168E-02
   373 -1.022124689E-02
   374  6.832110532E-04
   375  1.882536681E-05
   376 -2.410433941E-03
   377  3.843006522E-03
   378 -2.013036318E-02
   379 -2.849060522E-02
   380 -5.104540425E-03
   381 -3.531723527E-03
   382  2.880672762E-03
   383  1.393807733E-03
   384 -1.431006275E-03
   385 -4.092516752E-02
   386 -5.742186855E-02
   387 -1.456830203E-02
   388 -5.894928158E-04
   389  3.508743243E-04
   390 -4.791464321E-03
   391 -6.057176927E-03
   392 -2.011024138E-02
   393 -2.842870366E-02
   394 -5.287056719E-03
   395 -4.289924502E-03
   396 -1.723585981E-03
   397  1.144694292E-03
   398 -2.173058765E-03
   399 -4.099299040E-02
   400 -5.753792245E-02
   401 -1.418243936E-02
   402  3.841761320E-03
   403  2.367480986E-03
   404 -1.759659017E-03
   405 -5.997618890E-03
   406 -2.009311077E-02
   407 -2.843722743E-02
   408 -5.060542859E-03
   409 -2.026335168E-03
   410  3.564088482E-03
   411  2.428869066E-03
   412 -2.224245472E-03
   413 -2.005958609E-02
   414 -2.839882144E-02
   415 -4.899040362E-03
   416  8.188301079E-04
   417  6.130711640E-04
   418  4.652907910E-03
   419 -2.159004128E-03
   420 -4.087997567E-02
   421 -5.735329367E-02
   422 -1.469157527E-02
   423  2.906410809E-03
   424 -3.278853994E-03
   425 -2.051885581E-03
   426 -6.011446527E-03
   427 -2.011414296E-02
   428 -2.843874547E-02
   429 -5.257463261E-03
   430  5.066249886E-04
   431 -1.319235153E-03
   432  4.549027676E-03
   433 -1.794950222E-03
   434 -2.015220018E-02
   435 -2.847623368E-02
   436 -5.405127223E-03
   437 -3.101372777E-03
   438 -2.960559471E-03
   439  2.072125144E-03
   440 -1.862977384E-03
Ene=   -3.9592915492E-01
Spin= Alpha
Occup=   2.0000000
     1  6.541846886E-03
     2  1.034034744E-02
     3  9.461533036E-03
     4 -4.977295023E-02
     5  1.928323576E-02
     6 -2.961777819E-02
     7  1.466435424E-02
     8 -7.237552083E-02
     9  2.672665633E-02
    10 -3.899368689E-02
    11 -1.752627618E-03
    12 -6.097965395E-02
    13  4.296222582E-02
    14 -7.868309397E-03
    15  7.569209520E-03
    16  8.173497622E-03
    17 -3.171585181E-04
    18 -4.491937521E-03
    19  1.412802127E-01
    20  3.864520606E-02
    21 -6.333726125E-02
    22 -8.918838432E-03
    23  7.489482916E-03
    24  1.186132431E-02
    25 -1.438419110E-02
    26  2.600100635E-02
    27  3.675548533E-03
    28 -3.423394651E-02
    29 -2.092061981E-02
    30  3.590712579E-02
    31  6.612325369E-03
    32 -3.236440717E-02
    33 -1.600149602E-02
    34  2.016191232E-02
    35  1.003375427E-02
    36  2.059645863E-03
    37 -1.579884938E-03
    38  2.463470160E-03
    39  3.441665986E-03
    40  1.196039915E-03
    41  9.225887564E-02
    42  1.287216494E-02
    43 -1.633911427E-02
    44 -7.887095639E-03
    45  5.626617021E-03
    46  8.756439166E-03
    47 -4.793387075E-02
    48  4.337734561E-03
    49  6.702163157E-02
    50 -2.305135815E-02
    51 -6.886822289E-02
    52  6.226643291E-03
    53  9.631651190E-02
    54 -2.016344426E-02
    55 -7.222330955E-02
    56  6.583508730E-03
    57  1.007069647E-01
    58  4.162354517E-03
    59 -6.957591153E-03
    60  6.227421648E-04
    61  2.470936140E-03
    62 -4.474976063E-04
    63 -3.512997031E-01
    64 -9.549680349E-02
    65  9.713768883E-03
    66  1.305753415E-01
    67  7.488208486E-03
    68  1.185971397E-02
    69  1.422098199E-02
    70 -3.729186427E-03
    71  2.605725796E-02
    72 -3.423862841E-02
    73  1.845441418E-02
    74 -5.034110514E-03
    75  3.743224815E-02
    76 -3.218603961E-02
    77  5.603764726E-03
    78 -2.340004468E-03
    79  2.684350752E-02
    80  1.354199148E-03
    81 -4.188188463E-03
    82  6.943050515E-04
    83 -2.283988912E-03
    84  1.008643834E-03
    85  1.203212552E-01
    86 -6.652625628E-03
    87  2.975632999E-03
    88 -2.847204288E-02
    89  6.545077077E-03
    90  1.034537621E-02
    91 -4.723385525E-02
    92  9.131292963E-03
    93 -2.506945871E-02
    94 -2.962911037E-02
    95 -6.769053045E-02
    96  1.318657268E-02
    97 -3.769618598E-02
    98 -3.903883121E-02
    99 -7.246034767E-02
   100  1.255873760E-02
   101 -1.253218677E-02
   102  3.676466089E-03
   103  1.002502891E-02
   104 -1.492665290E-03
   105 -9.159453513E-03
   106  2.528338405E-03
   107  1.432779111E-01
   108 -2.934808555E-02
   109  8.425468885E-03
   110 -7.192194390E-02
   111 -1.169085548E-02
   112 -1.844636306E-02
   113 -2.730930244E-02
   114 -1.562532587E-02
   115  1.416372303E-02
   116  5.162283084E-02
   117 -3.915825161E-02
   118 -2.311009040E-02
   119  1.937148937E-02
   120  5.407366109E-02
   121 -2.425579143E-02
   122 -1.580458000E-02
   123  9.997846020E-03
   124 -2.470769790E-03
   125  1.012101820E-03
   126  3.013499166E-03
   127 -1.291786524E-03
   128  6.248338253E-03
   129 -1.422285199E-01
   130  1.329220801E-02
   131  3.016862668E-02
   132  2.068937350E-02
   133  7.491695151E-03
   134  1.186544479E-02
   135 -2.205573672E-02
   136 -2.029164242E-02
   137  1.220830611E-03
   138 -3.426188580E-02
   139 -3.148424715E-02
   140 -2.783902070E-02
   141  3.243017592E-03
   142 -3.216514941E-02
   143 -2.176186040E-02
   144 -1.495190166E-02
   145  8.074990224E-03
   146  1.606518192E-03
   147 -2.609230295E-03
   148 -2.407115754E-03
   149  1.822478168E-03
   150 -2.753143491E-03
   151  1.083692583E-01
   152  2.014681666E-02
   153  1.454122322E-02
   154 -7.861601769E-03
   155  6.539100480E-03
   156  1.033575855E-02
   157  2.454091490E-02
   158  4.178177183E-02
   159  2.410437397E-02
   160 -2.959103314E-02
   161  3.656719532E-02
   162  6.060953139E-02
   163  3.372956242E-02
   164 -3.912038504E-02
   165  1.711694895E-02
   166  5.338352651E-02
   167  4.893273606E-02
   168 -9.434504824E-03
   169  5.205698324E-03
   170 -8.745065484E-03
   171  1.396811114E-03
   172  3.416665869E-03
   173  1.319549159E-01
   174  5.908281232E-02
   175  4.569378410E-02
   176 -6.600602714E-03
   177 -1.166937917E-02
   178 -1.841202817E-02
   179 -2.108645878E-02
   180  2.195530219E-02
   181  1.615461031E-02
   182  5.151633323E-02
   183 -2.999034754E-02
   184  3.224522353E-02
   185  2.230181597E-02
   186  5.410453459E-02
   187 -1.815707891E-02
   188  2.158138302E-02
   189  1.194689034E-02
   190 -2.966591980E-03
   191 -4.371374800E-04
   192 -2.242627592E-03
   193 -5.102034748E-03
   194 -4.102351089E-03
   195 -1.465651246E-01
   196  3.494142171E-03
   197 -3.588869071E-02
   198  1.809100152E-02
   199 -1.165049374E-02
   200 -1.838224539E-02
   201  2.140191391E-03
   202 -2.180166785E-03
   203  3.432754431E-02
   204  5.143782945E-02
   205  4.214636324E-03
   206 -3.305880923E-03
   207  4.907810935E-02
   208  5.377412145E-02
   209  5.124307065E-03
   210 -2.509292710E-03
   211  3.002405182E-02
   212  1.735354262E-03
   213  5.609003887E-03
   214 -1.326019603E-03
   215  4.187197065E-03
   216 -1.738975759E-03
   217 -1.151518185E-01
   218 -3.369697437E-02
   219  5.821774413E-03
   220 -7.736840147E-03
   221  6.786884981E-04
   222  1.133719235E-03
   223  2.852075633E-02
   224 -9.911417993E-03
   225  9.558658318E-02
   226 -5.786257265E-03
   227  4.191599679E-02
   228 -1.429798241E-02
   229  1.355754131E-01
   230  2.399134031E-02
   231  1.601469390E-02
   232 -7.816698255E-03
   233  9.463475555E-02
   234 -1.160670390E-03
   235  4.704942855E-03
   236 -1.060445297E-04
   237 -1.030590946E-02
   238  3.229509413E-03
   239  1.496557038E-02
   240 -2.965826530E-03
   241  1.978869444E-04
   242  7.340660435E-03
   243  6.733698159E-04
   244  1.125529469E-03
   245 -7.823480654E-02
   246 -5.833502145E-02
   247  2.232056979E-02
   248 -5.765520126E-03
   249 -1.111114298E-01
   250 -8.370992806E-02
   251  3.053979120E-02
   252  2.405375773E-02
   253 -7.619657381E-02
   254 -4.965588430E-02
   255  3.143564491E-02
   256 -5.665251707E-03
   257  5.606007997E-03
   258 -8.189344063E-03
   259  7.858845975E-04
   260 -2.935598135E-03
   261  1.581520798E-02
   262 -5.511270348E-03
   263 -7.823364809E-04
   264  5.424796578E-03
   265  6.772192355E-04
   266  1.131187979E-03
   267 -5.593081358E-02
   268  7.771420009E-02
   269  2.950590508E-02
   270 -5.778124029E-03
   271 -7.913345608E-02
   272  1.113029443E-01
   273  4.083987390E-02
   274  2.400078253E-02
   275 -5.698394555E-02
   276  6.796467719E-02
   277  3.763594367E-02
   278 -4.294659061E-03
   279  8.278339917E-03
   280  6.606141162E-03
   281  2.937497225E-03
   282  8.985283156E-04
   283  1.678648146E-02
   284 -5.028231100E-03
   285  1.693957758E-03
   286  5.424703340E-03
   287  8.625719216E-03
   288  1.446516291E-02
   289  1.519150153E-02
   290  5.424560847E-04
   291  1.259868878E-03
   292  3.824056348E-04
   293  9.454618451E-03
   294  8.610637645E-03
   295  1.443097185E-02
   296  1.506197594E-02
   297 -1.101981996E-03
   298  5.107780239E-04
   299 -7.440207355E-04
   300  9.285220168E-03
   301  6.699460943E-02
   302  8.216968337E-02
   303  2.311551766E-02
   304  2.141038294E-03
   305 -1.930521897E-04
   306 -2.988180372E-03
   307 -6.101416605E-02
   308  8.602633108E-03
   309  1.447663252E-02
   310  1.435475055E-02
   311  5.406831634E-04
   312 -1.198722227E-03
   313  5.440595877E-04
   314  1.041375237E-02
   315  8.607924944E-03
   316  1.447463708E-02
   317  1.448869363E-02
   318  8.886900430E-04
   319  8.982362084E-04
   320  6.549940585E-04
   321  1.082633629E-02
   322 -1.425071888E-02
   323 -2.427876241E-02
   324 -2.091977289E-02
   325 -4.568994051E-04
   326 -7.282309430E-04
   327 -3.814039307E-04
   328  1.384346659E-02
   329  5.540827441E-03
   330  9.537731123E-03
   331  3.623854776E-03
   332 -1.621704742E-03
   333 -5.644592740E-04
   334  1.324463893E-03
   335 -2.580672224E-02
   336  8.644009574E-03
   337  1.452403853E-02
   338  1.480677398E-02
   339  1.050052482E-04
   340 -1.400746706E-03
   341  2.448641576E-04
   342  9.509184881E-03
   343  8.635782185E-03
   344  1.447369790E-02
   345  1.483215348E-02
   346 -1.197413961E-03
   347 -5.079936391E-05
   348 -7.740036625E-04
   349  1.014664204E-02
   350 -1.424857137E-02
   351 -2.429545802E-02
   352 -2.059327653E-02
   353 -1.921545546E-04
   354  8.693081342E-04
   355 -2.962838730E-04
   356  1.411500854E-02
   357  5.543244516E-03
   358  9.546528125E-03
   359  3.828536554E-03
   360 -1.375810395E-03
   361  9.129487247E-04
   362  1.403522414E-03
   363 -2.672964752E-02
   364  5.510244396E-03
   365  9.540943738E-03
   366  3.155041845E-03
   367 -4.701909726E-04
   368 -3.367790028E-05
   369  2.113977778E-03
   370 -2.475941718E-02
   371 -1.426432097E-02
   372 -2.426375302E-02
   373 -2.162670593E-02
   374  7.949695261E-04
   375 -1.558889056E-04
   376  4.729638623E-04
   377  1.397816807E-02
   378  5.145038324E-02
   379  7.048739474E-02
   380  3.136498053E-02
   381 -1.046197638E-03
   382 -5.981984816E-03
   383  1.440465014E-03
   384  7.375135085E-03
   385 -5.316362662E-02
   386 -7.478694522E-02
   387 -3.569748897E-02
   388  6.782344279E-03
   389 -1.116242861E-03
   390 -1.651710015E-04
   391 -6.921231686E-03
   392  5.162124682E-02
   393  7.071106410E-02
   394  3.148854194E-02
   395  8.951073372E-04
   396  5.825820194E-03
   397  2.056171863E-03
   398  7.553144393E-03
   399 -5.314128053E-02
   400 -7.475104258E-02
   401 -3.548052998E-02
   402 -5.607271071E-04
   403 -4.448556442E-03
   404 -5.200600325E-03
   405 -6.837035713E-03
   406  5.152429857E-02
   407  7.058695862E-02
   408  3.158001345E-02
   409  2.281377907E-03
   410 -4.454379014E-03
   411  3.716964348E-03
   412  7.383278393E-03
   413  5.140876571E-02
   414  7.040885208E-02
   415  3.132706082E-02
   416 -5.018226191E-03
   417  3.114688483E-03
   418 -1.988759332E-03
   419  7.332298724E-03
   420 -5.314381134E-02
   421 -7.476683284E-02
   422 -3.539482707E-02
   423  9.750926218E-04
   424  4.911986588E-03
   425 -4.705420955E-03
   426 -6.714278014E-03
   427  5.138542620E-02
   428  7.036297945E-02
   429  3.135616677E-02
   430 -5.720415804E-03
   431 -1.115133250E-03
   432 -2.217688429E-03
   433  7.480593299E-03
   434  5.163475566E-02
   435  7.072910312E-02
   436  3.157385230E-02
   437  3.531023670E-03
   438  3.080366701E-03
   439  4.119343620E-03
   440  7.315122048E-03
Ene=   -3.9202270613E-01
Spin= Alpha
Occup=   2.0000000
     1 -3.168736599E-03
     2 -5.018726935E-03
     3  1.799766626E-03
     4  2.655344837E-02
     5 -2.713762470E-02
     6  1.466697621E-02
     7  3.387977343E-03
     8  3.847543783E-02
     9 -3.783775600E-02
    10  2.705115837E-02
    11 -8.626138679E-03
    12  3.638320085E-02
    13 -5.458619880E-02
    14  3.749996854E-03
    15  2.615493423E-03
    16 -6.543653109E-03
    17  3.246534673E-03
    18 -6.145154105E-03
    19 -9.918083875E-02
    20 -1.013967262E-01
    21 -5.539933315E-02
    22 -1.315198854E-01
    23  1.509008795E-05
    24  1.051779059E-05
    25 -1.092197834E-02
    26  2.554640302E-02
    27  9.258124842E-03
    28 -4.611414619E-04
    29 -1.491543722E-02
    30  3.686769408E-02
    31  1.304351518E-02
    32  1.317452580E-02
    33 -4.508293039E-03
    34  2.616281642E-02
    35  9.404958351E-03
    36  1.577099049E-04
    37  2.861935826E-03
    38 -1.376826747E-04
    39  1.634798670E-03
    40 -3.251536235E-04
    41  1.969668745E-01
    42  6.450312447E-02
    43 -1.151119568E-02
    44 -3.723343747E-02
    45  5.871519120E-07
    46  1.306294452E-06
    47  1.576005822E-02
    48 -1.028806805E-02
    49  1.191651862E-02
    50 -1.260013974E-05
    51  2.284403339E-02
    52 -1.491951782E-02
    53  1.727394674E-02
    54  4.133295030E-05
    55  1.497573401E-02
    56 -9.508932913E-03
    57  1.109013411E-02
    58 -3.447507680E-03
    59 -1.065464633E-03
    60  1.642668048E-03
    61  2.090607775E-03
    62 -1.446672881E-03
    63  3.077163364E-02
    64 -1.478102184E-02
    65  8.527835147E-03
    66 -1.737327222E-02
    67 -2.846407873E-05
    68 -2.898714391E-05
    69 -1.397570847E-02
    70  1.540460286E-03
    71 -3.395700273E-02
    72  6.651315895E-04
    73 -2.064450465E-02
    74  2.030897068E-03
    75 -4.812313879E-02
    76 -1.729651660E-02
    77 -1.546626851E-02
    78 -1.151113872E-03
    79 -2.955880319E-02
    80  1.836979238E-03
    81 -6.784349466E-04
    82  2.762035567E-04
    83  2.778537580E-03
    84  2.019157168E-05
    85 -2.598064616E-01
    86 -2.780674139E-02
    87 -1.141334781E-02
    88  8.499926743E-02
    89  4.013940118E-03
    90  6.357024619E-03
    91 -4.717634770E-02
    92  9.529396927E-03
    93 -3.817440928E-04
    94 -1.856234703E-02
    95 -6.733419028E-02
    96  1.298682319E-02
    97 -9.454676097E-04
    98 -3.463953703E-02
    99 -7.610519235E-02
   100  2.339319260E-02
   101  2.718458883E-03
   102  1.802945591E-03
   103  8.367777176E-04
   104  2.258315291E-03
   105 -2.393876745E-03
   106  5.111173644E-03
   107  1.220651849E-01
   108 -2.454538532E-02
   109  6.939486191E-02
   110  4.765500949E-02
   111 -3.244461370E-03
   112 -5.125628472E-03
   113 -9.561976250E-04
   114 -6.901311016E-04
   115  6.942649730E-04
   116  1.417970398E-02
   117 -1.971742127E-03
   118 -4.908395234E-05
   119  4.607157288E-04
   120  2.103346310E-02
   121 -2.846342612E-03
   122  9.844278872E-05
   123  4.538422189E-04
   124  1.938337033E-03
   125 -5.587460563E-04
   126 -7.702492647E-04
   127 -1.104887806E-03
   128  1.687808756E-03
   129  1.824988063E-01
   130 -1.116676237E-01
   131  6.747504699E-02
   132 -5.438618988E-02
   133 -6.637501093E-07
   134 -5.321303127E-06
   135 -1.113698166E-03
   136 -1.005489107E-02
   137  4.967090186E-03
   138 -9.115455660E-05
   139 -1.040485042E-03
   140 -1.494620911E-02
   141  7.350881245E-03
   142  3.551475345E-03
   143  4.448739800E-03
   144 -1.482307546E-02
   145  8.080209238E-03
   146  9.380762830E-04
   147  1.958297779E-03
   148 -4.258236783E-05
   149  2.304354706E-03
   150  1.780752201E-04
   151  4.520039239E-02
   152  3.579246692E-02
   153 -2.244514349E-02
   154  1.083903219E-03
   155 -8.770203219E-04
   156 -1.388914285E-03
   157 -4.370348124E-03
   158 -3.521950071E-03
   159 -1.021716719E-02
   160  4.051674731E-03
   161 -5.123975632E-03
   162 -6.274299242E-03
   163 -1.360024705E-02
   164  7.632087220E-03
   165 -2.182656809E-02
   166  1.014239762E-02
   167 -2.896741929E-02
   168  5.464561372E-03
   169  7.100677332E-03
   170  2.315180476E-03
   171  1.116261357E-02
   172  2.684365144E-03
   173 -1.017932504E-02
   174 -1.350989158E-01
   175  1.423822544E-01
   176 -1.272444963E-01
   177 -1.187566300E-02
   178 -1.876399008E-02
   179 -3.021700468E-03
   180  3.066644584E-03
   181  2.577316900E-03
   182  5.195723298E-02
   183 -4.686951401E-03
   184  3.344975281E-03
   185  3.348510911E-03
   186  7.695981037E-02
   187 -6.352940005E-03
   188  4.250802381E-03
   189  4.550117718E-03
   190  2.208399173E-03
   191 -3.566018830E-03
   192 -4.011073387E-04
   193 -2.216444127E-03
   194 -2.086481839E-03
   195  5.467110968E-01
   196 -1.348481301E-01
   197  4.678800526E-02
   198 -1.367258233E-02
   199  1.514679659E-02
   200  2.393378668E-02
   201 -1.404113330E-04
   202  3.166331911E-04
   203 -6.391529573E-03
   204 -6.631371733E-02
   205  5.898773854E-04
   206  6.782605569E-04
   207 -8.414988631E-03
   208 -9.737038778E-02
   209  1.194876447E-03
   210  9.923208089E-04
   211 -1.089927220E-02
   212 -3.614819537E-03
   213  1.413274610E-03
   214 -4.159756671E-04
   215 -4.570042139E-03
   216  1.830188610E-03
   217 -7.337693474E-01
   218 -2.777776209E-02
   219  5.322048190E-02
   220 -1.352154203E-01
   221  5.879987218E-04
   222  9.771396898E-04
   223  3.792147391E-02
   224  3.675263601E-02
   225  6.174284000E-02
   226 -5.164252329E-03
   227  5.421898367E-02
   228  5.214439992E-02
   229  8.842881121E-02
   230  2.925263266E-02
   231  2.511998973E-02
   232  3.987065055E-02
   233  5.724953316E-02
   234 -3.239329295E-04
   235  2.547788580E-03
   236  5.232203969E-03
   237 -6.119407129E-03
   238  3.887068526E-03
   239  1.073309972E-01
   240 -3.304372239E-02
   241  8.638843382E-03
   242 -2.045509390E-02
   243 -1.259447066E-04
   244 -2.100315711E-04
   245 -7.627130691E-02
   246  1.002072322E-01
   247 -6.912876394E-02
   248  1.127176118E-03
   249 -1.082623274E-01
   250  1.425076109E-01
   251 -9.823784596E-02
   252 -6.504235206E-03
   253 -7.895957262E-02
   254  9.960327694E-02
   255 -7.216955325E-02
   256 -2.100101797E-03
   257  3.676761907E-03
   258  8.189091906E-03
   259  1.440224135E-02
   260 -1.512775886E-03
   261 -3.831218458E-02
   262 -8.362281482E-03
   263 -6.409950393E-03
   264 -8.266936159E-03
   265 -4.620179933E-04
   266 -7.680788721E-04
   267 -4.907550103E-02
   268 -7.971518936E-02
   269 -5.915765451E-02
   270  4.070870477E-03
   271 -6.942574138E-02
   272 -1.137941087E-01
   273 -8.415163665E-02
   274 -2.305535606E-02
   275 -5.147033962E-02
   276 -7.076368697E-02
   277 -6.529794739E-02
   278 -1.323426060E-03
   279 -2.844870130E-03
   280 -9.532914600E-03
   281  5.950545830E-03
   282 -5.852482770E-03
   283 -9.136546390E-02
   284 -9.066842148E-03
   285  2.935468661E-02
   286 -1.236070938E-02
   287  1.202371428E-02
   288  1.891355845E-02
   289  5.281170229E-03
   290  9.847109553E-04
   291  1.345005262E-03
   292  5.450975546E-04
   293  1.728592359E-02
   294  1.576996049E-02
   295  1.951183779E-02
   296 -2.122431480E-03
   297 -1.887764798E-03
   298 -1.167296716E-03
   299 -5.010518486E-04
   300  1.233654851E-02
   301 -2.712559915E-05
   302  6.303621968E-05
   303 -7.548313178E-04
   304  7.389177127E-04
   305 -4.851847238E-04
   306  5.560639446E-04
   307  1.054739318E-03
   308 -1.856350126E-02
   309 -2.454287543E-02
   310 -2.871144130E-04
   311  7.567015081E-04
   312  2.391856868E-03
   313 -2.600897800E-04
   314 -1.761287252E-02
   315 -1.684842824E-02
   316 -2.436869737E-02
   317 -4.131735872E-03
   318 -6.891820388E-04
   319 -2.071814603E-03
   320 -6.032573916E-04
   321 -2.073970857E-02
   322  2.498906591E-03
   323  3.152094410E-03
   324 -2.797083076E-03
   325 -5.170603975E-04
   326  2.658327970E-04
   327 -3.836553696E-05
   328  9.478700407E-04
   329  2.399194910E-03
   330  2.380340084E-03
   331 -3.786296622E-03
   332  6.666943807E-04
   333 -1.222277962E-03
   334  5.136891240E-04
   335  2.091194164E-03
   336  1.034029450E-03
   337  4.817967398E-03
   338  5.929671849E-03
   339 -2.823527489E-04
   340 -8.637297870E-04
   341 -6.744559137E-04
   342  8.217590573E-03
   343  6.586317235E-03
   344  5.699313374E-03
   345 -5.123538861E-03
   346 -4.101579698E-04
   347  1.355978341E-03
   348  3.344733809E-04
   349  1.223389775E-03
   350  9.116136419E-03
   351  1.135495285E-02
   352 -7.860430357E-03
   353 -9.519490603E-04
   354  2.338525296E-04
   355  5.822203467E-04
   356  1.607865340E-03
   357  8.795991208E-03
   358  8.537377095E-03
   359 -1.176648429E-02
   360  4.273097610E-04
   361  1.744379973E-03
   362  4.838118229E-05
   363  7.907119818E-03
   364 -1.119848615E-02
   365 -1.086257208E-02
   366  1.539279128E-02
   367 -1.692372296E-03
   368 -1.276815591E-04
   369 -1.019087567E-03
   370 -9.858492630E-03
   371 -1.164022522E-02
   372 -1.454976195E-02
   373  1.076222973E-02
   374  4.699555451E-04
   375  1.539514728E-04
   376 -1.309319949E-03
   377 -1.386736056E-03
   378  6.665375110E-02
   379  9.125726333E-02
   380  3.641714646E-02
   381 -9.031110014E-04
   382 -4.816549146E-03
   383 -2.014830592E-03
   384  1.348960096E-02
   385 -2.588349517E-02
   386 -3.668613044E-02
   387 -2.373367957E-02
   388  4.560113346E-03
   389  2.033948310E-03
   390  7.476243925E-04
   391  3.163048285E-03
   392  1.220440374E-03
   393  2.083004065E-04
   394 -2.586263975E-03
   395  2.416787998E-03
   396  2.298238455E-03
   397  3.647709453E-03
   398  1.355506900E-02
   399  5.626124310E-03
   400  7.973646842E-03
   401  5.049726489E-03
   402 -5.120839670E-03
   403  6.168360768E-03
   404 -3.545417320E-03
   405 -1.186979934E-03
   406  9.515823238E-02
   407  1.327164590E-01
   408  5.696851797E-02
   409  8.515935591E-03
   410  4.146692610E-03
   411 -9.099268039E-05
   412 -3.591128825E-03
   413 -1.098589766E-01
   414 -1.525683199E-01
   415 -6.391744755E-02
   416 -4.070848218E-03
   417 -7.988521266E-03
   418  3.435943476E-03
   419 -2.794876379E-03
   420  2.038714337E-02
   421  2.894262570E-02
   422  1.842408702E-02
   423 -4.706686002E-03
   424 -4.759380857E-03
   425 -1.180286836E-03
   426 -2.758252157E-03
   427 -9.647873143E-02
   428 -1.331076267E-01
   429 -5.400345550E-02
   430  1.281940863E-03
   431  5.874606071E-03
   432  4.385194382E-03
   433 -1.012074427E-02
   434  4.304170154E-02
   435  6.107227047E-02
   436  2.770794010E-02
   437  2.921584098E-03
   438 -6.162010258E-03
   439 -1.662531065E-03
   440 -1.146880003E-02
Ene=   -3.9201764885E-01
Spin= Alpha
Occup=   2.0000000
     1  2.812251478E-03
     2  4.454305276E-03
     3 -7.249213483E-03
     4 -2.621061130E-02
     5  2.035244731E-02
     6 -1.301176056E-02
     7 -9.045127334E-03
     8 -3.701659288E-02
     9  2.966119550E-02
    10 -2.403672370E-02
    11 -2.766184866E-02
    12 -4.831300150E-02
    13  2.414653506E-02
    14  2.766157199E-03
    15  4.868359762E-03
    16 -1.686387861E-03
    17  6.678885250E-03
    18 -7.490505277E-03
    19  7.327144538E-02
    20 -1.598088894E-01
    21 -5.040687055E-02
    22 -7.008061493E-02
    23 -2.510915078E-05
    24 -2.659519252E-05
    25  1.827442540E-02
    26 -1.896504234E-02
    27 -2.454760172E-03
    28  4.286770692E-04
    29  2.636452687E-02
    30 -2.704481463E-02
    31 -2.732801880E-03
    32 -1.118602175E-02
    33  2.103081197E-02
    34 -1.571280409E-02
    35  2.931066171E-03
    36  1.223509301E-03
    37 -1.012598133E-03
    38 -1.418496061E-03
    39  4.992379117E-04
    40 -2.454039327E-03
    41 -1.521289042E-01
    42 -1.392398756E-02
    43  2.474652527E-02
    44  5.753714562E-02
    45 -6.539978137E-06
    46 -1.031375528E-05
    47  9.034116094E-03
    48  1.969240583E-02
    49  5.106097151E-03
    50  2.756949689E-05
    51  1.310444656E-02
    52  2.855805160E-02
    53  7.404935847E-03
    54  8.138438881E-05
    55  8.382574132E-03
    56  1.812688634E-02
    57  4.772600876E-03
    58 -1.517547337E-03
    59 -8.988091843E-04
    60 -3.622540177E-03
    61  1.305510289E-03
    62  2.040270898E-03
    63 -1.036742949E-02
    64 -1.302419625E-02
    65 -2.329195512E-02
    66 -5.559386694E-03
    67 -1.385273913E-05
    68 -1.636679948E-05
    69 -3.222833233E-03
    70  8.987695608E-03
    71 -1.074069946E-02
    72  2.305671656E-04
    73 -4.683129084E-03
    74  1.365869253E-02
    75 -1.517632765E-02
    76 -5.542323540E-03
    77 -2.318784757E-03
    78  1.674361339E-02
    79 -8.851966199E-03
    80  4.601090780E-04
    81 -6.228655181E-04
    82 -1.416225623E-03
    83 -1.001041190E-04
    84 -2.746670739E-03
    85 -7.290313279E-02
    86 -6.205624795E-03
    87  3.403459289E-02
    88  2.820856957E-02
    89  1.314732903E-03
    90  2.081926642E-03
    91 -1.640828937E-02
    92 -2.511319686E-03
    93 -4.126688916E-04
    94 -6.073205258E-03
    95 -2.308581011E-02
    96 -1.741618203E-03
    97 -6.134189334E-04
    98 -1.144171143E-02
    99 -3.087147999E-02
   100 -2.801342366E-02
   101 -1.085137697E-03
   102 -1.148930165E-04
   103 -1.703470754E-03
   104 -6.773527707E-03
   105 -5.585200140E-03
   106 -1.121938099E-02
   107  3.362887510E-02
   108 -5.249968993E-02
   109 -2.151570310E-01
   110  1.412723904E-03
   111 -1.559096596E-02
   112 -2.463402268E-02
   113 -5.205360406E-03
   114 -2.761048798E-03
   115  2.897154603E-03
   116  6.820441455E-02
   117 -6.634705656E-03
   118 -3.319811504E-03
   119  4.496171502E-03
   120  1.011541070E-01
   121 -8.794465440E-03
   122 -4.126699854E-03
   123  6.355518326E-03
   124  1.351575704E-03
   125 -4.287266989E-03
   126  3.072428418E-03
   127  9.995285968E-04
   128  3.274949277E-03
   129  7.290262720E-01
   130 -9.540724789E-02
   131 -9.513933098E-02
   132  5.102606552E-02
   133  2.005931236E-05
   134  1.345707665E-05
   135 -2.989061099E-02
   136 -2.263271143E-02
   137  4.640147760E-03
   138 -5.915880707E-04
   139 -4.254716100E-02
   140 -3.250163815E-02
   141  5.861549653E-03
   142  1.712698130E-02
   143 -2.763959802E-02
   144 -2.053702600E-02
   145  7.078032515E-04
   146 -1.141523472E-03
   147  1.875126941E-03
   148 -1.580122873E-03
   149 -8.468819977E-04
   150 -1.929504504E-03
   151  2.327804593E-01
   152  5.514210467E-02
   153  1.662288581E-02
   154 -6.442327266E-02
   155 -4.158562673E-03
   156 -6.586256543E-03
   157 -4.749612066E-03
   158 -3.362348967E-02
   159 -3.627947519E-02
   160  1.923531838E-02
   161 -7.321342642E-03
   162 -4.784119650E-02
   163 -5.173243956E-02
   164  3.556131040E-02
   165 -2.176507581E-03
   166 -5.704943951E-02
   167 -5.811448173E-02
   168  5.738167851E-04
   169 -1.485907915E-03
   170  3.533142294E-03
   171 -3.806606928E-03
   172  2.953474875E-04
   173 -1.312233965E-01
   174  6.109800939E-02
   175 -2.326231537E-02
   176 -1.335818214E-02
   177  1.063559176E-02
   178  1.680370991E-02
   179  2.919934378E-03
   180 -2.689739695E-03
   181 -2.199561768E-03
   182 -4.650778458E-02
   183  3.219014218E-03
   184 -3.506414601E-03
   185 -3.722613312E-03
   186 -6.929739079E-02
   187  4.182283906E-03
   188 -4.615938508E-03
   189 -5.324942023E-03
   190  5.087345386E-04
   191  4.084532605E-03
   192  1.768782142E-03
   193 -4.220063229E-05
   194  1.749123122E-03
   195 -4.842413739E-01
   196 -2.776233990E-02
   197 -1.082136065E-01
   198 -8.955421983E-02
   199  4.995391935E-03
   200  7.893348431E-03
   201 -3.000778317E-05
   202  2.838670109E-04
   203 -2.119372103E-03
   204 -2.186850997E-02
   205  5.990816689E-06
   206 -8.141003384E-04
   207 -2.856728686E-03
   208 -3.215090572E-02
   209  7.372639816E-06
   210 -1.353552328E-03
   211 -3.754859289E-03
   212 -9.591716633E-04
   213  8.199359213E-04
   214  2.416825262E-03
   215 -1.749453987E-03
   216 -5.327799284E-04
   217 -2.320711063E-01
   218 -3.200331457E-02
   219 -1.301372547E-01
   220 -5.140305035E-02
   221  1.913136031E-04
   222  3.184070280E-04
   223 -1.251798340E-02
   224 -1.393092397E-01
   225  1.217836752E-02
   226 -1.698517239E-03
   227 -1.768008569E-02
   228 -1.980016989E-01
   229  1.753708045E-02
   230  9.706938668E-03
   231 -1.720317494E-02
   232 -1.409686745E-01
   233  1.052017425E-02
   234 -1.679475596E-03
   235 -2.285276779E-03
   236 -1.524580529E-02
   237 -4.808331774E-03
   238 -4.170822909E-03
   239  4.678931473E-02
   240 -1.487249376E-02
   241 -2.845499284E-03
   242 -7.927421388E-03
   243 -6.050944575E-04
   244 -1.005573487E-03
   245  6.976018798E-02
   246  2.747865446E-02
   247  9.873931652E-03
   248  5.310970317E-03
   249  9.974009123E-02
   250  3.957028363E-02
   251  1.395485256E-02
   252 -2.990523210E-02
   253  6.498938263E-02
   254  1.645900404E-02
   255  2.337559286E-03
   256  3.547141106E-03
   257 -3.940633190E-03
   258  4.281723439E-03
   259 -3.900664108E-03
   260  3.425817260E-03
   261 -9.479625579E-02
   262 -1.828926960E-02
   263 -3.058738559E-02
   264 -1.400752206E-02
   265  4.118591473E-04
   266  6.850626950E-04
   267 -1.071265496E-01
   268  2.191158623E-03
   269 -5.088183668E-02
   270 -3.631469705E-03
   271 -1.525048251E-01
   272  3.585798542E-03
   273 -7.220970449E-02
   274  2.046857357E-02
   275 -1.078580422E-01
   276 -7.105588321E-03
   277 -4.745904246E-02
   278 -4.554264757E-03
   279  4.468236045E-03
   280 -3.543927631E-03
   281  1.107432510E-02
   282 -4.617744126E-03
   283  6.310503893E-02
   284  2.257297567E-03
   285 -2.565707198E-02
   286  5.162214555E-03
   287 -1.453345409E-02
   288 -1.745313438E-02
   289  2.375504116E-03
   290 -1.303110287E-03
   291 -1.873383617E-04
   292 -1.707155607E-03
   293 -9.390540204E-03
   294 -1.031533828E-02
   295 -1.684874806E-02
   296 -6.038413445E-03
   297  1.163665368E-03
   298 -4.051480776E-04
   299  1.019409350E-03
   300 -1.533092730E-02
   301 -5.358659165E-05
   302 -1.036321853E-04
   303  2.116689231E-04
   304  4.194540703E-04
   305  9.298624604E-04
   306  2.458333112E-04
   307 -2.517661454E-04
   308 -3.175321091E-03
   309 -7.744077377E-03
   310 -6.156418016E-03
   311 -9.934099210E-04
   312  5.197416078E-04
   313 -2.829845099E-04
   314 -9.326647478E-03
   315 -8.498535937E-03
   316 -8.363651955E-03
   317  4.311970897E-03
   318  8.571612205E-04
   319 -1.352793134E-03
   320 -4.915598311E-05
   321 -3.217969143E-03
   322  1.199497430E-02
   323  1.497905308E-02
   324 -1.007530386E-02
   325 -9.594779981E-04
   326 -3.214187023E-04
   327  1.016987511E-03
   328  1.824425664E-03
   329  1.153392952E-02
   330  1.112995723E-02
   331 -1.513454289E-02
   332 -1.159002153E-03
   333 -1.345210116E-03
   334 -9.307343406E-04
   335  8.402399100E-03
   336  1.880363955E-02
   337  2.518798407E-02
   338  1.538816770E-03
   339  1.210970028E-03
   340 -1.589309547E-03
   341  1.557869860E-03
   342  1.705698463E-02
   343  1.766485410E-02
   344  2.509771495E-02
   345  3.994583362E-03
   346 -1.807176718E-03
   347  1.118830328E-03
   348 -1.038400731E-03
   349  1.960488519E-02
   350 -8.130068872E-03
   351 -1.014590182E-02
   352  6.691746054E-03
   353  3.208523711E-04
   354 -4.546629175E-04
   355 -8.856202593E-04
   356 -1.880238597E-03
   357 -7.874348958E-03
   358 -7.623304206E-03
   359  1.017926505E-02
   360  1.128632068E-03
   361 -8.724485127E-04
   362  9.867470254E-04
   363 -5.738601058E-03
   364 -3.682491632E-03
   365 -3.584087905E-03
   366  4.886508999E-03
   367 -3.075052187E-04
   368  1.467741020E-03
   369 -2.560305964E-04
   370 -3.237421212E-03
   371 -3.829927722E-03
   372 -4.758930148E-03
   373  3.390502323E-03
   374  6.687827546E-05
   375 -4.796807415E-04
   376 -4.589716538E-04
   377 -7.411650386E-04
   378 -8.832810273E-02
   379 -1.233927589E-01
   380 -5.341977018E-02
   381  3.734244512E-03
   382  9.497299379E-04
   383  8.371029326E-03
   384  5.530508029E-03
   385 -8.479165784E-03
   386 -1.201744244E-02
   387 -7.879178774E-03
   388 -2.704011614E-05
   389 -8.569364019E-03
   390 -2.474261480E-04
   391  1.289349752E-03
   392  1.105764120E-01
   393  1.534024618E-01
   394  6.423160551E-02
   395 -2.058537646E-03
   396  5.357687746E-03
   397 -7.456143129E-03
   398  4.027651711E-03
   399  2.677572556E-02
   400  3.793513770E-02
   401  2.495037172E-02
   402  2.030393944E-03
   403  1.937141447E-03
   404  3.794038382E-03
   405 -2.874830416E-03
   406 -5.646939162E-02
   407 -7.708052190E-02
   408 -2.993595742E-02
   409 -3.513747829E-03
   410  2.873510014E-03
   411 -1.676416197E-03
   412 -1.382342137E-02
   413 -1.369225448E-02
   414 -1.754274654E-02
   415 -4.503246231E-03
   416  4.274751393E-03
   417  4.340905174E-05
   418  1.628325363E-03
   419 -1.463648482E-02
   420 -1.814895278E-02
   421 -2.573137506E-02
   422 -1.664469224E-02
   423 -5.010865459E-03
   424  4.051923934E-05
   425 -5.263025114E-03
   426  2.068093157E-03
   427 -5.427984209E-02
   428 -7.658024471E-02
   429 -3.416762897E-02
   430 -4.022800348E-03
   431  6.299349863E-03
   432  1.326109553E-03
   433  1.051617310E-02
   434  1.018603068E-01
   435  1.407378079E-01
   436  5.771900090E-02
   437  7.391124257E-03
   438 -2.803227466E-03
   439  1.132121337E-03
   440  8.859339392E-03
Ene=   -3.7494285236E-01
Spin= Alpha
Occup=   2.0000000
     1  1.082554123E-03
     2  1.688943056E-03
     3 -1.255245342E-02
     4  3.900114255E-02
     5 -7.570202413E-03
     6 -4.383407936E-03
     7 -1.810146987E-02
     8  5.611211924E-02
     9 -1.081731788E-02
    10 -5.922417745E-03
    11 -2.087980312E-02
    12  6.150763078E-02
    13 -1.028280198E-02
    14  2.502039594E-04
    15 -7.238349719E-03
    16 -6.394358988E-04
    17 -2.948577363E-03
    18 -5.725487389E-03
    19  1.365000431E-02
    20  3.893498168E-02
    21  1.898406159E-02
    22 -5.683607807E-02
    23 -3.160559616E-03
    24 -5.016441083E-03
    25  1.673254015E-02
    26 -3.088486898E-02
    27 -4.068851143E-03
    28  1.580203863E-02
    29  2.458235388E-02
    30 -4.456018368E-02
    31 -6.502050387E-03
    32 -9.908424934E-03
    33  1.345215224E-02
    34 -2.327538454E-02
    35 -4.505295168E-03
    36 -2.150186201E-03
    37  4.761518713E-04
    38 -5.509870667E-03
    39 -6.055963507E-03
    40 -2.048496868E-03
    41  4.983951579E-02
    42  5.846045869E-04
    43  2.390117055E-03
    44 -4.402048965E-03
    45 -1.389803030E-02
    46 -2.182085489E-02
    47  4.598810261E-02
    48 -4.140592738E-03
    49 -6.426016378E-02
    50  6.010046118E-02
    51  6.582838600E-02
    52 -5.921746337E-03
    53 -9.196750256E-02
    54  7.716859683E-02
    55  7.377227203E-02
    56 -6.642111057E-03
    57 -1.031490221E-01
    58 -3.088212257E-03
    59  5.167108617E-03
    60 -4.463604257E-04
    61 -1.792365479E-03
    62  3.323205818E-04
    63  1.132051418E-01
    64  6.587139038E-02
    65 -3.165162487E-03
    66 -8.957278584E-02
    67 -3.238482838E-03
    68 -5.139744734E-03
    69 -1.711881778E-02
    70  4.631051756E-03
    71 -3.090748766E-02
    72  1.615803627E-02
    73 -2.421973609E-02
    74  6.636729369E-03
    75 -4.519238201E-02
    76 -9.631115322E-03
    77 -1.182257208E-02
    78  3.380028220E-03
    79 -2.459910712E-02
    80 -1.849692109E-03
    81  5.343078466E-03
    82 -1.031363416E-03
    83  6.087299849E-03
    84 -2.361675847E-03
    85  5.524569949E-02
    86  3.639547450E-03
    87 -1.984115811E-03
    88 -2.570123944E-03
    89  1.069715091E-03
    90  1.669167724E-03
    91  3.067262285E-02
    92 -6.549234572E-03
    93  2.667954579E-02
    94 -4.340624438E-03
    95  4.408443180E-02
    96 -9.414982875E-03
    97  3.846119592E-02
    98 -5.900925458E-03
    99  4.707781543E-02
   100 -1.011543383E-02
   101  4.348318217E-02
   102  7.157241873E-03
   103 -1.941714092E-04
   104 -9.584118641E-04
   105  6.146611497E-03
   106 -2.073947748E-03
   107  1.623840014E-02
   108  5.934892654E-02
   109 -4.738850397E-04
   110 -4.279302810E-02
   111  4.563532099E-03
   112  7.203611797E-03
   113  3.956212198E-02
   114 -8.565223218E-03
   115 -6.196672608E-02
   116 -2.114555035E-02
   117  5.756085007E-02
   118 -1.108293598E-02
   119 -8.834276033E-02
   120 -1.693721749E-03
   121  3.723925775E-02
   122 -2.382818320E-02
   123 -7.926387076E-02
   124  5.618350791E-03
   125 -7.013050512E-03
   126 -9.986541278E-04
   127  2.926736719E-03
   128 -4.443895014E-03
   129 -9.324646581E-02
   130  6.647929889E-03
   131  3.245231576E-03
   132 -5.916421522E-03
   133 -3.205940765E-03
   134 -5.087751714E-03
   135  2.583830100E-02
   136  2.430707196E-02
   137 -1.297934468E-03
   138  1.599744033E-02
   139  3.771077861E-02
   140  3.499394562E-02
   141 -2.508258361E-03
   142 -9.534537656E-03
   143  2.033644073E-02
   144  1.827634561E-02
   145 -2.403619732E-03
   146 -1.106663386E-03
   147  2.726112364E-03
   148  5.789225204E-03
   149 -3.006483303E-03
   150  4.959814966E-03
   151  5.955897705E-02
   152  9.703239352E-04
   153  6.371499505E-04
   154 -1.332099094E-03
   155  1.074049199E-03
   156  1.676543286E-03
   157 -2.413012609E-02
   158 -3.172313934E-02
   159 -1.107833350E-02
   160 -4.375948910E-03
   161 -3.475630345E-02
   162 -4.562925945E-02
   163 -1.586170196E-02
   164 -5.568321545E-03
   165 -3.918333432E-02
   166 -4.989891817E-02
   167 -1.595628256E-02
   168  5.942338440E-04
   169 -5.964104738E-03
   170  2.828906567E-03
   171  1.572464806E-03
   172  6.922947555E-03
   173  1.802443120E-02
   174  2.528517551E-02
   175 -3.208702946E-02
   176 -7.178838357E-02
   177  4.534272323E-03
   178  7.158180995E-03
   179  4.114225279E-02
   180  1.987217916E-03
   181 -6.130557253E-02
   182 -2.102638558E-02
   183  5.938975929E-02
   184  1.403955854E-03
   185 -8.753476745E-02
   186 -1.461970195E-03
   187  4.410650280E-02
   188  1.892503432E-02
   189 -7.673405926E-02
   190  5.852138962E-03
   191 -6.181168463E-03
   192  1.664420068E-03
   193  5.394729534E-03
   194  2.343655246E-03
   195 -6.342335424E-02
   196  6.709716811E-03
   197  1.572764490E-03
   198  5.645668525E-04
   199  4.586724995E-03
   200  7.241132533E-03
   201  4.773229993E-02
   202 -4.842581910E-03
   203 -5.647429502E-02
   204 -2.126739416E-02
   205  6.722487407E-02
   206 -6.693718080E-03
   207 -8.188583655E-02
   208 -1.585211592E-03
   209  7.057874905E-02
   210 -8.524112213E-03
   211 -5.631989522E-02
   212  2.446244958E-03
   213 -1.008467240E-02
   214  1.438160572E-03
   215 -7.960081317E-05
   216  5.897192445E-04
   217 -5.704027329E-02
   218  2.622821421E-03
   219  4.909998775E-03
   220 -1.422505184E-03
   221 -8.808308855E-04
   222 -1.429641518E-03
   223 -5.312458871E-02
   224  5.313160092E-03
   225  6.404328939E-02
   226  5.674131206E-03
   227 -7.644748171E-02
   228  7.645667687E-03
   229  9.189437774E-02
   230 -1.800008492E-02
   231 -4.581443103E-02
   232  3.881235588E-03
   233  6.935740258E-02
   234 -4.224885906E-03
   235  7.758899675E-03
   236 -7.578636329E-04
   237 -2.519864394E-03
   238  4.232967836E-04
   239 -3.918487630E-02
   240 -3.527406918E-04
   241 -4.766177022E-04
   242  1.630847700E-02
   243 -8.866412699E-04
   244 -1.439228965E-03
   245 -4.505102560E-02
   246  9.133143115E-03
   247  6.977038694E-02
   248  5.728007130E-03
   249 -6.461686207E-02
   250  1.325125179E-02
   251  1.002748383E-01
   252 -1.844354231E-02
   253 -5.008811225E-02
   254  1.871274633E-03
   255  6.658663780E-02
   256 -4.659946883E-03
   257  7.461491770E-03
   258 -6.405895614E-04
   259 -2.649095284E-03
   260  8.651963003E-04
   261 -4.642077014E-02
   262 -1.249926715E-02
   263 -6.568884695E-03
   264  7.341355999E-03
   265 -8.962962352E-04
   266 -1.454587744E-03
   267 -4.691724924E-02
   268 -1.636584046E-03
   269  6.947077346E-02
   270  5.768901913E-03
   271 -6.735130889E-02
   272 -2.510778593E-03
   273  9.981773912E-02
   274 -1.832431112E-02
   275 -4.927545315E-02
   276  7.062014757E-03
   277  6.722180305E-02
   278 -4.680301759E-03
   279  7.441493830E-03
   280 -6.679958599E-04
   281 -2.904777027E-03
   282  1.769813657E-04
   283 -3.747776663E-02
   284 -1.009010381E-02
   285  9.026783521E-03
   286  8.746664844E-03
   287 -1.591162146E-02
   288 -2.281739228E-02
   289 -1.630424206E-02
   290 -6.880396882E-04
   291 -6.470954335E-04
   292 -1.053492148E-03
   293 -8.089619621E-03
   294 -1.608096991E-02
   295 -2.301130145E-02
   296 -1.651630209E-02
   297  1.338850165E-03
   298  2.898933509E-04
   299  3.442007174E-04
   300 -7.686608794E-03
   301 -5.623845112E-02
   302 -7.018104623E-02
   303 -1.235735098E-02
   304 -1.557861303E-03
   305  1.418296068E-04
   306  2.172396937E-03
   307  5.325545381E-02
   308 -1.595538689E-02
   309 -2.284438993E-02
   310 -1.656868238E-02
   311  3.644030811E-04
   312  1.304417874E-03
   313 -4.401170483E-04
   314 -7.148387561E-03
   315 -1.620098214E-02
   316 -2.321284018E-02
   317 -1.669538959E-02
   318 -5.752851968E-05
   319 -1.308405782E-03
   320 -5.612438831E-04
   321 -8.172722955E-03
   322  6.221319772E-02
   323  8.286000482E-02
   324  3.448638738E-02
   325 -2.961655008E-03
   326 -9.672509965E-04
   327  2.499408562E-03
   328 -3.224742507E-03
   329 -3.183083394E-02
   330 -4.043091450E-02
   331 -1.350700378E-02
   332  3.676927813E-03
   333  2.545238953E-03
   334 -1.322109534E-03
   335  1.123918017E-02
   336 -1.582856624E-02
   337 -2.267513463E-02
   338 -1.621070455E-02
   339 -4.136989252E-04
   340  9.471359631E-04
   341 -9.746211346E-04
   342 -8.233398866E-03
   343 -1.623779496E-02
   344 -2.324273987E-02
   345 -1.639792104E-02
   346  1.171978715E-03
   347 -7.460511286E-04
   348  2.892538790E-04
   349 -7.825357423E-03
   350  6.209178438E-02
   351  8.276132226E-02
   352  3.410236405E-02
   353 -2.538914985E-03
   354  1.609131607E-03
   355  2.627665638E-03
   356 -2.119480448E-03
   357 -3.190265325E-02
   358 -4.052926586E-02
   359 -1.386767808E-02
   360  2.685738985E-03
   361 -3.437291191E-03
   362 -1.632041895E-03
   363  1.070929968E-02
   364 -3.180928963E-02
   365 -4.036593422E-02
   366 -1.393348286E-02
   367 -1.004714882E-03
   368  4.080123988E-04
   369 -4.538844598E-03
   370  1.065036556E-02
   371  6.226620904E-02
   372  8.299479558E-02
   373  3.411922934E-02
   374 -9.572180824E-04
   375 -4.953505512E-05
   376  3.878949066E-03
   377 -1.778999553E-03
   378  2.163226747E-02
   379  2.972428203E-02
   380  1.249930352E-02
   381 -3.924833831E-03
   382 -2.295002636E-03
   383  2.175188293E-03
   384 -1.544756428E-03
   385 -7.190177139E-02
   386 -9.722841325E-02
   387 -4.999615488E-02
   388  2.143049725E-03
   389 -7.896989831E-05
   390 -5.192133845E-03
   391 -8.417476059E-04
   392  2.168518183E-02
   393  2.975624555E-02
   394  1.296801644E-02
   395 -3.019293613E-03
   396  3.194465363E-03
   397  2.462989323E-03
   398 -4.598496443E-04
   399 -7.204981407E-02
   400 -9.737207018E-02
   401 -5.062890120E-02
   402  3.886469563E-03
   403  7.171089049E-04
   404 -4.005612644E-03
   405 -8.179675714E-04
   406  2.160310272E-02
   407  2.969995085E-02
   408  1.232737201E-02
   409  2.174179943E-04
   410 -3.927256714E-04
   411  5.031482401E-03
   412 -2.810228539E-04
   413  2.167433240E-02
   414  2.979438604E-02
   415  1.226478325E-02
   416 -3.170245944E-03
   417  3.134086271E-03
   418  2.369039076E-03
   419 -5.490608533E-04
   420 -7.229084303E-02
   421 -9.775433091E-02
   422 -5.018944814E-02
   423  3.534447560E-03
   424 -1.518605838E-03
   425 -4.137870020E-03
   426 -9.554629192E-04
   427  2.164194849E-02
   428  2.973074019E-02
   429  1.260876516E-02
   430 -4.051911868E-03
   431 -2.191319074E-03
   432  2.106251798E-03
   433 -1.349669667E-03
   434  2.161584943E-02
   435  2.968484954E-02
   436  1.292294883E-02
   437  2.383784437E-04
   438 -2.339967927E-04
   439  5.056038225E-03
   440 -6.375180850E-04
Ene=   -3.7430099207E-01
Spin= Alpha
Occup=   2.0000000
     1  1.651327396E-03
     2  2.563617348E-03
     3  2.562653975E-02
     4  5.975332583E-02
     5 -2.522773663E-02
     6 -6.246801893E-03
     7  3.830592286E-02
     8  8.491795032E-02
     9 -3.580698604E-02
    10  2.818221712E-03
    11  2.778118559E-02
    12  1.043807160E-01
    13 -4.302226237E-02
    14 -5.625577807E-03
    15  3.131349710E-03
    16 -5.849801178E-03
    17  1.904100916E-03
    18 -5.121701937E-03
    19 -1.030845500E-01
    20 -4.799188875E-02
    21  1.354734558E-01
    22 -4.781485855E-02
    23  8.338845792E-03
    24  1.319337919E-02
    25 -7.504840770E-02
    26 -6.132505735E-03
    27 -1.916299680E-02
    28 -3.796554112E-02
    29 -1.068302310E-01
    30 -8.428733964E-03
    31 -2.675010721E-02
    32 -2.771164157E-02
    33 -8.821064089E-02
    34 -1.921915330E-02
    35 -3.097397789E-02
    36 -5.245378131E-03
    37  3.491786937E-03
    38 -9.156058607E-03
    39  7.297212524E-03
    40 -1.823862229E-03
    41 -9.536153283E-02
    42 -2.946236887E-02
    43  5.271599299E-03
    44 -5.033677347E-03
    45  3.609062150E-05
    46  5.685278022E-05
    47 -2.176992227E-03
    48  7.265102988E-04
    49 -1.338758597E-03
    50 -1.612777867E-04
    51 -2.750514881E-03
    52  9.008930351E-04
    53 -1.642395252E-03
    54 -1.496109557E-04
    55 -2.997786821E-03
    56  9.453159209E-04
    57 -1.716730593E-03
    58 -1.660025832E-03
    59  3.652765437E-03
    60  2.223450848E-04
    61  1.244268904E-02
    62 -3.723460508E-03
    63 -2.183799290E-02
    64 -2.990103776E-02
    65  8.237911983E-03
    66 -1.615894043E-02
    67 -1.397912048E-02
    68 -2.211468988E-02
    69  4.182673661E-03
    70  1.193973589E-02
    71 -5.497513571E-02
    72  6.357231217E-02
    73  6.187598936E-03
    74  1.693819937E-02
    75 -7.902283239E-02
    76  4.738918915E-02
    77  9.799948585E-03
    78  1.355883871E-02
    79 -4.555082158E-02
    80  8.234776803E-03
    81 -3.153115330E-03
    82  1.486682512E-03
    83 -4.869050166E-04
    84  6.370754795E-04
    85  2.004709027E-01
    86 -7.905949488E-03
    87  7.496456479E-03
    88 -3.758656401E-02
    89 -2.784610301E-03
    90 -4.322546333E-03
    91 -1.064858496E-01
    92  1.432709932E-02
    93 -1.047091380E-02
    94  1.052468860E-02
    95 -1.517476606E-01
    96  2.011766782E-02
    97 -1.298560425E-02
    98 -4.354693982E-03
    99 -1.806029996E-01
   100  2.674502790E-02
   101 -3.671335677E-02
   102  1.671354784E-03
   103 -9.700632864E-03
   104  2.668008771E-03
   105 -2.180330995E-03
   106  1.616971516E-03
   107  1.748364486E-01
   108 -1.910802317E-01
   109  3.708854515E-02
   110 -1.496466348E-01
   111 -3.184522616E-03
   112 -5.034163743E-03
   113 -2.588672099E-02
   114 -8.829238934E-03
   115  8.276308277E-03
   116  1.486538986E-02
   117 -3.876511965E-02
   118 -1.097988376E-02
   119  1.141288780E-02
   120  3.775193976E-04
   121 -1.944954569E-02
   122 -8.497516336E-03
   123  1.055698879E-02
   124 -1.470047874E-04
   125 -8.663799099E-04
   126 -4.666717839E-03
   127 -4.638344021E-03
   128  1.712385305E-03
   129 -7.211429980E-02
   130 -1.679625950E-02
   131  4.619881521E-02
   132 -1.737341025E-02
   133  5.666535001E-03
   134  8.964725055E-03
   135 -6.629282889E-02
   136  4.188355635E-02
   137 -2.695050558E-02
   138 -2.577793583E-02
   139 -9.432311031E-02
   140  5.927547865E-02
   141 -3.793412539E-02
   142 -1.919613237E-02
   143 -7.784168750E-02
   144  6.003391962E-02
   145 -3.854339292E-02
   146 -4.094596580E-03
   147  5.141941183E-03
   148  7.702431368E-03
   149  9.691545155E-03
   150 -3.654855284E-03
   151 -6.419868102E-02
   152 -2.743550015E-02
   153  9.627505167E-03
   154 -1.160199046E-02
   155  1.119115013E-03
   156  1.736706776E-03
   157  1.144174827E-02
   158 -4.993397719E-02
   159 -1.555245317E-02
   160 -4.216380612E-03
   161  1.788072798E-02
   162 -7.182172143E-02
   163 -2.178158665E-02
   164  1.586605840E-03
   165  5.724514353E-03
   166 -7.984412360E-02
   167 -2.876314363E-02
   168 -3.875262942E-03
   169  4.479718212E-03
   170  4.978263221E-03
   171  6.548089022E-03
   172  1.000063031E-03
   173 -7.298606471E-02
   174 -5.416458144E-02
   175 -5.697437851E-02
   176 -3.145836801E-02
   177 -4.677743740E-03
   178 -7.396228003E-03
   179 -2.924764878E-02
   180  2.444593000E-02
   181  1.601294714E-02
   182  2.187932308E-02
   183 -4.397174136E-02
   184  3.403739017E-02
   185  2.280372861E-02
   186 -9.387291716E-05
   187 -2.250126598E-02
   188  1.949101132E-02
   189  1.737843801E-02
   190 -7.846644380E-05
   191  1.200209635E-03
   192  5.633368238E-03
   193 -3.578764444E-03
   194  5.601459341E-04
   195 -1.326098056E-01
   196 -2.229615988E-02
   197 -4.896542933E-02
   198 -2.284403953E-02
   199  7.831385679E-03
   200  1.238131051E-02
   201 -5.145922944E-03
   202  5.236493100E-03
   203 -6.806683763E-02
   204 -3.659176399E-02
   205 -5.847643711E-03
   206  7.583018263E-03
   207 -9.856838719E-02
   208 -3.985103972E-04
   209  6.303724692E-04
   210  3.087556016E-03
   211 -5.761191488E-02
   212 -3.131156864E-03
   213 -3.598162323E-03
   214 -1.105373255E-04
   215  4.346023157E-03
   216 -1.456070396E-03
   217  1.793967023E-01
   218  3.482340133E-02
   219 -6.501060793E-03
   220  3.673353351E-02
   221  2.536602977E-03
   222  4.089254725E-03
   223  1.056941489E-01
   224 -1.899545986E-02
   225 -2.838134406E-02
   226 -1.602748217E-02
   227  1.506127592E-01
   228 -2.723723220E-02
   229 -3.991430643E-02
   230  6.413261883E-02
   231  8.028690809E-02
   232 -1.398747665E-02
   233 -4.148543611E-02
   234  5.463070671E-03
   235 -1.044911482E-02
   236  1.076540819E-03
   237 -2.164420930E-03
   238  1.327408994E-03
   239  2.297976113E-01
   240 -4.103614831E-02
   241  6.703349476E-03
   242 -1.110651050E-02
   243 -1.021856500E-03
   244 -1.647147708E-03
   245  1.094842313E-02
   246  7.954021615E-03
   247  4.947827005E-02
   248  6.443319377E-03
   249  1.651655553E-02
   250  1.065505378E-02
   251  7.099478813E-02
   252 -2.562286055E-02
   253  5.126000417E-03
   254 -2.542675526E-04
   255  4.368115688E-02
   256 -9.406060178E-04
   257  3.304042388E-03
   258  4.020203015E-04
   259 -3.458969672E-03
   260  2.179824348E-03
   261 -8.020100005E-02
   262 -3.648977938E-03
   263 -1.278090904E-02
   264 -7.738905484E-03
   265 -1.506842229E-03
   266 -2.429051381E-03
   267 -1.324518298E-03
   268 -2.896770967E-02
   269  6.314741137E-02
   270  9.521497940E-03
   271 -8.575180185E-04
   272 -4.109350288E-02
   273  9.040035441E-02
   274 -3.821387452E-02
   275 -4.972174853E-03
   276 -1.346390240E-02
   277  5.630594116E-02
   278 -2.225078054E-03
   279  4.286891494E-03
   280 -1.850601640E-03
   281 -5.346038006E-03
   282 -1.553560158E-04
   283 -1.412432114E-01
   284  2.775356194E-04
   285  2.265399655E-02
   286 -1.241510514E-02
   287  6.153816088E-02
   288  8.421598123E-02
   289  4.409079279E-02
   290  2.653681189E-03
   291 -2.335457696E-03
   292  8.312060168E-04
   293 -1.368688364E-02
   294 -4.529918827E-02
   295 -5.859565189E-02
   296 -1.932179667E-02
   297 -2.643169703E-03
   298  3.886646864E-03
   299  1.563212431E-03
   300  1.250327002E-02
   301  1.607307600E-04
   302  1.419801718E-04
   303  4.617015113E-04
   304 -9.023884529E-04
   305  3.176647219E-04
   306 -6.705336216E-04
   307 -3.014404861E-04
   308 -6.256007509E-03
   309 -1.165002422E-02
   310 -1.633364506E-02
   311  3.726750610E-04
   312  1.215794401E-03
   313 -2.232214053E-03
   314 -1.675669397E-03
   315 -2.079734920E-02
   316 -3.102542003E-02
   317 -2.500369267E-02
   318  4.058169292E-04
   319 -1.401753378E-03
   320 -1.369363554E-03
   321  2.853989734E-03
   322 -1.481360949E-02
   323 -1.978594448E-02
   324 -7.526427313E-03
   325 -3.496390686E-05
   326 -9.197909459E-04
   327 -1.156814425E-03
   328 -3.529240730E-03
   329 -6.973589105E-03
   330 -1.144670328E-02
   331 -5.640266939E-03
   332 -1.055472151E-03
   333  4.424357598E-04
   334  4.613494816E-04
   335 -4.098887934E-03
   336  6.620782477E-02
   337  8.981787662E-02
   338  4.394827460E-02
   339  3.850852514E-03
   340  1.780200814E-03
   341  6.915970628E-04
   342 -1.629308328E-02
   343 -5.515622232E-02
   344 -7.235282374E-02
   345 -2.792335281E-02
   346 -3.706121151E-03
   347 -3.467111901E-03
   348  1.215098224E-03
   349  1.530641543E-02
   350 -2.174611552E-02
   351 -2.912009558E-02
   352 -1.090573621E-02
   353  4.092797847E-04
   354  1.465736639E-03
   355 -1.553089039E-03
   356 -6.850461386E-03
   357 -1.027355357E-02
   358 -1.684687518E-02
   359 -8.197570406E-03
   360 -1.365621135E-03
   361 -3.993221557E-05
   362  8.503377800E-04
   363 -5.298181505E-03
   364  1.749693841E-02
   365  2.852912800E-02
   366  1.453401556E-02
   367  1.328149552E-03
   368 -2.145377781E-05
   369 -2.090697856E-03
   370  8.828379539E-03
   371  3.606701129E-02
   372  4.826091949E-02
   373  1.817924324E-02
   374 -3.585428293E-03
   375  5.741916686E-04
   376  3.044952916E-04
   377  1.048994809E-02
   378  7.553371289E-04
   379 -1.337877536E-03
   380  6.193498031E-04
   381  6.477693872E-03
   382 -1.404582184E-03
   383 -1.881041147E-03
   384  4.559883703E-03
   385  7.585926768E-02
   386  1.038731577E-01
   387  4.884844379E-02
   388  1.351321343E-04
   389 -5.531042195E-04
   390  7.015057928E-03
   391  1.025959005E-02
   392  4.773946163E-03
   393  3.773920082E-03
   394  3.362381511E-03
   395  6.706585095E-03
   396 -3.972999352E-04
   397 -2.178366291E-03
   398  3.194176688E-03
   399 -3.039737810E-02
   400 -4.164174126E-02
   401 -1.943997630E-02
   402  3.015478504E-03
   403  3.985036666E-04
   404 -6.265673189E-04
   405 -4.203150783E-03
   406 -1.794571732E-02
   407 -2.186363319E-02
   408 -1.272399687E-02
   409 -2.015843753E-03
   410  1.552742745E-03
   411  2.837035193E-03
   412 -2.405689341E-05
   413  1.552555671E-02
   414  2.056561758E-02
   415  1.164078635E-02
   416  4.920027118E-04
   417  2.120156002E-03
   418  1.301732102E-03
   419 -3.288074056E-03
   420 -4.487110956E-02
   421 -6.140332410E-02
   422 -2.929279319E-02
   423  3.450005494E-03
   424 -2.146630146E-03
   425 -1.460900167E-03
   426 -6.309234065E-03
   427  1.300234132E-02
   428  1.782589724E-02
   429  9.463718220E-03
   430 -6.175523421E-04
   431 -2.848795754E-03
   432  2.323068834E-03
   433 -2.749636413E-03
   434 -1.648123129E-02
   435 -1.953821686E-02
   436 -1.213314010E-02
   437 -2.762672999E-03
   438 -1.897155877E-03
   439  3.626178136E-03
   440 -8.265817104E-04
Ene=   -3.7429454786E-01
Spin= Alpha
Occup=   2.0000000
     1 -2.249237461E-03
     2 -3.491278532E-03
     3  9.543968363E-03
     4 -6.111306870E-02
     5  6.482242917E-02
     6  8.498222269E-03
     7  1.339272678E-02
     8 -8.578017876E-02
     9  9.370364299E-02
    10 -3.599641095E-03
    11  1.944076673E-02
    12 -1.158001651E-01
    13  9.775808375E-02
    14  2.748636889E-03
    15 -3.284969895E-03
    16 -8.444516047E-04
    17  9.440087890E-03
    18  3.019794237E-04
    19  1.354315206E-01
    20  4.566131830E-02
    21 -1.854958435E-01
    22  3.669741005E-02
    23 -1.134709262E-02
    24 -1.795122032E-02
    25 -1.149011466E-02
    26 -4.333785867E-02
    27 -5.186371681E-02
    28  5.161482980E-02
    29 -1.572429266E-02
    30 -6.181423291E-02
    31 -7.412401043E-02
    32  3.829884256E-02
    33 -2.751502652E-02
    34 -4.112337786E-02
    35 -5.911785362E-02
    36 -2.456535615E-03
    37 -4.678622069E-03
    38 -7.384456300E-04
    39  8.299887220E-03
    40 -5.998329608E-03
    41  1.548779723E-01
    42  3.665737651E-03
    43 -2.807305115E-02
    44 -2.016665091E-02
    45 -2.294660845E-05
    46 -3.588809687E-05
    47 -5.949260180E-04
    48 -2.626017721E-03
    49 -4.212733801E-04
    50  9.567123680E-05
    51 -7.334627300E-04
    52 -3.312076878E-03
    53 -5.523843523E-04
    54  1.634635131E-04
    55 -8.265633950E-04
    56 -3.444828540E-03
    57 -6.497704232E-04
    58 -1.303957849E-03
    59 -1.880780355E-03
    60 -1.197079486E-02
    61 -1.170788814E-03
    62 -5.890478691E-03
    63  6.406834680E-03
    64 -9.192743968E-03
    65 -3.500036480E-02
    66 -4.784584104E-03
    67 -1.548711356E-03
    68 -2.449579689E-03
    69 -1.380861414E-02
    70 -8.506083658E-02
    71 -1.072247907E-02
    72  7.030666253E-03
    73 -1.955693759E-02
    74 -1.206078057E-01
    75 -1.532332076E-02
    76  5.419110458E-03
    77 -1.742883425E-02
    78 -1.108744556E-01
    79 -1.114052626E-02
    80 -4.742819083E-04
    81 -2.928971332E-03
    82 -1.476023285E-02
    83 -1.585926982E-03
    84 -2.005754085E-03
    85  3.106127281E-02
    86 -4.932257872E-03
    87 -2.895766601E-02
    88 -8.275695530E-03
    89 -3.069194160E-04
    90 -4.763820521E-04
    91 -6.119069944E-03
    92  3.531877812E-02
    93  6.962256671E-04
    94  1.160931703E-03
    95 -8.451017376E-03
    96  5.198248128E-02
    97  1.293591552E-03
    98 -4.125857598E-04
    99 -1.247522516E-02
   100  4.652531493E-02
   101 -1.637904362E-03
   102 -6.923217054E-04
   103 -2.793982969E-03
   104 -9.276585111E-03
   105 -1.608586165E-03
   106 -2.305738506E-03
   107  1.863055666E-02
   108 -1.474124423E-02
   109 -1.590800488E-02
   110 -1.876516901E-02
   111 -7.208728827E-03
   112 -1.139605953E-02
   113 -4.832833247E-02
   114 -3.079465520E-02
   115  2.658934002E-02
   116  3.366163210E-02
   117 -6.926142924E-02
   118 -4.425111041E-02
   119  4.005769082E-02
   120  6.055426582E-04
   121 -4.154528847E-02
   122 -2.184116867E-02
   123  2.534374993E-02
   124 -4.322322419E-03
   125  1.466888825E-03
   126 -3.082934893E-03
   127  3.606534298E-03
   128  9.982130857E-04
   129 -1.632541402E-01
   130  4.202683852E-02
   131  2.200542798E-02
   132  2.050857703E-02
   133  1.287669471E-02
   134  2.037005658E-02
   135 -1.866920513E-02
   136 -4.163954585E-02
   137  4.201692125E-02
   138 -5.853751053E-02
   139 -2.722548449E-02
   140 -5.929062409E-02
   141  6.020609044E-02
   142 -4.394988105E-02
   143 -5.101934200E-03
   144 -4.169645394E-02
   145  4.684282026E-02
   146  1.378003848E-03
   147  5.210424805E-03
   148  1.600069323E-04
   149 -8.609219448E-03
   150 -9.074701371E-04
   151 -1.807420569E-01
   152 -2.076896059E-02
   153 -2.839155019E-02
   154  1.319667004E-02
   155  2.552080505E-03
   156  3.961188125E-03
   157 -2.571381369E-02
   158 -6.025842581E-02
   159 -7.589236602E-02
   160 -9.642423461E-03
   161 -3.564418390E-02
   162 -8.468865443E-02
   163 -1.092927567E-01
   164  4.067973037E-03
   165 -5.411610104E-02
   166 -1.129342650E-01
   167 -1.180207500E-01
   168 -3.794760215E-03
   169  4.460734961E-03
   170  6.384678718E-04
   171 -6.203097922E-03
   172  6.058765537E-03
   173 -1.483553234E-01
   174 -1.132228524E-01
   175 -1.701340767E-01
   176 -6.216184278E-02
   177  6.359932412E-03
   178  1.005482769E-02
   179  3.089925420E-02
   180 -3.727922063E-02
   181 -2.786125808E-02
   182 -2.971338564E-02
   183  4.381788639E-02
   184 -5.356087125E-02
   185 -4.196729517E-02
   186 -2.572376954E-04
   187  2.866552542E-02
   188 -2.750517779E-02
   189 -2.515999104E-02
   190  3.870049114E-03
   191 -2.022911325E-03
   192 -1.681139255E-03
   193 -3.336525269E-03
   194  3.485162452E-03
   195  1.323345803E-01
   196 -3.944645028E-02
   197  2.461732849E-02
   198 -2.205537147E-02
   199  8.761902328E-04
   200  1.384680211E-03
   201 -1.605082437E-03
   202 -6.221611715E-03
   203 -7.987747497E-03
   204 -4.075575317E-03
   205 -2.548443134E-03
   206 -1.139112972E-02
   207 -1.169465170E-02
   208 -3.298096444E-04
   209  2.314663576E-06
   210 -1.216733158E-03
   211 -6.648426347E-03
   212  2.710214483E-04
   213  7.542916755E-04
   214  6.598153184E-03
   215  1.314488985E-03
   216  1.206500566E-03
   217  1.887132539E-02
   218 -4.980396957E-03
   219 -5.548942536E-02
   220  1.077780411E-03
   221  2.784541051E-04
   222  4.488772350E-04
   223  1.605359363E-02
   224  2.521908956E-02
   225 -1.556163999E-03
   226 -1.754903890E-03
   227  2.309395028E-02
   228  3.724649129E-02
   229 -2.080805259E-03
   230  6.940303422E-03
   231  1.310907964E-02
   232  2.451254364E-02
   233 -3.065266020E-03
   234  8.160088472E-04
   235 -7.466983231E-04
   236  2.521513314E-03
   237 -1.582770196E-04
   238  2.639489217E-06
   239  1.565550797E-02
   240 -2.159163083E-03
   241  2.864526426E-03
   242 -5.730002384E-04
   243 -2.332083554E-03
   244 -3.759971746E-03
   245 -1.729583256E-02
   246  6.151853724E-02
   247  8.057392250E-02
   248  1.474273478E-02
   249 -2.458810374E-02
   250  8.822727445E-02
   251  1.143510672E-01
   252 -5.898605850E-02
   253 -2.881620804E-02
   254  4.060280053E-02
   255  6.869543875E-02
   256 -4.683232023E-03
   257  8.015078001E-03
   258  3.898863191E-03
   259 -3.562458237E-03
   260  3.360106915E-03
   261 -2.033194515E-01
   262 -1.222391619E-02
   263 -2.757214991E-02
   264 -2.341816495E-02
   265  2.051705663E-03
   266  3.307563585E-03
   267  3.790974281E-02
   268  5.572957643E-02
   269 -6.152331196E-02
   270 -1.296078857E-02
   271  5.436353224E-02
   272  7.996279772E-02
   273 -8.703606999E-02
   274  5.186421702E-02
   275  4.129400271E-02
   276  3.400055512E-02
   277 -5.333762424E-02
   278  5.116600924E-03
   279 -5.492586527E-03
   280  4.514630215E-03
   281  4.487223465E-03
   282  1.055763169E-03
   283  1.824508434E-01
   284  2.222035480E-03
   285 -2.867834729E-02
   286  1.809014248E-02
   287  2.823454737E-02
   288  3.510986552E-02
   289  6.452454498E-03
   290  2.191396671E-03
   291 -3.223323808E-03
   292 -1.725020491E-03
   293 -9.492170577E-03
   294 -5.023455958E-02
   295 -6.980356647E-02
   296 -3.995446375E-02
   297  7.429824952E-04
   298  2.458633000E-03
   299  4.857660793E-04
   300  1.020361804E-02
   301 -9.759240319E-05
   302 -9.420827012E-05
   303 -2.966436725E-04
   304 -2.919109092E-04
   305 -1.127331876E-03
   306 -1.310367661E-04
   307  1.343872986E-04
   308 -6.740071983E-02
   309 -9.044420378E-02
   310 -4.137573537E-02
   311  2.262231474E-03
   312  6.787400921E-04
   313  4.377487754E-03
   314  1.722378108E-02
   315  6.435266339E-02
   316  8.565772687E-02
   317  3.653580854E-02
   318 -1.805413909E-03
   319  1.539462516E-03
   320 -4.656749822E-03
   321 -1.633666773E-02
   322 -3.337023816E-02
   323 -4.460477119E-02
   324 -1.693540485E-02
   325 -1.091657307E-04
   326 -2.081631365E-03
   327 -2.633445680E-03
   328 -9.246612906E-03
   329 -1.599311827E-02
   330 -2.615993092E-02
   331 -1.314834827E-02
   332 -1.216157321E-03
   333 -1.901262495E-04
   334  1.948969062E-03
   335 -8.581752105E-03
   336 -1.420930391E-02
   337 -1.596631199E-02
   338  3.108107369E-03
   339 -2.353094813E-03
   340 -2.174168429E-03
   341  1.605897874E-03
   342  5.995383384E-03
   343  3.909048569E-02
   344  5.523406887E-02
   345  3.469545342E-02
   346 -7.283819453E-04
   347  1.889742573E-03
   348  5.006441796E-05
   349 -7.366878524E-03
   350  2.956873123E-02
   351  3.952257312E-02
   352  1.528974015E-02
   353 -5.416919079E-04
   354 -1.990128359E-03
   355  2.123972235E-03
   356  8.823990591E-03
   357  1.396941381E-02
   358  2.287303749E-02
   359  1.175529592E-02
   360  8.577934698E-04
   361 -3.986245514E-04
   362 -1.842402966E-03
   363  6.870680968E-03
   364  1.874590058E-03
   365  3.093920240E-03
   366  1.493667718E-03
   367  2.096905697E-05
   368 -7.642687174E-04
   369 -2.803936205E-04
   370  1.720790083E-03
   371  4.095652970E-03
   372  5.474683093E-03
   373  1.824011092E-03
   374 -3.971035919E-04
   375  7.107185516E-05
   376  4.011049362E-05
   377  8.529366558E-04
   378  1.849366242E-02
   379  2.319471452E-02
   380  1.361183120E-02
   381  8.853757466E-04
   382 -8.138145941E-04
   383 -1.839516533E-03
   384 -9.584849410E-04
   385  8.226653052E-03
   386  1.128777357E-02
   387  5.125014197E-03
   388  2.471699195E-04
   389  1.328862609E-03
   390  8.382137580E-04
   391  7.986514626E-04
   392 -1.780329621E-02
   393 -2.281864602E-02
   394 -1.302612753E-02
   395  3.245675901E-04
   396 -7.658072920E-04
   397  1.326728022E-03
   398  1.875638431E-03
   399 -6.988632513E-02
   400 -9.568963903E-02
   401 -4.515416801E-02
   402  4.770542518E-03
   403  3.121431499E-03
   404 -3.129634830E-03
   405 -9.713791194E-03
   406  4.805332053E-03
   407  8.173455101E-03
   408  3.811578788E-03
   409 -4.815373493E-04
   410  3.571988956E-03
   411  4.968798857E-03
   412 -4.146708458E-03
   413 -9.838306107E-03
   414 -1.038944826E-02
   415 -7.060531983E-03
   416 -8.985521005E-04
   417  2.615558987E-03
   418  6.176171958E-03
   419 -2.809893685E-03
   420  6.133503420E-02
   421  8.399646446E-02
   422  3.953370647E-02
   423 -2.880838095E-03
   424  3.755783891E-03
   425  3.263215011E-03
   426  8.407834096E-03
   427  1.303564547E-02
   428  1.467084963E-02
   429  9.493839437E-03
   430  1.685529080E-03
   431  2.242013070E-03
   432 -5.501962538E-03
   433  2.284828502E-03
   434 -8.536633015E-03
   435 -1.265787102E-02
   436 -6.278297611E-03
   437  1.109020298E-03
   438  3.389841385E-03
   439 -3.865054493E-03
   440  3.599451773E-03
Ene=   -3.6699604103E-01
Spin= Alpha
Occup=   2.0000000
     1 -2.392256451E-03
     2 -3.765112693E-03
     3  5.155228497E-03
     4 -2.519856684E-02
     5  6.023724599E-03
     6  1.043121465E-02
     7  7.781684034E-03
     8 -3.600013010E-02
     9  7.898747151E-03
    10  8.749572044E-03
    11 -4.406069781E-04
    12 -4.287916107E-02
    13  1.612893868E-02
    14  3.023006223E-03
    15  2.276214085E-04
    16  4.734700037E-03
    17 -3.618418700E-03
    18 -4.583203107E-03
    19 -1.579815419E-02
    20 -1.983348828E-02
    21 -2.752500944E-02
    22  7.346438436E-02
    23 -1.020697650E-03
    24 -1.607459899E-03
    25 -1.238279787E-03
    26 -2.585173607E-02
    27 -2.112944421E-03
    28  4.977533287E-03
    29 -2.850084713E-03
    30 -3.847430399E-02
    31 -2.641905957E-03
    32 -5.152327001E-03
    33 -3.328268130E-03
    34 -2.305818402E-02
    35 -3.502832768E-03
    36 -1.742828990E-03
    37 -2.560813602E-03
    38 -2.001477659E-03
    39 -9.032035636E-04
    40 -1.222430038E-04
    41 -1.153434394E-01
    42 -3.590840613E-02
    43  4.911481387E-03
    44  1.428824003E-02
    45 -2.399699594E-06
    46 -3.660113576E-06
    47 -3.210844743E-02
    48  9.861760730E-03
    49 -2.362278049E-02
    50  9.588900646E-06
    51 -4.721962287E-02
    52  1.450150277E-02
    53 -3.473707863E-02
    54  1.323104505E-06
    55 -3.571113146E-02
    56  1.085614683E-02
    57 -2.627932427E-02
    58  2.999698428E-03
    59  6.183214698E-04
    60 -5.553467072E-04
    61 -2.977265670E-03
    62  1.078931956E-03
    63 -6.153412566E-03
    64  9.874335492E-03
    65 -6.369535610E-03
    66  8.651445690E-03
    67  1.792053816E-03
    68  2.823000345E-03
    69  3.045604743E-02
    70 -5.352172874E-03
    71  2.719885504E-02
    72 -8.759934073E-03
    73  4.616413860E-02
    74 -7.980780668E-03
    75  3.891627273E-02
    76  9.402039205E-03
    77  2.563118497E-02
    78 -4.045492586E-03
    79  2.328270114E-02
    80 -1.007978009E-03
    81 -5.257203307E-04
    82  5.878506154E-04
    83 -4.743088592E-03
    84  1.440577732E-03
    85  2.262717214E-01
    86  1.483842339E-02
    87  4.291407632E-03
    88 -6.054983977E-02
    89  4.204731696E-03
    90  6.618352713E-03
    91  3.754748635E-02
    92 -7.413002525E-03
    93  2.612502801E-02
    94 -1.835724969E-02
    95  5.270764686E-02
    96 -1.049221600E-02
    97  3.841840294E-02
    98 -1.497302980E-02
    99  7.317762919E-02
   100 -1.304051756E-02
   101  2.904541060E-02
   102 -8.506212414E-03
   103 -3.042224691E-03
   104  7.558498315E-04
   105  5.980072615E-04
   106  3.212603438E-04
   107  4.379975167E-02
   108  1.391159134E-01
   109 -2.537619793E-02
   110 -6.340905855E-02
   111  1.706130749E-03
   112  2.699379058E-03
   113 -6.965865851E-03
   114  3.947715298E-02
   115  3.842254711E-02
   116 -7.919276478E-03
   117 -1.017550098E-02
   118  5.720306426E-02
   119  5.498795466E-02
   120 -2.291360947E-03
   121 -1.340447550E-02
   122  4.794361484E-02
   123  5.267774218E-02
   124 -1.240212450E-03
   125  7.182305638E-03
   126  6.034907698E-03
   127  2.008222180E-03
   128  1.628754862E-03
   129 -6.642970284E-02
   130 -3.203027996E-02
   131  6.121434956E-02
   132 -7.383602993E-03
   133 -7.696785881E-04
   134 -1.212299990E-03
   135  3.141850808E-03
   136  2.123901762E-02
   137 -1.297757690E-03
   138  3.759379073E-03
   139  3.836533511E-03
   140  3.192583130E-02
   141 -1.618643861E-03
   142 -4.104410771E-03
   143  5.985310791E-04
   144  2.007374005E-02
   145 -2.903575026E-03
   146 -1.563669686E-03
   147 -1.563634299E-03
   148  2.647179239E-03
   149 -2.202940335E-04
   150  2.385635598E-04
   151 -1.000098187E-01
   152 -3.274731395E-02
   153  4.568623451E-03
   154  5.709233277E-03
   155 -1.811529111E-03
   156 -2.851747950E-03
   157  9.390999536E-03
   158  1.659350983E-02
   159  6.157821447E-03
   160  7.921940710E-03
   161  1.371290645E-02
   162  2.366054711E-02
   163  8.246019847E-03
   164  6.218572093E-03
   165  8.524654477E-03
   166  3.095852939E-02
   167  1.458051161E-02
   168  3.026706004E-03
   169 -1.516683811E-04
   170 -4.753678600E-03
   171 -1.160456282E-03
   172  5.410660651E-03
   173 -2.687657681E-02
   174 -2.811516795E-03
   175  2.413331426E-02
   176  7.190614142E-02
   177  2.254547514E-03
   178  3.566419036E-03
   179 -2.280716730E-02
   180 -4.978934234E-02
   181  4.751933050E-02
   182 -1.044978564E-02
   183 -3.301581294E-02
   184 -7.196790660E-02
   185  6.804892103E-02
   186 -3.351036201E-03
   187 -3.397048173E-02
   188 -5.927008818E-02
   189  6.547221903E-02
   190 -3.178566768E-03
   191  5.651476264E-03
   192 -8.976681736E-03
   193 -2.048218065E-03
   194 -2.455804195E-03
   195 -9.535668098E-02
   196 -5.045302666E-02
   197 -5.508268106E-02
   198 -1.068811795E-02
   199 -3.954668183E-03
   200 -6.256228031E-03
   201  1.237515329E-01
   202 -1.852266939E-02
   203 -1.682809289E-02
   204  1.833828792E-02
   205  1.781342757E-01
   206 -2.663382419E-02
   207 -2.379531337E-02
   208  5.640079326E-03
   209  1.594145750E-01
   210 -2.334766226E-02
   211 -3.571818215E-02
   212  1.071627874E-02
   213 -1.174803144E-02
   214  1.805706310E-03
   215 -6.774277360E-03
   216  3.270942014E-03
   217  1.555916443E-01
   218  6.932072285E-02
   219 -1.201146973E-02
   220  8.688952251E-03
   221 -8.671300186E-04
   222 -1.401846308E-03
   223 -8.711833774E-03
   224  1.093569810E-02
   225 -9.497535236E-02
   226  5.785340801E-03
   227 -1.237535148E-02
   228  1.560410981E-02
   229 -1.351709630E-01
   230 -3.064625141E-02
   231  6.026122786E-03
   232  9.274627937E-03
   233 -1.014712434E-01
   234  1.622169887E-03
   235 -7.751667092E-03
   236  1.114232917E-03
   237  8.988078339E-03
   238 -2.357215789E-03
   239 -8.716610992E-02
   240  1.027890691E-02
   241 -3.890694143E-04
   242 -1.201509890E-02
   243  3.713081423E-04
   244  6.005975328E-04
   245 -6.338885104E-02
   246  1.218454977E-02
   247 -8.175707473E-03
   248 -2.494753005E-03
   249 -9.045732067E-02
   250  1.759908602E-02
   251 -1.182461985E-02
   252  1.343492312E-02
   253 -6.787010467E-02
   254  1.839081612E-02
   255 -4.322341387E-03
   256 -3.409621274E-03
   257  5.021129156E-03
   258 -7.523856286E-04
   259  5.175998150E-03
   260 -7.088126243E-04
   261  4.363247766E-02
   262 -1.341903098E-02
   263  1.120933497E-02
   264 -1.257010255E-03
   265  4.921180347E-04
   266  7.951873724E-04
   267 -6.835661783E-02
   268  1.998227453E-02
   269 -1.414697062E-04
   270 -3.269748290E-03
   271 -9.757199522E-02
   272  2.830556292E-02
   273 -3.792450917E-04
   274  1.719173968E-02
   275 -7.512914980E-02
   276  1.458311267E-02
   277  5.017188208E-03
   278 -4.156045650E-03
   279  6.081656202E-03
   280  2.115586808E-04
   281  4.078291041E-03
   282 -2.862908520E-03
   283  4.402643956E-02
   284 -1.631011655E-02
   285 -5.151523092E-03
   286 -6.237451402E-04
   287 -2.885295402E-03
   288 -5.893875041E-03
   289 -9.621669600E-04
   290 -3.935951083E-04
   291 -6.811934389E-04
   292  4.348103637E-04
   293 -8.348558708E-03
   294 -1.676672347E-02
   295 -2.205210272E-02
   296 -6.231899500E-03
   297  1.153356500E-03
   298  1.288040364E-04
   299  9.756625638E-04
   300 -5.552769299E-05
   301 -3.139099878E-06
   302 -1.531652676E-05
   303  1.545862076E-04
   304 -1.707915461E-03
   305  5.270240469E-04
   306 -1.255965861E-03
   307  7.052056494E-05
   308  1.793550953E-02
   309  2.533500998E-02
   310  6.294974292E-03
   311  8.069645009E-04
   312 -1.757659943E-03
   313 -1.751691629E-05
   314  6.344272282E-03
   315  1.656581790E-02
   316  2.378832487E-02
   317  5.906749577E-03
   318  1.348609990E-03
   319  1.287300903E-03
   320  1.250573000E-04
   321  8.680329818E-03
   322 -3.451871381E-02
   323 -4.351821175E-02
   324 -1.601351514E-02
   325  2.354275199E-03
   326  1.324249302E-03
   327 -1.182366486E-03
   328  7.611953762E-03
   329  4.283788262E-02
   330  5.574873776E-02
   331  2.559777808E-02
   332 -1.814948029E-03
   333 -2.007622007E-03
   334 -7.676664007E-04
   335 -1.130182461E-02
   336  1.084517749E-04
   337 -1.858474908E-03
   338  2.931047515E-04
   339 -3.240448302E-05
   340  4.567283692E-04
   341  5.495261854E-04
   342 -7.719168215E-03
   343 -1.497895417E-02
   344 -1.933241671E-02
   345 -5.619972665E-03
   346  9.218958117E-04
   347 -5.981338677E-04
   348  7.304788831E-04
   349  6.296057904E-04
   350 -4.553717020E-02
   351 -5.745498530E-02
   352 -2.133951537E-02
   353  2.402688368E-03
   354 -2.482610513E-03
   355 -1.792395087E-03
   356  8.733862399E-03
   357  5.651151383E-02
   358  7.354866388E-02
   359  3.372005085E-02
   360 -1.339098699E-03
   361  3.393900145E-03
   362 -6.494840413E-04
   363 -1.333620660E-02
   364 -9.933550542E-02
   365 -1.293054187E-01
   366 -5.918078767E-02
   367 -4.711621859E-03
   368  1.029659224E-03
   369 -4.371046666E-03
   370  2.460689457E-02
   371  8.006455733E-02
   372  1.009927124E-01
   373  3.732760898E-02
   374  4.571102622E-04
   375 -4.401977535E-04
   376  6.809903626E-03
   377 -1.645693114E-02
   378 -4.448563843E-02
   379 -6.032426250E-02
   380 -3.137320604E-02
   381  1.168046844E-03
   382  5.679253608E-03
   383 -2.182306880E-03
   384  3.894944330E-03
   385  6.429265522E-02
   386  8.960719971E-02
   387  3.620480181E-02
   388 -5.338531563E-03
   389  1.099946880E-03
   390  1.889612240E-03
   391 -2.618671769E-03
   392 -5.074790938E-02
   393 -6.877161723E-02
   394 -3.572714929E-02
   395 -6.340628285E-04
   396 -5.793962781E-03
   397 -2.358910705E-03
   398  3.143549885E-03
   399 -2.773022271E-02
   400 -3.867306589E-02
   401 -1.524738173E-02
   402 -1.804669211E-03
   403  1.075720590E-03
   404 -3.855204761E-03
   405  1.219058846E-03
   406  5.643608187E-02
   407  7.649618619E-02
   408  3.779210187E-02
   409  3.705612998E-03
   410 -1.523470130E-03
   411  1.680117022E-03
   412 -5.264129743E-03
   413 -1.538431599E-02
   414 -2.088111751E-02
   415 -8.316198554E-03
   416 -3.362444142E-03
   417 -1.044300091E-03
   418  8.607005775E-04
   419  1.530551544E-03
   420 -3.656497419E-02
   421 -5.093417910E-02
   422 -2.104667556E-02
   423 -1.486075619E-03
   424  4.755272629E-04
   425 -4.379820356E-03
   426  1.457826606E-03
   427 -5.640843022E-03
   428 -7.646163345E-03
   429 -2.116164678E-03
   430 -3.654129657E-03
   431  1.634219441E-03
   432  6.264933783E-04
   433  1.764846357E-03
   434  5.981127814E-02
   435  8.110006647E-02
   436  3.980764274E-02
   437  4.152198066E-03
   438  6.285572985E-04
   439  2.387802514E-03
   440 -4.768176139E-03
Ene=   -3.6699368968E-01
Spin= Alpha
Occup=   2.0000000
     1 -3.477358237E-03
     2 -5.473525642E-03
     3  1.033999810E-02
     4 -3.539603304E-02
     5  1.076842761E-02
     6  1.518860060E-02
     7  1.546370484E-02
     8 -5.052045245E-02
     9  1.441850867E-02
    10  1.228433690E-02
    11  1.078487511E-02
    12 -5.736045047E-02
    13  3.143578223E-02
    14 -5.471228963E-03
    15 -3.794837814E-03
    16  2.505975856E-03
    17  1.233585779E-03
    18 -4.744391395E-03
    19 -4.190467215E-02
    20 -5.038333353E-02
    21 -5.433958440E-02
    22  1.019100105E-01
    23 -1.492727924E-03
    24 -2.351033315E-03
    25  1.673467664E-02
    26 -2.912044717E-02
    27  9.600685569E-03
    28  7.275152592E-03
    29  2.427998921E-02
    30 -4.295660050E-02
    31  1.561067125E-02
    32 -7.536727715E-03
    33  1.604334469E-02
    34 -2.386868977E-02
    35  9.019014857E-03
    36  1.529615239E-03
    37 -1.593073763E-03
    38 -2.059759636E-03
    39 -2.697504494E-03
    40 -2.073159785E-03
    41 -1.782409485E-01
    42 -2.239650633E-02
    43  2.352717284E-02
    44  3.880370463E-02
    45  1.661477396E-08
    46  5.169075751E-08
    47  9.232229283E-03
    48  3.980128369E-02
    49  4.043942797E-03
    50 -8.765654340E-07
    51  1.357868533E-02
    52  5.854019787E-02
    53  5.949854191E-03
    54 -8.231297333E-07
    55  1.024861622E-02
    56  4.413281159E-02
    57  4.464623103E-03
    58 -6.254491455E-04
    59 -6.705443046E-04
    60 -4.153179185E-03
    61  4.454926649E-04
    62  1.228923475E-03
    63  2.135956274E-03
    64 -1.237264969E-03
    65 -1.285312378E-02
    66 -9.890547211E-04
    67 -1.423862478E-04
    68 -2.243417275E-04
    69 -2.523649212E-04
    70  1.355420355E-02
    71 -1.453600718E-03
    72  6.962218616E-04
    73 -3.367961957E-04
    74  2.080407050E-02
    75 -2.004574333E-03
    76 -7.542798601E-04
    77  4.142421419E-04
    78  1.511327284E-02
    79 -1.056010451E-03
    80  2.310498319E-04
    81  1.841357986E-04
    82  1.610974725E-03
    83 -3.243381807E-04
    84 -2.453980338E-03
    85 -2.299557059E-02
    86  3.114580976E-03
    87  2.031402353E-02
    88  6.413985112E-03
    89 -3.350857302E-04
    90 -5.275552044E-04
    91 -2.640187621E-03
    92  2.649552895E-03
    93 -1.969857069E-03
    94  1.467647831E-03
    95 -3.686917073E-03
    96  3.840439171E-03
    97 -2.895251641E-03
    98  1.150288897E-03
    99 -4.464521282E-03
   100  9.285465560E-03
   101 -1.873074396E-03
   102  9.933097149E-05
   103 -5.649479249E-04
   104 -6.332465145E-03
   105  9.957911333E-04
   106  4.089377827E-03
   107 -5.184050003E-03
   108 -1.478609258E-02
   109 -9.219173859E-03
   110  5.832982944E-03
   111 -3.594596631E-03
   112 -5.686337921E-03
   113 -2.596424959E-03
   114 -6.512861870E-02
   115 -9.409544059E-02
   116  1.665667351E-02
   117 -4.181118493E-03
   118 -9.375712092E-02
   119 -1.353687219E-01
   120  5.334758006E-03
   121  6.847866728E-03
   122 -7.884496747E-02
   123 -1.269710067E-01
   124  2.890830175E-03
   125 -9.464894903E-03
   126 -7.576221715E-03
   127  9.766567072E-03
   128 -3.787350349E-03
   129  1.258639369E-01
   130 -2.912132500E-02
   131 -2.426639736E-02
   132 -6.076495416E-02
   133  1.636872052E-03
   134  2.578112141E-03
   135 -2.582903380E-02
   136 -2.473559431E-02
   137 -1.222853076E-02
   138 -7.978886735E-03
   139 -3.755830613E-02
   140 -3.656260204E-02
   141 -1.954913062E-02
   142  8.279839010E-03
   143 -2.308409413E-02
   144 -1.984643419E-02
   145 -1.088280159E-02
   146 -1.710622699E-03
   147  8.249908451E-04
   148 -2.735358799E-03
   149  6.665742142E-04
   150 -3.401740275E-03
   151  1.943932499E-01
   152  3.382489159E-02
   153  1.970262536E-02
   154 -3.700627025E-02
   155  3.808030299E-03
   156  5.994084097E-03
   157 -2.270182457E-02
   158 -3.194540583E-02
   159 -1.536212726E-02
   160 -1.663495412E-02
   161 -3.314406488E-02
   162 -4.546628556E-02
   163 -2.086422293E-02
   164 -1.341264064E-02
   165 -2.973716364E-02
   166 -5.288637771E-02
   167 -3.983727649E-02
   168  5.331223284E-03
   169  3.903973834E-03
   170  1.256928534E-03
   171 -3.710371229E-03
   172 -4.368277558E-03
   173  4.186294574E-02
   174  3.421307016E-02
   175 -6.627108510E-02
   176 -1.170772679E-01
   177  3.279827018E-03
   178  5.188519463E-03
   179 -1.661013451E-02
   180 -6.485574574E-02
   181  8.029058724E-02
   182 -1.520414705E-02
   183 -2.345818370E-02
   184 -9.345283403E-02
   185  1.155430697E-01
   186 -4.788245841E-03
   187 -2.885192655E-02
   188 -7.677400552E-02
   189  1.092618081E-01
   190 -3.918711402E-03
   191  5.919784396E-03
   192 -7.078911382E-03
   193 -1.095337585E-02
   194  2.825634983E-03
   195 -1.150234654E-01
   196  3.038474706E-02
   197 -2.884819038E-02
   198  6.037224952E-02
   199  3.153190958E-04
   200  4.990609259E-04
   201 -7.873342533E-03
   202  1.340250558E-02
   203  1.966124007E-03
   204 -1.466156773E-03
   205 -1.124658707E-02
   206  1.980661042E-02
   207  2.825681349E-03
   208 -4.285600630E-04
   209 -1.023010496E-02
   210  1.670818082E-02
   211  3.633502078E-03
   212 -3.305963566E-04
   213  2.057378782E-03
   214  5.449707765E-03
   215  2.034630317E-03
   216  3.218393117E-03
   217 -1.137741997E-03
   218  7.437049475E-03
   219  7.650792882E-02
   220  5.186615427E-03
   221  6.899930365E-05
   222  1.115817913E-04
   223  9.773600566E-03
   224  5.423667074E-02
   225  1.048584790E-02
   226 -4.642674399E-04
   227  1.397988910E-02
   228  7.761550505E-02
   229  1.494605073E-02
   230  2.495926707E-03
   231  9.455517585E-03
   232  5.974579251E-02
   233  1.127478998E-02
   234  4.151710338E-04
   235  1.747806816E-03
   236  5.775906931E-03
   237  5.740434190E-04
   238  3.008065083E-03
   239  6.847016145E-03
   240  2.337840879E-03
   241  1.743952868E-02
   242  1.874669999E-03
   243 -7.857942907E-04
   244 -1.270553004E-03
   245  5.433655412E-02
   246  5.644200265E-02
   247 -4.440209634E-02
   248  5.254787965E-03
   249  7.722169783E-02
   250  8.044275103E-02
   251 -6.329702425E-02
   252 -2.793496108E-02
   253  5.617172363E-02
   254  5.138235316E-02
   255 -5.827474430E-02
   256  6.221927598E-03
   257 -5.666021539E-03
   258  7.246644351E-03
   259  2.767370861E-03
   260  4.332417108E-04
   261 -7.516022288E-02
   262  3.773953390E-03
   263  4.363450069E-03
   264 -1.497884041E-02
   265  7.187304059E-04
   266  1.162142179E-03
   267 -2.365806537E-02
   268  6.358336530E-02
   269  5.161826674E-02
   270 -4.803060200E-03
   271 -3.348933523E-02
   272  9.057187588E-02
   273  7.360403017E-02
   274  2.547471287E-02
   275 -2.617787816E-02
   276  5.882562715E-02
   277  6.426719293E-02
   278 -4.366345353E-03
   279  7.120627371E-03
   280  6.306959640E-03
   281 -2.153054603E-03
   282  1.585009062E-03
   283  6.858359151E-02
   284  3.191383884E-04
   285  4.199263699E-03
   286  1.582548664E-02
   287 -1.909610754E-02
   288 -2.591398226E-02
   289 -7.196883509E-03
   290 -1.318379920E-03
   291 -1.215207940E-03
   292 -4.357462327E-04
   293 -3.355741480E-03
   294 -9.457230385E-03
   295 -1.472196745E-02
   296 -3.468572454E-03
   297  5.371330896E-04
   298 -4.455234783E-04
   299  1.191881624E-03
   300 -8.392600913E-03
   301  4.642905754E-06
   302  1.414375576E-05
   303 -1.637423342E-05
   304  4.917171854E-04
   305  2.117196200E-03
   306  2.141506969E-04
   307  1.194058562E-04
   308  6.824976091E-03
   309  7.517576191E-03
   310  2.690878220E-03
   311 -4.273502306E-04
   312 -5.041073482E-04
   313  1.063950966E-04
   314 -5.039984209E-03
   315 -9.557588519E-03
   316 -1.142093508E-02
   317 -3.627630524E-03
   318  3.328028036E-05
   319 -8.125164650E-04
   320 -1.860921722E-04
   321  3.917150437E-03
   322  7.245958930E-02
   323  9.135937451E-02
   324  3.413295339E-02
   325 -4.895454810E-03
   326 -2.837548748E-03
   327  2.518459396E-03
   328 -1.557146152E-02
   329 -8.999930887E-02
   330 -1.171772044E-01
   331 -5.328050606E-02
   332  3.494824739E-03
   333  4.545109588E-03
   334  1.371020872E-03
   335  2.243757002E-02
   336  1.931851634E-02
   337  2.653084692E-02
   338  7.252627495E-03
   339  8.669792761E-04
   340 -1.704930587E-03
   341  2.002010534E-04
   342  4.352163281E-03
   343  1.196803087E-02
   344  1.800142779E-02
   345  4.362957790E-03
   346 -7.866870043E-04
   347 -2.989061537E-05
   348 -1.354194824E-03
   349  8.417232202E-03
   350 -6.610414048E-02
   351 -8.336513036E-02
   352 -3.103191495E-02
   353  3.436961819E-03
   354 -3.631053273E-03
   355 -2.633034334E-03
   356  1.396005824E-02
   357  8.210215733E-02
   358  1.068934879E-01
   359  4.860886495E-02
   360 -1.643142026E-03
   361  5.067485136E-03
   362 -7.406000948E-04
   363 -2.034132429E-02
   364  7.898147770E-03
   365  1.029422401E-02
   366  4.559362910E-03
   367  4.107969710E-04
   368  1.346257104E-04
   369  3.588636684E-04
   370 -2.075530713E-03
   371 -6.362397483E-03
   372 -8.006397138E-03
   373 -3.113197030E-03
   374 -4.256273673E-05
   375 -2.845844752E-09
   376 -5.429408564E-04
   377  1.280157970E-03
   378  4.350533708E-02
   379  5.898963714E-02
   380  2.803464539E-02
   381 -8.967106619E-04
   382 -1.887334379E-03
   383 -2.685171453E-03
   384 -4.520587858E-03
   385 -5.114175196E-03
   386 -7.143590226E-03
   387 -2.719810561E-03
   388  1.078731997E-03
   389  3.881209758E-03
   390  6.021415743E-05
   391  1.340902731E-04
   392 -3.593373160E-02
   393 -4.873683187E-02
   394 -2.252575310E-02
   395  3.029492334E-04
   396 -1.444576328E-03
   397  2.868946027E-03
   398  3.790195488E-03
   399  5.814195566E-02
   400  8.105684983E-02
   401  3.255801525E-02
   402 -1.880008903E-03
   403  3.649879755E-03
   404  3.646497378E-03
   405 -2.148043193E-03
   406 -2.611472632E-02
   407 -3.537922860E-02
   408 -1.975021863E-02
   409 -2.219124454E-04
   410  4.184089597E-03
   411 -3.666798751E-03
   412  1.787992724E-03
   413 -6.015882128E-02
   414 -8.153512223E-02
   415 -4.153493337E-02
   416  4.281559509E-03
   417 -3.747174606E-03
   418  2.093586447E-03
   419  5.196166932E-03
   420 -5.303681557E-02
   421 -7.394184102E-02
   422 -2.973445319E-02
   423  3.287804724E-03
   424  3.178557853E-03
   425 -2.620988905E-03
   426  2.171868243E-03
   427  6.183857245E-02
   428  8.383669802E-02
   429  4.206405220E-02
   430 -4.700671835E-03
   431 -2.230009200E-03
   432 -2.528348050E-03
   433 -5.615336979E-03
   434  1.686345746E-02
   435  2.283675825E-02
   436  1.360302483E-02
   437  8.394983804E-04
   438  3.433035808E-03
   439  3.747166971E-03
   440 -5.378757553E-04
Ene=   -3.6406790617E-01
Spin= Alpha
Occup=   2.0000000
     1 -2.564530857E-06
     2 -4.033867460E-06
     3 -1.504710144E-02
     4 -6.924946176E-03
     5 -1.030664257E-02
     6  9.549412810E-06
     7 -2.222386405E-02
     8 -1.021496224E-02
     9 -1.522440095E-02
    10 -3.644448841E-05
    11 -1.631389820E-02
    12 -7.713319387E-03
    13 -1.112662517E-02
    14 -6.623378909E-03
    15 -3.890256754E-03
    16 -4.782346093E-04
    17  1.090890305E-03
    18  4.109999771E-03
    19  8.788531669E-04
    20  4.299417624E-02
    21  1.182619794E-02
    22  3.511572680E-02
    23 -3.440900283E-06
    24 -5.750178398E-06
    25 -7.783480914E-02
    26 -3.555254742E-02
    27 -5.341156662E-02
    28  2.702082561E-05
    29 -1.124025411E-01
    30 -5.134357357E-02
    31 -7.713336489E-02
    32 -1.313675187E-04
    33 -9.840471117E-02
    34 -4.487329902E-02
    35 -6.747603180E-02
    36 -2.244645655E-03
    37  1.790470675E-03
    38 -6.992906576E-03
    39  9.435504652E-03
    40 -6.483925028E-03
    41 -2.286752229E-03
    42 -3.920161664E-02
    43 -1.736485640E-02
    44 -2.678295808E-02
    45 -8.910301153E-07
    46 -1.260789515E-06
    47  1.948124979E-05
    48  5.858612416E-05
    49  8.831019122E-06
    50 -1.736534365E-06
    51  1.928868356E-05
    52  9.247718955E-05
    53  8.717468399E-06
    54  9.789275528E-05
    55 -8.125070782E-06
    56  2.615155308E-05
    57  1.762336290E-05
    58  5.495813916E-07
    59 -4.281299600E-06
    60 -5.756594897E-06
    61  1.911386398E-06
    62  4.169554523E-06
    63 -7.900076787E-03
    64 -4.043751353E-04
    65  1.278795314E-03
    66  8.577838921E-04
    67 -5.027927347E-07
    68  9.192350970E-08
    69  1.638393210E-02
    70  9.945107635E-02
    71  5.293521122E-03
    72 -2.496802236E-05
    73  2.366276564E-02
    74  1.436155501E-01
    75  7.639957393E-03
    76  3.820702147E-04
    77  2.070883758E-02
    78  1.257960720E-01
    79  6.614267160E-03
    80  1.124758690E-03
    81  2.311548799E-03
    82  1.210773488E-02
    83  2.505225544E-03
    84  5.372701128E-03
    85  1.693153049E-03
    86  6.827711747E-03
    87  5.017871201E-02
    88  2.871702897E-03
    89 -3.164542719E-07
    90 -2.495552831E-07
    91  3.164767278E-03
    92  1.923739486E-02
    93  1.017614784E-03
    94 -2.406513621E-07
    95  4.662011727E-03
    96  2.841772157E-02
    97  1.499067048E-03
    98  1.059356825E-04
    99  3.565838948E-03
   100  2.077156910E-02
   101  1.104366360E-03
   102  3.159680789E-04
   103  1.367706575E-04
   104  3.433045750E-03
   105 -2.417457645E-03
   106 -7.702405835E-03
   107 -8.179685754E-03
   108 -1.122193685E-03
   109 -5.363742427E-02
   110  1.036626182E-03
   111 -6.489853631E-06
   112 -1.008080972E-05
   113  8.041535778E-03
   114 -8.475032088E-03
   115  6.137638285E-03
   116  2.314937833E-05
   117  1.249421953E-02
   118 -1.315850468E-02
   119  9.552727026E-03
   120  1.154379109E-04
   121  5.270729146E-03
   122 -5.582752394E-03
   123  3.984571174E-03
   124  1.606447069E-03
   125 -1.917903777E-04
   126 -1.847976351E-03
   127 -2.525077512E-03
   128  1.016392425E-03
   129 -1.650423759E-03
   130  3.230367244E-02
   131 -3.311839106E-02
   132  2.463993277E-02
   133  3.428082763E-06
   134  5.797682107E-06
   135  6.144705878E-02
   136 -6.394710319E-02
   137  4.811363436E-02
   138 -2.584871853E-05
   139  8.873659919E-02
   140 -9.233982487E-02
   141  6.947993202E-02
   142  9.638341096E-05
   143  7.775992532E-02
   144 -8.095230093E-02
   145  6.080804223E-02
   146  1.121868468E-03
   147 -4.104190506E-03
   148 -5.122796711E-03
   149 -1.195239581E-02
   150  1.105123548E-03
   151  6.172201070E-03
   152  3.195793267E-02
   153 -3.144482068E-02
   154  2.513710435E-02
   155  3.392420626E-06
   156  5.258401205E-06
   157  1.184913522E-02
   158 -1.241295343E-02
   159  9.273139879E-03
   160 -6.768180017E-06
   161  1.749587075E-02
   162 -1.832543852E-02
   163  1.369486974E-02
   164 -1.505202804E-04
   165  1.280167786E-02
   166 -1.337412346E-02
   167  9.979625876E-03
   168  6.304174761E-03
   169  3.749454649E-03
   170 -2.957001059E-03
   171  1.321239935E-03
   172  3.579642488E-03
   173 -1.376715245E-02
   174 -3.731364076E-02
   175  4.051936057E-02
   176 -2.710563509E-02
   177  8.258938726E-06
   178  1.403034198E-05
   179 -1.019473855E-02
   180 -4.733192403E-03
   181 -6.897261162E-03
   182 -6.324786357E-05
   183 -1.584220768E-02
   184 -7.342601548E-03
   185 -1.072996619E-02
   186  2.157161129E-04
   187 -6.776903234E-03
   188 -3.144679890E-03
   189 -4.404771412E-03
   190 -1.938548688E-03
   191 -3.919032101E-04
   192 -1.759691084E-03
   193  2.443543184E-03
   194 -6.525335965E-04
   195  2.383972422E-02
   196 -4.636273443E-02
   197 -1.656653199E-02
   198 -2.844969288E-02
   199 -1.051633743E-06
   200 -2.140933811E-06
   201  2.080204539E-03
   202  1.302377334E-02
   203  7.120431676E-04
   204  1.960638808E-05
   205  3.237405032E-03
   206  2.024127152E-02
   207  1.104435176E-03
   208 -2.318729302E-04
   209  1.312540992E-03
   210  8.454708258E-03
   211  3.546832958E-04
   212  3.266962271E-04
   213  5.795331982E-04
   214  3.591825571E-03
   215  8.513709203E-05
   216 -3.618690455E-04
   217 -8.482332473E-03
   218  9.170090970E-03
   219  5.580606291E-02
   220  4.078505770E-04
   221 -4.058870632E-07
   222 -3.430508720E-07
   223 -1.156983674E-02
   224 -7.017877405E-02
   225 -3.711970509E-03
   226 -3.168135269E-06
   227 -1.644555415E-02
   228 -9.978428061E-02
   229 -5.278567460E-03
   230 -3.175161186E-05
   231 -1.322355380E-02
   232 -8.025127184E-02
   233 -4.198368276E-03
   234 -7.443829727E-04
   235 -1.586066852E-03
   236 -8.005456815E-03
   237 -2.023821448E-03
   238 -4.623522077E-03
   239 -5.182370056E-03
   240 -2.062240671E-03
   241 -1.611787955E-02
   242 -9.557443870E-04
   243 -8.771133956E-07
   244 -9.100688219E-07
   245 -4.332582645E-02
   246  4.519975873E-02
   247 -3.403259268E-02
   248 -8.538127891E-06
   249 -6.159341492E-02
   250  6.425758520E-02
   251 -4.838652495E-02
   252  1.444058136E-04
   253 -4.957068512E-02
   254  5.177562353E-02
   255 -3.889789756E-02
   256 -4.127298926E-05
   257  3.277478025E-03
   258  3.224552109E-03
   259  8.452277609E-03
   260 -3.519803308E-04
   261  6.582785849E-03
   262 -9.476326128E-03
   263  1.146531603E-02
   264 -6.711244434E-03
   265  1.003814472E-06
   266  1.816520020E-06
   267  5.500866013E-02
   268  2.518433790E-02
   269  3.781313413E-02
   270 -1.848416101E-05
   271  7.821137023E-02
   272  3.581116223E-02
   273  5.376264777E-02
   274  1.949602513E-04
   275  6.295220763E-02
   276  2.871424260E-02
   277  4.330929376E-02
   278  7.957722061E-04
   279 -1.692051342E-03
   280  4.810853099E-03
   281 -6.437250076E-03
   282  4.979840181E-03
   283  8.786462332E-03
   284  1.235366408E-02
   285  4.195742036E-03
   286  9.412325872E-03
   287  7.272954028E-02
   288  9.491784579E-02
   289  4.031426973E-02
   290  4.440535601E-03
   291 -3.037879549E-03
   292 -2.191227783E-04
   293 -1.393297480E-02
   294 -7.277671646E-02
   295 -9.498221334E-02
   296 -4.052214523E-02
   297 -9.765074721E-04
   298  4.613441074E-03
   299  2.597634234E-03
   300  1.394826687E-02
   301  2.757283192E-06
   302 -3.533631496E-05
   303  2.372946508E-04
   304  1.406683781E-06
   305  3.017084236E-06
   306  3.713217525E-06
   307  1.225577770E-05
   308  7.278856361E-02
   309  9.497639578E-02
   310  4.056758589E-02
   311 -1.803285908E-03
   312 -1.724875060E-03
   313 -4.772204608E-03
   314 -1.460343033E-02
   315 -7.279114858E-02
   316 -9.500748925E-02
   317 -4.009829810E-02
   318  1.074616577E-03
   319 -2.698639080E-03
   320  4.536125632E-03
   321  1.410703485E-02
   322  1.253316041E-04
   323  1.598410940E-04
   324  2.137714963E-04
   325  2.066670035E-04
   326 -2.298867523E-04
   327  1.732562838E-04
   328 -2.513513980E-05
   329 -1.540142756E-04
   330 -2.238795656E-04
   331 -6.833913444E-05
   332  2.421153910E-04
   333 -2.366356767E-04
   334  1.884756696E-04
   335 -1.802478821E-04
   336 -7.275073250E-02
   337 -9.490049699E-02
   338 -4.057350625E-02
   339 -5.182191409E-03
   340 -1.461593009E-03
   341 -1.908655460E-05
   342  1.429642683E-02
   343  7.279521917E-02
   344  9.497844397E-02
   345  4.038995054E-02
   346  2.447700213E-03
   347  4.301525628E-03
   348 -2.120552593E-03
   349 -1.464676294E-02
   350 -7.752071372E-05
   351 -6.311911275E-05
   352 -3.087858864E-04
   353 -2.681822041E-04
   354 -1.290646508E-04
   355 -1.907294127E-04
   356  3.038918742E-04
   357  9.856421257E-05
   358  1.302897356E-04
   359 -2.030545451E-04
   360 -2.994097688E-04
   361 -1.327322248E-04
   362 -2.046468063E-04
   363 -3.358627307E-04
   364  5.374097758E-05
   365  6.268394726E-05
   366  1.529557362E-04
   367  6.680641932E-05
   368  3.798337833E-04
   369  2.327074986E-05
   370 -9.493264286E-05
   371 -4.348832704E-05
   372 -8.092221912E-05
   373  9.517120814E-05
   374  5.765439421E-05
   375  3.499051575E-04
   376  1.528474445E-05
   377 -8.308555138E-04
   378 -5.201704105E-02
   379 -7.169259092E-02
   380 -3.244569939E-02
   381  1.076199830E-03
   382  1.288778533E-03
   383  4.357296895E-03
   384  3.225202459E-03
   385 -1.708408524E-05
   386 -9.253068417E-06
   387 -4.190964350E-05
   388 -7.126834249E-04
   389 -4.324672405E-03
   390 -2.309849331E-04
   391  6.129487246E-05
   392  5.203974965E-02
   393  7.173289373E-02
   394  3.227224997E-02
   395 -5.328466269E-04
   396  2.010557428E-03
   397 -4.181463546E-03
   398 -2.692453905E-03
   399  6.790175017E-05
   400  8.577204200E-05
   401  1.617796077E-04
   402 -2.675786313E-03
   403  2.785624948E-03
   404 -2.091043484E-03
   405  2.562363837E-04
   406  5.198944516E-02
   407  7.166883451E-02
   408  3.215444407E-02
   409  4.467645421E-03
   410  1.244288375E-03
   411 -5.582904695E-04
   412 -3.464398614E-03
   413 -5.211757954E-02
   414 -7.183168696E-02
   415 -3.220975344E-02
   416 -2.420568471E-03
   417 -3.363658347E-03
   418  2.158624770E-03
   419  3.519959144E-03
   420 -3.675428708E-05
   421 -7.845435673E-05
   422  1.575528529E-04
   423  3.395342757E-03
   424  1.551693904E-03
   425  2.324513199E-03
   426  1.474225202E-04
   427  5.215757051E-02
   428  7.187527825E-02
   429  3.245584361E-02
   430  1.257367005E-03
   431 -3.721285965E-03
   432 -2.537095405E-03
   433 -2.963338368E-03
   434 -5.206895338E-02
   435 -7.178388147E-02
   436 -3.217003099E-02
   437 -3.849942511E-03
   438  2.546231095E-03
   439  7.575520933E-04
   440  2.954053241E-03
Ene=   -3.2593731592E-01
Spin= Alpha
Occup=   2.0000000
     1 -1.805834952E-04
     2 -2.862801088E-04
     3  3.864242082E-02
     4  3.876823181E-02
     5  5.742451523E-02
     6  8.615091412E-04
     7  5.701625780E-02
     8  5.689867659E-02
     9  8.449587669E-02
    10  2.296361269E-03
    11  4.444795195E-02
    12  4.392791244E-02
    13  6.191178921E-02
    14  7.038943488E-03
    15  2.517129509E-03
    16 -8.887080952E-03
    17  8.862382736E-03
    18 -5.341153036E-03
    19  4.460473502E-02
    20 -1.838360556E-02
    21  3.106660515E-02
    22 -4.008191686E-02
    23 -6.198160221E-03
    24 -9.854992394E-03
    25  4.094670116E-02
    26 -4.751185855E-02
    27  5.980535176E-03
    28  2.893382762E-02
    29  5.903193578E-02
    30 -6.957744991E-02
    31  8.483389423E-03
    32  3.441791183E-02
    33  4.928200907E-02
    34 -6.078334685E-02
    35  5.912477450E-03
    36 -3.361567893E-03
    37 -8.429871537E-03
    38 -3.972739423E-03
    39 -4.072743261E-03
    40  6.380904399E-03
    41 -2.616467437E-03
    42  8.622212504E-03
    43  3.939461345E-03
    44 -1.937234787E-04
    45 -2.740043979E-06
    46 -4.116939374E-06
    47 -8.580320781E-02
    48  1.530911275E-02
    49 -6.240415613E-02
    50  5.114902808E-06
    51 -1.265077195E-01
    52  2.257948718E-02
    53 -9.200646739E-02
    54  8.962619066E-05
    55 -8.206859203E-02
    56  1.455544169E-02
    57 -5.976627628E-02
    58  8.461570667E-03
    59 -8.404688825E-05
    60  3.515196795E-04
    61 -1.376409140E-02
    62  4.664222253E-03
    63  7.843209607E-03
    64 -2.270336915E-02
    65  5.745508390E-03
    66 -1.821900370E-02
    67  1.284815872E-02
    68  2.042768776E-02
    69  6.743435610E-02
    70 -1.628041248E-02
    71  1.040737054E-01
    72 -5.995872359E-02
    73  9.861414404E-02
    74 -2.378562167E-02
    75  1.515029378E-01
    76 -7.152318401E-02
    77  8.492398373E-02
    78 -2.055171874E-02
    79  1.310114312E-01
    80  2.599266144E-03
    81  4.896730223E-03
    82 -2.537759183E-04
    83 -1.419359257E-02
    84  4.773704899E-03
    85  4.241477777E-03
    86 -3.764500899E-03
    87 -8.410101473E-04
    88  4.108854192E-03
    89  3.722010485E-04
    90  5.897352387E-04
    91  1.176410444E-02
    92  2.950431068E-03
    93 -5.875597664E-02
    94 -1.758819413E-03
    95  1.747349249E-02
    96  4.299346652E-03
    97 -8.606591758E-02
    98 -4.890638330E-03
    99  8.882757983E-03
   100  3.799835791E-03
   101 -6.241760121E-02
   102  6.286831225E-03
   103  1.084445235E-02
   104 -2.301159427E-03
   105 -4.966983590E-03
   106  7.881217153E-04
   107 -9.646331413E-02
   108 -9.630199821E-02
   109  2.379774314E-02
   110 -2.095915101E-02
   111 -7.203953326E-03
   112 -1.146096616E-02
   113 -5.152777213E-02
   114 -3.507370809E-02
   115 -3.037221056E-03
   116  3.377257195E-02
   117 -7.524158466E-02
   118 -5.062240255E-02
   119 -4.198707821E-03
   120  3.133562079E-02
   121 -6.102773067E-02
   122 -4.577951386E-02
   123 -4.184093512E-03
   124 -6.206925395E-03
   125 -9.264202083E-04
   126 -3.622314898E-03
   127  3.564589057E-04
   128 -6.766154335E-03
   129  6.578123667E-02
   130  3.139207157E-03
   131 -1.408964755E-02
   132 -7.024547605E-04
   133 -6.649105523E-03
   134 -1.057208267E-02
   135  5.673699797E-02
   136  3.433718208E-02
   137  1.000695113E-02
   138  3.104412568E-02
   139  8.219883529E-02
   140  5.057957838E-02
   141  1.441655768E-02
   142  3.683199312E-02
   143  6.958152832E-02
   144  4.500117835E-02
   145  1.117797271E-02
   146 -1.895087713E-03
   147 -7.014049361E-03
   148  8.047585179E-03
   149 -6.248146261E-03
   150 -1.836939212E-03
   151 -6.506681521E-03
   152  5.240565264E-03
   153 -6.301162274E-03
   154  2.091243068E-03
   155 -1.940131751E-04
   156 -3.073694822E-04
   157  2.062747217E-02
   158 -5.438195711E-02
   159  5.295272211E-02
   160  9.164534651E-04
   161  3.055907465E-02
   162 -7.992152541E-02
   163  7.792152277E-02
   164  2.552248252E-03
   165  2.411464886E-02
   166 -6.156615364E-02
   167  5.673341762E-02
   168  8.568005023E-03
   169  4.770848273E-03
   170  5.265257344E-03
   171  1.056144634E-02
   172 -2.094148082E-03
   173  4.779879352E-02
   174 -3.259819171E-02
   175 -2.132098577E-02
   176 -4.838421103E-02
   177 -6.719673089E-03
   178 -1.069032024E-02
   179 -3.579166902E-02
   180  4.613935958E-02
   181  8.021316923E-04
   182  3.150399943E-02
   183 -5.246606072E-02
   184  6.682084168E-02
   185  1.319625213E-03
   186  2.907629298E-02
   187 -4.090375539E-02
   188  5.851638874E-02
   189  9.149174470E-04
   190 -5.524211678E-03
   191  7.317531346E-04
   192  4.064810751E-03
   193  4.565698604E-03
   194  4.947664432E-03
   195  9.642798575E-02
   196  7.304517862E-03
   197  1.847822372E-02
   198  6.374435227E-03
   199  1.392657670E-02
   200  2.215645045E-02
   201 -5.741169493E-02
   202  1.476917156E-02
   203 -1.030198026E-01
   204 -6.530185476E-02
   205 -8.275001743E-02
   206  2.136451929E-02
   207 -1.501794506E-01
   208 -6.031209410E-02
   209 -7.414649739E-02
   210  1.874307530E-02
   211 -1.247514245E-01
   212  1.384280002E-03
   213  1.023662061E-03
   214 -1.133896041E-03
   215  1.385706826E-02
   216 -4.616312577E-03
   217 -1.593784658E-01
   218 -1.913688563E-02
   219  7.328639021E-03
   220 -1.136264039E-02
   221  7.739044963E-04
   222  1.229555260E-03
   223  5.228670959E-03
   224 -1.470845500E-03
   225  3.174624803E-03
   226 -3.625470631E-03
   227  8.242593785E-03
   228 -2.042197115E-03
   229  1.952582700E-03
   230 -1.548149829E-03
   231  2.845150098E-03
   232 -1.603244678E-03
   233  9.740237564E-03
   234  2.916265742E-03
   235  2.028996335E-03
   236 -6.542723302E-04
   237 -5.309517768E-04
   238 -7.685484468E-05
   239  1.121026182E-01
   240 -2.516377507E-02
   241  3.639102499E-03
   242  8.393928738E-03
   243 -4.014062430E-04
   244 -6.377739620E-04
   245 -9.111395833E-03
   246  1.364081140E-02
   247 -7.067351747E-03
   248  1.884684612E-03
   249 -1.245692820E-02
   250  1.756821413E-02
   251 -7.950731475E-03
   252  7.567276477E-04
   253 -1.343121859E-02
   254  2.132064719E-02
   255 -1.492099692E-02
   256  3.209649283E-03
   257  3.304903836E-03
   258  1.259853091E-03
   259  4.294620942E-03
   260 -2.444346561E-04
   261 -5.765384164E-02
   262 -5.720370219E-04
   263 -3.378327127E-03
   264 -1.417473632E-02
   265 -3.764106555E-04
   266 -5.979324960E-04
   267 -1.321472175E-02
   268 -9.125429786E-03
   269 -8.514405126E-03
   270  1.759176935E-03
   271 -1.767580956E-02
   272 -1.164169837E-02
   273 -9.876481460E-03
   274  8.048652825E-04
   275 -1.988706896E-02
   276 -1.422766802E-02
   277 -1.695537192E-02
   278  2.780410935E-03
   279  2.474285038E-03
   280 -3.173712992E-03
   281  3.260675208E-03
   282 -2.813346150E-03
   283 -5.592386513E-02
   284 -3.003111867E-05
   285  5.511632970E-03
   286 -1.362100427E-02
   287 -4.078290438E-02
   288 -6.010474787E-02
   289 -3.317812664E-02
   290 -2.480545939E-03
   291 -1.814294814E-03
   292 -1.319082011E-03
   293 -5.412797196E-03
   294 -1.260463750E-02
   295 -1.998905526E-02
   296 -8.726691337E-03
   297  2.892414439E-03
   298 -1.664851329E-03
   299  1.498219178E-03
   300 -7.296649721E-03
   301 -1.078344965E-05
   302  3.617001881E-06
   303 -1.846625558E-04
   304 -4.753858361E-03
   305  8.493299759E-04
   306 -3.457279448E-03
   307  3.060128735E-04
   308  5.560330145E-02
   309  8.339606817E-02
   310  4.331657568E-02
   311  1.668005941E-03
   312 -6.374021936E-03
   313  1.954128823E-03
   314  1.433242916E-02
   315  5.503163285E-02
   316  8.258946355E-02
   317  4.282386540E-02
   318  3.607438692E-03
   319  5.245401477E-03
   320  2.609148338E-03
   321  1.362955412E-02
   322 -1.757371257E-02
   323 -2.714242260E-02
   324 -1.755634589E-02
   325 -1.547509091E-03
   326 -2.296374891E-03
   327 -2.102724459E-03
   328 -1.691761529E-02
   329 -3.595627057E-02
   330 -5.286122507E-02
   331 -3.207031818E-02
   332 -1.655564057E-03
   333  1.213342222E-03
   334  2.708731847E-03
   335 -5.685171093E-03
   336 -4.235774946E-02
   337 -6.249184862E-02
   338 -3.422354695E-02
   339 -1.773140630E-03
   340  2.874200827E-03
   341 -1.146653764E-03
   342 -6.849505562E-03
   343 -1.488949476E-02
   344 -2.339315364E-02
   345 -1.021357424E-02
   346  3.432863986E-03
   347  4.268791193E-04
   348  1.746931166E-03
   349 -8.358790779E-03
   350 -1.635384253E-02
   351 -2.521198418E-02
   352 -1.706214191E-02
   353 -6.866979496E-04
   354  2.665843781E-03
   355 -1.728352063E-03
   356 -1.520257110E-02
   357 -3.357816491E-02
   358 -4.931636493E-02
   359 -3.054407780E-02
   360 -1.902511660E-03
   361 -8.515235635E-04
   362  2.396389986E-03
   363 -5.010690371E-03
   364  6.953376845E-02
   365  1.021841978E-01
   366  6.250246028E-02
   367  5.093869621E-03
   368 -6.360707827E-04
   369 -3.988903135E-03
   370  1.050530117E-02
   371  3.391920233E-02
   372  5.233975010E-02
   373  3.460903513E-02
   374 -6.150921746E-03
   375  1.126670409E-03
   376 -2.269243893E-03
   377  3.239624913E-02
   378  2.376098781E-03
   379  4.022756718E-03
   380  1.605532804E-03
   381 -2.415980671E-04
   382 -6.684036408E-04
   383  5.568578039E-04
   384 -6.503230078E-03
   385 -1.619065522E-03
   386 -3.042133027E-03
   387  4.906527477E-03
   388  7.978193371E-04
   389 -1.763170430E-04
   390  1.139879672E-04
   391  1.690238830E-02
   392  3.166779679E-03
   393  5.178164804E-03
   394  2.626662875E-03
   395 -5.323580200E-05
   396  6.645913767E-04
   397  5.582017522E-04
   398 -5.964131576E-03
   399  8.394332191E-04
   400  1.604704674E-03
   401 -2.726461964E-03
   402 -8.349828256E-04
   403  1.262457286E-03
   404 -4.346350716E-04
   405 -8.779220450E-03
   406  1.450220853E-02
   407  2.136099166E-02
   408  9.791432383E-03
   409  1.282126131E-03
   410  1.181841072E-03
   411 -4.831004155E-04
   412 -1.878545809E-03
   413 -1.737979531E-02
   414 -2.612362949E-02
   415 -1.218883806E-02
   416 -6.595084378E-04
   417 -1.235489010E-03
   418  2.465394244E-04
   419  8.683140878E-03
   420  7.481713047E-04
   421  1.419165806E-03
   422 -2.313823675E-03
   423 -1.210606818E-03
   424 -8.661012948E-04
   425 -5.859438827E-04
   426 -8.476575902E-03
   427 -1.759772110E-02
   428 -2.644909399E-02
   429 -1.216929577E-02
   430 -2.817686936E-04
   431  1.376483828E-03
   432  3.954707007E-04
   433  8.056739145E-03
   434  1.494080334E-02
   435  2.202125895E-02
   436  1.051186777E-02
   437  8.698749061E-04
   438 -1.485332269E-03
   439 -6.024774412E-04
   440 -2.486800616E-03
Ene=   -3.2591073876E-01
Spin= Alpha
Occup=   2.0000000
     1 -3.267825604E-04
     2 -5.177683427E-04
     3 -6.489777431E-02
     4  8.856454021E-03
     5  1.176942516E-02
     6  1.545411616E-03
     7 -9.532216555E-02
     8  1.271096710E-02
     9  1.722569928E-02
    10  4.302257761E-03
    11 -7.021925379E-02
    12  1.107836643E-02
    13  9.228248485E-03
    14  5.310061377E-03
    15 -6.304491973E-03
    16 -2.514168487E-03
    17 -1.510844028E-03
    18  1.130702015E-02
    19  8.257779252E-02
    20  1.559471872E-02
    21  8.569501423E-02
    22 -3.845001947E-02
    23 -1.125960816E-02
    24 -1.790212741E-02
    25  4.149349221E-02
    26 -1.012049511E-01
    27 -1.186039162E-02
    28  5.254912928E-02
    29  6.065909549E-02
    30 -1.474781263E-01
    31 -1.679142029E-02
    32  6.262553278E-02
    33  5.334486765E-02
    34 -1.268451258E-01
    35 -1.416494198E-02
    36  8.028230623E-03
    37 -4.885091201E-03
    38 -1.084106606E-02
    39 -3.502191779E-03
    40 -2.592699445E-03
    41 -9.936810407E-03
    42 -3.775001732E-03
    43 -6.897763816E-04
    44 -5.641243096E-03
    45  1.592832315E-06
    46  2.583876929E-06
    47  1.565267179E-02
    48  1.058847003E-01
    49  4.365520671E-03
    50 -7.855603232E-06
    51  2.308858989E-02
    52  1.561019193E-01
    53  6.448692488E-03
    54 -8.550888596E-06
    55  1.499145939E-02
    56  1.014823305E-01
    57  4.164824730E-03
    58 -1.363452085E-03
    59 -2.718226136E-03
    60 -1.650071355E-02
    61 -1.069079340E-03
    62  5.168147817E-04
    63 -3.392037792E-07
    64  6.815259540E-03
    65  2.867326505E-02
    66  3.206279809E-03
    67  2.541357968E-04
    68  4.033700607E-04
    69 -1.945175245E-03
    70 -2.058284896E-02
    71  9.802391535E-04
    72 -1.168494257E-03
    73 -2.696726557E-03
    74 -2.917331947E-02
    75  1.472837219E-03
    76 -1.721687611E-03
    77 -1.835657653E-03
    78 -2.268867913E-02
    79  1.471086808E-03
    80  3.869271994E-05
    81 -5.130566995E-04
    82 -6.526837976E-05
    83 -3.874087173E-03
    84 -1.047827021E-02
    85 -5.711197079E-04
    86  2.432384298E-03
    87 -8.501233294E-03
    88 -1.528489785E-03
    89  5.839033210E-06
    90  8.604296427E-06
    91 -1.348666346E-02
    92 -8.305842903E-02
    93 -5.574381031E-03
    94 -9.829064865E-06
    95 -1.983869583E-02
    96 -1.222959767E-01
    97 -8.191766973E-03
    98 -4.179432089E-04
    99 -1.537648384E-02
   100 -9.271307615E-02
   101 -6.230216507E-03
   102  9.816018989E-04
   103  2.402910379E-03
   104  9.022703089E-03
   105  4.557539839E-03
   106  1.222359231E-02
   107 -1.014379206E-03
   108 -1.218045515E-02
   109  2.860434380E-02
   110 -5.501205848E-03
   111  1.192172988E-02
   112  1.896628030E-02
   113  7.064657451E-02
   114  7.319855260E-02
   115 -6.472690235E-03
   116 -5.588554717E-02
   117  1.027986552E-01
   118  1.062890444E-01
   119 -1.012062975E-02
   120 -5.192897392E-02
   121  8.707273724E-02
   122  9.021129075E-02
   123 -4.161963507E-03
   124 -2.676526191E-07
   125 -4.582096510E-03
   126  1.081596344E-02
   127 -2.746578493E-03
   128  5.337161570E-03
   129 -1.413255924E-01
   130  1.947144473E-02
   131  6.269345613E-03
   132  1.420339539E-02
   133  1.100861734E-02
   134  1.750389349E-02
   135 -6.970821166E-02
   136 -8.195248914E-02
   137  2.502178436E-03
   138 -5.139682291E-02
   139 -1.017616324E-01
   140 -1.192968941E-01
   141  3.156475113E-03
   142 -6.093618921E-02
   143 -8.877773446E-02
   144 -1.019046710E-01
   145  2.300558040E-03
   146 -1.008588152E-02
   147  7.161385617E-04
   148 -1.003233324E-02
   149 -2.189369300E-04
   150 -4.184289466E-03
   151  1.907657562E-02
   152  2.041232264E-03
   153  1.185144542E-03
   154  5.227689522E-03
   155  3.196835001E-04
   156  5.071055879E-04
   157  6.545072078E-02
   158 -1.340077299E-02
   159 -9.819768299E-03
   160 -1.526353302E-03
   161  9.606675629E-02
   162 -1.996885418E-02
   163 -1.437822470E-02
   164 -3.909719525E-03
   165  7.131350271E-02
   166 -1.387095591E-02
   167 -7.015642919E-03
   168 -5.572972463E-03
   169  6.486870989E-03
   170 -3.860935437E-03
   171  7.966030465E-03
   172  7.459720020E-03
   173 -7.559043983E-02
   174  1.836900248E-02
   175  5.836088497E-02
   176  4.092187311E-02
   177 -1.220390174E-02
   178 -1.941595692E-02
   179 -4.512386809E-02
   180  9.280141513E-02
   181  1.522073706E-02
   182  5.722539499E-02
   183 -6.575880141E-02
   184  1.347327583E-01
   185  2.283317891E-02
   186  5.294871707E-02
   187 -5.520121754E-02
   188  1.149020158E-01
   189  1.493045360E-02
   190  1.539171074E-03
   191  8.136408450E-03
   192  8.219140281E-03
   193  6.358061825E-03
   194  1.793615536E-03
   195  1.060882105E-01
   196 -1.348109929E-03
   197  1.319815845E-02
   198 -8.288650846E-03
   199  2.779400849E-04
   200  4.431600823E-04
   201  8.192179470E-04
   202  1.253899764E-02
   203 -1.384893567E-03
   204 -1.328825733E-03
   205  1.275919411E-03
   206  1.860742630E-02
   207 -2.002808225E-03
   208 -8.729172789E-04
   209  3.462394439E-04
   210  1.214640446E-02
   211 -1.658618717E-03
   212  2.854246874E-04
   213  1.520885285E-04
   214  2.890229703E-03
   215 -1.764076015E-03
   216 -6.601371803E-03
   217  2.420467906E-02
   218 -2.369189931E-03
   219 -1.362670779E-02
   220  5.407563300E-03
   221  1.557457783E-05
   222  2.484404611E-05
   223  3.437933646E-03
   224  2.010221086E-02
   225  1.109910481E-03
   226 -8.763537613E-05
   227  4.437554838E-03
   228  2.576290759E-02
   229  1.380228814E-03
   230  2.629550498E-04
   231  5.356053889E-03
   232  3.294062169E-02
   233  1.821705314E-03
   234  3.659239848E-04
   235  9.100153748E-04
   236  3.253294938E-03
   237  2.187237007E-03
   238  5.911795126E-03
   239  1.246858089E-02
   240 -5.986293101E-04
   241  6.404412047E-03
   242  7.103076125E-04
   243  6.638447884E-04
   244  1.054405935E-03
   245 -9.141322807E-03
   246  2.544953322E-03
   247 -7.186672542E-03
   248 -3.096295152E-03
   249 -1.044541473E-02
   250  3.133906703E-03
   251 -1.103866168E-02
   252 -1.587206588E-03
   253 -1.747345361E-02
   254  5.694131480E-03
   255 -6.370156790E-03
   256 -3.195131440E-04
   257  1.292193474E-03
   258 -8.157495493E-04
   259  3.581607405E-03
   260  2.889679488E-03
   261  8.356875610E-02
   262 -5.933637875E-03
   263  1.191352277E-02
   264  1.670775453E-02
   265 -6.806345959E-04
   266 -1.081417670E-03
   267  8.805750459E-03
   268 -1.632841266E-03
   269  6.939403509E-03
   270  3.193192465E-03
   271  9.956296009E-03
   272 -2.005755764E-03
   273  1.075410188E-02
   274  1.311691838E-03
   275  1.752654015E-02
   276 -1.234865535E-03
   277  5.957317303E-03
   278  3.340993011E-04
   279 -9.341135857E-04
   280 -3.398571692E-04
   281 -9.648671868E-04
   282  4.496434288E-03
   283 -9.970788800E-02
   284  1.017690406E-02
   285  1.301906405E-02
   286 -1.696393958E-02
   287 -4.076329226E-02
   288 -6.179727889E-02
   289 -3.074448189E-02
   290 -2.605432204E-03
   291 -5.144938588E-03
   292 -2.129124864E-03
   293 -1.423858934E-02
   294 -5.617453903E-02
   295 -8.365973141E-02
   296 -4.418697278E-02
   297  4.838594043E-03
   298 -4.937900772E-04
   299  3.451488201E-03
   300 -1.168786220E-02
   301 -1.136861306E-06
   302 -1.652688927E-06
   303 -1.916487486E-05
   304  8.635130739E-04
   305  5.863388157E-03
   306  2.409425644E-04
   307  2.015871096E-04
   308 -1.493575039E-02
   309 -2.113882167E-02
   310 -1.352260017E-02
   311  7.151177735E-04
   312  1.701402948E-04
   313  1.084908585E-03
   314  1.132085087E-03
   315  1.714442712E-02
   316  2.446695440E-02
   317  1.453013929E-02
   318 -4.571560088E-04
   319  7.140790863E-04
   320 -9.452075361E-04
   321 -1.241868826E-04
   322  2.913023666E-02
   323  4.491973095E-02
   324  2.949787033E-02
   325  1.883575673E-03
   326  4.501256998E-03
   327  2.951405426E-03
   328  2.696997647E-02
   329  5.944254887E-02
   330  8.736864841E-02
   331  5.340576486E-02
   332  2.074975972E-03
   333 -1.310289242E-03
   334 -5.005705295E-03
   335  9.803695622E-03
   336  3.908479230E-02
   337  5.928376860E-02
   338  2.961772421E-02
   339  7.091939123E-04
   340 -5.787574008E-03
   341  1.495626564E-03
   342  1.232575721E-02
   343  5.566096351E-02
   344  8.291620941E-02
   345  4.400049527E-02
   346 -4.548913463E-03
   347  1.465778323E-03
   348 -3.334663528E-03
   349  1.239818676E-02
   350 -2.979545044E-02
   351 -4.602002023E-02
   352 -2.976184147E-02
   353 -3.227112912E-04
   354  5.257819387E-03
   355 -2.508515855E-03
   356 -2.843444300E-02
   357 -6.085640845E-02
   358 -8.946040027E-02
   359 -5.421790993E-02
   360 -2.552917288E-03
   361 -1.124556253E-03
   362  4.973807283E-03
   363 -9.838454329E-03
   364  1.432638007E-03
   365  2.109512218E-03
   366  1.019489680E-03
   367  1.926239233E-04
   368  5.432575279E-04
   369 -4.789472666E-05
   370  8.515590086E-05
   371  6.257716690E-04
   372  1.034308308E-03
   373  2.992758818E-04
   374 -2.944327048E-05
   375  5.886482808E-04
   376 -1.711749328E-05
   377  1.819640280E-03
   378  1.859364558E-02
   379  2.766881967E-02
   380  1.344967049E-02
   381 -7.317470747E-04
   382  2.028976783E-05
   383 -1.655810300E-03
   384 -6.602217187E-03
   385 -1.762942957E-06
   386 -5.721545816E-05
   387  4.756562238E-04
   388  3.040142426E-04
   389  1.739201824E-03
   390  9.503048288E-05
   391  2.250765379E-04
   392 -1.850149113E-02
   393 -2.757636649E-02
   394 -1.254472929E-02
   395  6.729410670E-04
   396 -3.633420924E-04
   397  1.660601378E-03
   398  5.410914551E-03
   399 -1.466712168E-03
   400 -2.693105137E-03
   401  3.670294965E-03
   402 -7.072885342E-04
   403  7.816779374E-05
   404 -9.156719494E-04
   405  1.414356144E-02
   406  1.204484572E-02
   407  1.835217172E-02
   408  8.565355487E-03
   409  7.589103783E-04
   410  6.310629582E-05
   411  5.176894853E-04
   412 -7.691427376E-03
   413 -7.223094738E-03
   414 -1.033753103E-02
   415 -5.228971026E-03
   416 -1.377446036E-03
   417 -4.000473157E-04
   418  2.058704099E-04
   419 -2.294671271E-03
   420  1.462546587E-03
   421  2.754924563E-03
   422 -4.379509978E-03
   423  6.297597025E-04
   424 -2.810979782E-04
   425  8.843252061E-04
   426 -1.458655438E-02
   427  6.526756118E-03
   428  9.329663660E-03
   429  4.013040910E-03
   430  1.167425175E-03
   431 -7.422628036E-04
   432 -2.544692452E-04
   433  1.894963055E-03
   434 -1.143101401E-02
   435 -1.744864341E-02
   436 -8.043355926E-03
   437 -6.547255471E-04
   438  2.931065661E-04
   439 -5.169415394E-04
   440  9.255909267E-03
Ene=   -3.1631458699E-01
Spin= Alpha
Occup=   2.0000000
     1 -4.099155592E-04
     2 -6.471873233E-04
     3  3.443012439E-02
     4 -1.422754781E-02
     5 -3.108695894E-02
     6  1.811855468E-03
     7  5.124728247E-02
     8 -2.118975378E-02
     9 -4.626856944E-02
    10  4.295577427E-03
    11  4.284685184E-02
    12 -1.370670817E-02
    13 -3.155512998E-02
    14 -6.000864814E-03
    15  6.170188418E-03
    16  1.593606851E-04
    17  9.468330235E-05
    18  2.926901638E-03
    19  2.636943608E-02
    20  5.315192612E-02
    21  9.878807411E-02
    22  4.143985203E-02
    23  2.459011213E-03
    24  3.911670116E-03
    25  1.371846141E-02
    26 -8.410050526E-04
    27  7.112853464E-02
    28 -1.108343748E-02
    29  1.811107253E-02
    30 -2.611949457E-03
    31  1.031445809E-01
    32 -1.513308279E-02
    33  2.353299657E-02
    34  4.853440371E-03
    35  8.616629153E-02
    36 -2.038063930E-03
    37 -3.855961903E-04
    38  3.994986184E-03
    39 -8.734501007E-03
    40  6.122350714E-03
    41 -1.545823596E-01
    42 -2.999736416E-02
    43  2.177203978E-02
    44  1.185224600E-02
    45  1.230700249E-06
    46  2.094577801E-06
    47 -6.294635970E-02
    48  7.186844735E-03
    49 -4.550390478E-02
    50 -7.093583685E-06
    51 -9.345679436E-02
    52  1.066764973E-02
    53 -6.756032097E-02
    54 -2.679426828E-05
    55 -7.840152960E-02
    56  8.843950668E-03
    57 -5.663401098E-02
    58 -7.521836126E-03
    59 -7.958397478E-03
    60  2.989989396E-03
    61 -9.616713678E-03
    62  4.800716187E-03
    63 -9.343031928E-03
    64 -4.504014094E-02
    65  4.420786522E-03
    66 -2.957492387E-02
    67 -5.582812185E-03
    68 -8.880733569E-03
    69  1.060325946E-01
    70 -1.025248399E-02
    71 -6.289798189E-02
    72  2.516167619E-02
    73  1.565691179E-01
    74 -1.545991010E-02
    75 -9.189162098E-02
    76  3.452274908E-02
    77  1.163855788E-01
    78 -9.738729868E-03
    79 -7.417928211E-02
    80  3.896927861E-03
    81 -6.830656084E-03
    82  1.503889948E-03
    83 -5.731539176E-04
    84  1.178115427E-03
    85  3.748793745E-01
    86 -9.864968985E-03
    87  7.208237397E-03
    88 -8.954790330E-02
    89  9.292124001E-04
    90  1.468310356E-03
    91 -3.438133043E-02
    92  4.103425081E-04
    93  1.042724520E-01
    94 -4.161948171E-03
    95 -5.114973786E-02
    96  6.110975406E-04
    97  1.552055173E-01
    98 -8.916675171E-03
    99 -3.826859529E-02
   100  7.510984831E-04
   101  1.161860239E-01
   102  1.046150181E-02
   103 -1.246234271E-02
   104  4.086994681E-04
   105  1.018016891E-02
   106 -2.543986765E-03
   107 -2.929392629E-03
   108 -9.641433253E-02
   109  2.901579912E-02
   110 -1.176978722E-01
   111  2.585888900E-03
   112  4.112889316E-03
   113 -1.114973579E-02
   114  2.527757197E-02
   115 -6.292136190E-02
   116 -1.195714996E-02
   117 -1.687450718E-02
   118  3.837237108E-02
   119 -9.016250363E-02
   120 -1.737104767E-02
   121 -8.624416921E-03
   122  2.426177335E-02
   123 -8.308434951E-02
   124  7.842838167E-03
   125 -3.880288882E-03
   126 -2.876172939E-03
   127  8.226817438E-03
   128  9.365425081E-04
   129 -2.711547451E-01
   130  5.956285316E-02
   131  1.368452981E-02
   132 -1.418002086E-02
   133  3.126754428E-03
   134  4.974208490E-03
   135  5.181401215E-03
   136 -3.188338948E-03
   137  8.208317798E-02
   138 -1.409758309E-02
   139  6.329385917E-03
   140 -2.623404020E-03
   141  1.195892516E-01
   142 -1.940001050E-02
   143  1.051636158E-02
   144 -1.224903572E-02
   145  9.691511882E-02
   146 -2.885798087E-03
   147 -6.370693558E-04
   148 -1.633536244E-03
   149 -1.056705336E-02
   150  9.790296029E-04
   151 -1.953690524E-01
   152 -4.323539896E-02
   153 -1.927363497E-02
   154  1.198641828E-02
   155 -5.238936841E-04
   156 -8.283021141E-04
   157  4.680758301E-02
   158  8.432488886E-03
   159 -3.931087563E-02
   160  2.362626571E-03
   161  6.967375692E-02
   162  1.256018124E-02
   163 -5.851990249E-02
   164  4.731971441E-03
   165  5.548659849E-02
   166  5.939499609E-03
   167 -4.102150339E-02
   168 -6.944198602E-03
   169  7.649572666E-03
   170 -1.603415237E-03
   171 -2.531143580E-03
   172 -3.291368709E-03
   173 -2.215456889E-03
   174  2.960530525E-03
   175 -1.134695425E-01
   176  3.148329673E-02
   177  2.035987144E-03
   178  3.238225980E-03
   179 -2.578289505E-02
   180 -1.632854564E-02
   181 -5.919538916E-02
   182 -9.409481886E-03
   183 -3.858576349E-02
   184 -2.496654776E-02
   185 -8.527187529E-02
   186 -1.392288224E-02
   187 -2.514044817E-02
   188 -1.545184600E-02
   189 -7.633543959E-02
   190  7.745134440E-03
   191 -1.710687481E-03
   192  8.982998205E-04
   193  5.508287138E-03
   194 -5.747487691E-03
   195 -2.053574599E-01
   196  4.063772760E-02
   197 -2.274938285E-02
   198 -1.379661304E-02
   199 -4.624708003E-03
   200 -7.356697026E-03
   201 -5.644517734E-02
   202  1.737448422E-03
   203  5.462632142E-02
   204  2.140829464E-02
   205 -7.857290456E-02
   206  1.930827141E-03
   207  7.855668178E-02
   208  3.106098903E-02
   209 -8.401690006E-02
   210  4.327688041E-03
   211  7.428755510E-02
   212 -1.025192858E-02
   213  1.385503506E-02
   214 -1.477559445E-03
   215  2.546529534E-04
   216 -1.531345864E-03
   217  4.419415594E-01
   218  1.092216068E-03
   219 -8.214272881E-03
   220  1.006374789E-01
   221  8.720193853E-04
   222  1.388309916E-03
   223  2.115777942E-02
   224 -1.585955502E-03
   225 -5.468069306E-02
   226 -4.178706503E-03
   227  2.978128780E-02
   228 -2.349904324E-03
   229 -7.590825002E-02
   230 -4.617594849E-03
   231  2.676421865E-02
   232 -1.791662296E-03
   233 -7.124407065E-02
   234  1.188983845E-03
   235 -1.487242604E-02
   236  1.664682389E-03
   237  8.308912485E-03
   238 -2.087487115E-03
   239  1.230940875E-01
   240 -2.648762656E-02
   241  3.200692247E-03
   242  7.839307173E-03
   243 -4.903837951E-04
   244 -7.806319282E-04
   245 -3.057351853E-02
   246  3.281338007E-03
   247  1.713169417E-02
   248  2.343577242E-03
   249 -4.303087070E-02
   250  5.357957040E-03
   251  2.348137244E-02
   252  2.774519257E-03
   253 -3.910510099E-02
   254  3.271589539E-03
   255  2.259093467E-02
   256 -6.593809305E-03
   257  6.875270676E-03
   258 -2.450159335E-03
   259  1.715912322E-03
   260  1.853872233E-03
   261 -6.431818965E-02
   262  2.387559276E-03
   263 -8.941226453E-03
   264 -1.183384988E-02
   265 -3.801023032E-04
   266 -6.057446848E-04
   267 -2.678080546E-02
   268  2.488781831E-03
   269  1.138638107E-02
   270  1.845590575E-03
   271 -3.805086687E-02
   272  2.928179941E-03
   273  1.535554146E-02
   274  1.674536160E-03
   275 -3.379150275E-02
   276  4.153239520E-03
   277  1.520352222E-02
   278 -5.069511728E-03
   279  5.753656871E-03
   280  4.597565906E-04
   281  8.064484326E-04
   282 -3.017648894E-03
   283 -6.140984729E-02
   284  4.604754765E-03
   285  7.978913117E-03
   286 -9.497278540E-03
   287 -3.504519928E-02
   288 -4.797583850E-02
   289 -2.287471947E-02
   290 -2.721055330E-03
   291  8.693553572E-04
   292  2.570010716E-03
   293 -1.392047277E-02
   294  4.265423119E-02
   295  6.125903245E-02
   296  4.270892586E-02
   297 -1.074624084E-03
   298 -3.804652057E-03
   299  1.238880205E-03
   300  9.355869468E-03
   301  3.674960964E-06
   302 -1.062742825E-05
   303  1.278695460E-04
   304 -4.081283608E-03
   305  4.696959288E-04
   306 -2.949395920E-03
   307 -2.170880105E-04
   308 -5.499710290E-03
   309 -1.067150149E-02
   310 -1.983907978E-02
   311  5.958324618E-03
   312  3.438450433E-04
   313 -3.091313593E-03
   314  5.562505244E-03
   315 -1.169269909E-02
   316 -1.934204346E-02
   317 -2.475372621E-02
   318  5.735776442E-03
   319 -2.108868134E-03
   320 -2.865644034E-03
   321  5.805588129E-03
   322  4.142591206E-02
   323  5.908345052E-02
   324  4.015236557E-02
   325 -2.209078508E-03
   326  1.012391407E-03
   327  9.552237963E-04
   328 -1.013901173E-02
   329 -2.462481818E-02
   330 -3.346273331E-02
   331 -1.851197412E-02
   332 -3.008795773E-04
   333  3.650211305E-03
   334 -2.148018170E-03
   335  1.641717766E-03
   336 -3.112471186E-02
   337 -4.213298738E-02
   338 -1.812723475E-02
   339 -2.841177985E-03
   340  1.075576906E-04
   341  3.313170885E-03
   342 -1.408828682E-02
   343  4.070688471E-02
   344  5.891901209E-02
   345  4.255151519E-02
   346 -2.165714799E-04
   347  4.046602241E-03
   348  2.329787945E-03
   349  7.356441390E-03
   350  3.246400998E-02
   351  4.630000092E-02
   352  3.096696509E-02
   353 -2.245495375E-03
   354 -4.330135954E-04
   355  4.575346134E-04
   356 -9.113015699E-03
   357 -1.923287871E-02
   358 -2.610449396E-02
   359 -1.457035608E-02
   360 -1.914615395E-03
   361 -2.810068366E-03
   362 -2.524496058E-03
   363  2.034325533E-03
   364  4.385876130E-02
   365  5.953043136E-02
   366  3.370056557E-02
   367  1.266772089E-03
   368 -7.268612932E-04
   369  3.988481926E-03
   370 -3.297924939E-03
   371 -7.390480134E-02
   372 -1.054089404E-01
   373 -7.097645630E-02
   374  2.044638458E-03
   375 -3.049374739E-04
   376 -3.153146933E-03
   377  2.013046995E-02
   378 -2.967454085E-02
   379 -4.405485404E-02
   380 -2.932987137E-02
   381  2.422886025E-03
   382  2.010283481E-03
   383 -1.292548820E-03
   384 -8.196109183E-03
   385  6.071434123E-02
   386  9.017631742E-02
   387  6.061978865E-02
   388 -2.821724959E-03
   389  3.859735731E-04
   390  1.439821679E-03
   391  1.759830829E-02
   392 -2.803317434E-02
   393 -4.170546657E-02
   394 -2.752271766E-02
   395  1.666649741E-03
   396 -2.526941837E-03
   397 -1.666410449E-03
   398 -7.558639456E-03
   399 -3.405242819E-02
   400 -5.057378096E-02
   401 -3.394158499E-02
   402  4.370278038E-04
   403 -6.828708751E-04
   404 -1.596412249E-03
   405 -1.000703957E-02
   406  2.658047990E-02
   407  3.875417971E-02
   408  2.817271674E-02
   409  8.977272574E-04
   410 -2.892957368E-05
   411  1.541671886E-03
   412  1.450318521E-02
   413  5.782447765E-03
   414  9.306564963E-03
   415  4.237549875E-03
   416 -1.962163264E-03
   417  8.656119709E-04
   418  9.623190354E-04
   419 -6.418520142E-03
   420 -2.667324622E-02
   421 -3.956897458E-02
   422 -2.724500214E-02
   423  4.929763040E-04
   424  5.154010842E-04
   425 -1.208939494E-03
   426 -8.129776099E-03
   427  1.258477942E-03
   428  2.681226797E-03
   429 -9.872978524E-04
   430 -1.837098175E-03
   431 -5.866192210E-05
   432  8.214624537E-04
   433 -7.635542670E-03
   434  2.410494407E-02
   435  3.503542931E-02
   436  2.543716832E-02
   437  8.114033289E-04
   438 -4.899403789E-04
   439  1.079174938E-03
   440  1.518745889E-02
Ene=   -3.1630700417E-01
Spin= Alpha
Occup=   2.0000000
     1  8.390420131E-04
     2  1.325216271E-03
     3 -6.054849230E-02
     4  3.370376458E-02
     5  7.059726891E-02
     6 -3.742316606E-03
     7 -9.013161016E-02
     8  5.020164158E-02
     9  1.050544738E-01
    10 -8.415818153E-03
    11 -6.528885015E-02
    12  3.829387225E-02
    13  8.036882207E-02
    14  5.991935106E-03
    15 -1.605117298E-02
    16 -1.438333147E-03
    17  1.724648740E-03
    18 -2.864469846E-03
    19 -8.164727908E-03
    20  7.991466599E-02
    21 -1.311741969E-01
    22  4.129126579E-02
    23 -5.020142169E-03
    24 -7.987286031E-03
    25  6.577407569E-02
    26  4.481222230E-02
    27 -8.142364411E-02
    28  2.267210981E-02
    29  9.538559627E-02
    30  6.619616641E-02
    31 -1.206010028E-01
    32  3.031467736E-02
    33  7.979154703E-02
    34  4.874241133E-02
    35 -8.840843555E-02
    36  3.147111322E-03
    37 -5.857366178E-03
    38  5.058329554E-03
    39  4.035331844E-04
    40  3.437334763E-03
    41  3.072251381E-01
    42  4.236600360E-02
    43 -4.960077928E-02
    44 -3.565406515E-02
    45 -3.314953340E-08
    46 -1.987184887E-08
    47 -8.317144231E-03
    48 -7.765776379E-02
    49 -9.386079924E-04
    50 -8.070629700E-07
    51 -1.236412570E-02
    52 -1.153060199E-01
    53 -1.406992773E-03
    54  8.653215837E-06
    55 -1.025170898E-02
    56 -9.633527995E-02
    57 -1.149607192E-03
    58  1.045077465E-03
    59  2.235499955E-03
    60  5.225364569E-03
    61  5.639363243E-03
    62  1.339492739E-02
    63  1.105226136E-02
    64 -5.905126441E-03
    65 -5.244301694E-02
    66 -2.950434057E-03
    67  3.952858414E-04
    68  6.293935719E-04
    69  1.275096467E-03
    70  5.351238625E-02
    71  7.258423407E-03
    72 -1.799452471E-03
    73  1.314244335E-03
    74  7.559087871E-02
    75  1.046325181E-02
    76 -2.133398383E-03
    77  3.670133625E-03
    78  7.247046729E-02
    79  8.980064543E-03
    80  5.812818822E-04
    81  2.413119387E-03
    82  9.037551649E-03
    83  3.049658192E-03
    84  7.287978625E-03
    85 -2.621873271E-02
    86 -1.854611728E-03
    87 -8.542370096E-03
    88  6.338237500E-03
    89 -6.399486548E-05
    90 -1.003698216E-04
    91  3.332766286E-03
    92  5.512849180E-03
    93 -7.044973724E-03
    94  2.689106813E-04
    95  4.941966625E-03
    96  8.202221630E-03
    97 -1.049262618E-02
    98  9.360583435E-04
    99  5.049179329E-03
   100  1.273438256E-02
   101 -7.415785723E-03
   102 -9.065741115E-04
   103  7.253937435E-04
   104 -1.925249005E-03
   105  1.552658555E-04
   106  3.050669566E-03
   107 -9.843408809E-04
   108  4.104727700E-02
   109  9.094387082E-02
   110  1.843931253E-02
   111  3.825819418E-03
   112  6.085396009E-03
   113  5.278922819E-02
   114 -3.467085889E-02
   115 -3.895485882E-02
   116 -1.769151797E-02
   117  7.680712321E-02
   118 -4.909458236E-02
   119 -5.385423394E-02
   120 -2.609973339E-02
   121  6.646240400E-02
   122 -4.634178439E-02
   123 -6.136646973E-02
   124  2.404230093E-03
   125 -1.418170823E-02
   126 -2.789160245E-03
   127  2.693664651E-03
   128 -3.580212188E-03
   129 -3.374436700E-01
   130  5.109810538E-02
   131  4.256857116E-02
   132 -4.234858939E-02
   133  4.625339144E-03
   134  7.358125701E-03
   135 -5.052574481E-02
   136  5.583575365E-02
   137  7.601748538E-02
   138 -2.085908653E-02
   139 -7.277009811E-02
   140  8.159029525E-02
   141  1.128271283E-01
   142 -2.837997273E-02
   143 -6.344530194E-02
   144  6.434931913E-02
   145  8.163341319E-02
   146 -1.985030382E-03
   147  7.708035340E-03
   148  3.524702180E-03
   149  3.463152188E-03
   150  2.036105068E-03
   151 -2.908231400E-01
   152 -5.021273904E-02
   153 -3.904209847E-02
   154  2.753702369E-02
   155 -7.718689243E-04
   156 -1.219770695E-03
   157  6.342162040E-02
   158  1.865891310E-02
   159 -6.284862906E-02
   160  3.462581145E-03
   161  9.440201110E-02
   162  2.779310207E-02
   163 -9.353132044E-02
   164  7.412611451E-03
   165  6.831574524E-02
   166  2.317140619E-02
   167 -7.200256828E-02
   168 -5.678291523E-03
   169  1.372904648E-02
   170 -4.866136954E-03
   171 -3.645490524E-03
   172 -2.221673265E-03
   173  1.098716906E-02
   174 -1.212854870E-01
   175 -5.647520293E-02
   176 -5.543140661E-02
   177 -4.154724975E-03
   178 -6.607154203E-03
   179 -5.873451650E-02
   180 -1.765352151E-02
   181  4.476655636E-02
   182  1.917452813E-02
   183 -8.482455981E-02
   184 -2.393326263E-02
   185  6.230903352E-02
   186  2.881360489E-02
   187 -7.628581423E-02
   188 -2.673972587E-02
   189  6.879637588E-02
   190 -4.371950709E-03
   191  1.271895714E-02
   192 -6.401358474E-03
   193 -6.057133703E-03
   194 -1.593056904E-03
   195  4.003399447E-01
   196 -5.473278027E-02
   197  5.624555088E-02
   198  4.733486107E-02
   199  3.290781153E-04
   200  5.223835363E-04
   201 -6.412079407E-03
   202 -6.295384639E-02
   203 -7.218561858E-03
   204 -1.495485729E-03
   205 -9.733321635E-03
   206 -9.243339414E-02
   207 -1.048713147E-02
   208 -2.557935520E-03
   209 -5.857599324E-03
   210 -7.213156283E-02
   211 -9.252641232E-03
   212  6.044933952E-04
   213 -1.658484311E-03
   214 -1.068568001E-03
   215 -3.015748034E-03
   216 -8.547658058E-03
   217 -6.067187849E-02
   218  2.934779917E-03
   219  2.332403204E-02
   220 -1.227168498E-02
   221 -6.103254090E-05
   222 -9.718788684E-05
   223 -3.962939589E-03
   224 -1.494086950E-02
   225  3.037476366E-03
   226  3.048796291E-04
   227 -5.724240578E-03
   228 -2.191604440E-02
   229  4.151660396E-03
   230  6.215097207E-05
   231 -4.766726574E-03
   232 -1.823203957E-02
   233  4.117054628E-03
   234 -3.887946659E-04
   235  4.219009886E-04
   236 -3.413361362E-03
   237 -1.236270097E-03
   238 -1.217903441E-03
   239 -2.517555513E-02
   240  4.974905989E-03
   241  1.393410572E-03
   242 -2.195316935E-04
   243 -7.234125188E-04
   244 -1.151911526E-03
   245 -2.877649843E-02
   246 -1.233161802E-02
   247  3.829519505E-02
   248  3.470838941E-03
   249 -3.950101530E-02
   250 -1.732242629E-02
   251  5.376496113E-02
   252  3.752255590E-03
   253 -3.797766794E-02
   254 -1.602655068E-02
   255  4.890407202E-02
   256 -9.100106536E-03
   257  8.297535198E-03
   258 -6.138850014E-03
   259 -3.136738957E-03
   260  3.344391263E-03
   261 -1.136236973E-01
   262  6.907776144E-04
   263 -1.306610504E-02
   264 -2.197181918E-02
   265  7.839532466E-04
   266  1.248214808E-03
   267  2.796554493E-02
   268 -1.738172072E-02
   269 -4.187046721E-02
   270 -3.769312561E-03
   271  3.847559561E-02
   272 -2.403493745E-02
   273 -5.866611211E-02
   274 -3.858065801E-03
   275  3.673854575E-02
   276 -2.314085685E-02
   277 -5.364400288E-02
   278  8.858949985E-03
   279 -1.078168810E-02
   280 -5.257761362E-03
   281  4.194421832E-03
   282  2.283198591E-03
   283  1.330997726E-01
   284 -6.315212628E-03
   285 -1.663790729E-02
   286  2.244464481E-02
   287 -2.667180205E-02
   288 -4.014472970E-02
   289 -3.606724101E-02
   290  5.382071820E-04
   291  2.812736469E-03
   292 -5.613153926E-03
   293 -1.494429081E-03
   294  1.127367102E-02
   295  1.319362783E-02
   296 -3.742753782E-03
   297  3.435800652E-03
   298  1.483584694E-03
   299 -4.827326550E-03
   300  9.918577183E-03
   301 -1.358243657E-06
   302  2.832777113E-05
   303 -2.888321060E-04
   304 -5.372697581E-04
   305 -5.040604516E-03
   306 -6.051713129E-05
   307  2.162266336E-04
   308  4.380891608E-02
   309  6.187250523E-02
   310  3.839552174E-02
   311 -1.842707832E-03
   312 -7.602964414E-04
   313 -2.329472272E-03
   314  1.213629887E-02
   315 -4.256675415E-02
   316 -5.972800286E-02
   317 -3.450304611E-02
   318  6.703909537E-04
   319 -1.264109749E-03
   320  2.631498941E-03
   321 -1.319345388E-02
   322  6.136350632E-02
   323  8.755762789E-02
   324  5.814970270E-02
   325 -1.262603748E-03
   326 -5.918961320E-04
   327  2.984809920E-03
   328 -1.577496700E-02
   329 -3.653793654E-02
   330 -4.956019082E-02
   331 -2.874476797E-02
   332  4.177901589E-03
   333  6.032794143E-04
   334  4.377788177E-04
   335  3.480998324E-03
   336  3.129336437E-02
   337  4.650942073E-02
   338  3.845030235E-02
   339  7.006791219E-04
   340  2.245367285E-03
   341  5.477087322E-03
   342  4.841183547E-03
   343 -1.713169343E-02
   344 -2.170267835E-02
   345 -2.564435302E-03
   346 -2.858794343E-03
   347  1.445253001E-03
   348  4.736532086E-03
   349 -1.185409316E-02
   350 -6.655941583E-02
   351 -9.490812953E-02
   352 -6.337213149E-02
   353  1.385859959E-03
   354 -5.944007862E-04
   355 -3.145032177E-03
   356  1.882993142E-02
   357  3.959320193E-02
   358  5.372416535E-02
   359  3.064652674E-02
   360 -3.521853244E-03
   361  2.363895882E-03
   362  5.637553487E-05
   363 -4.250811827E-03
   364 -3.056177029E-03
   365 -4.146883862E-03
   366 -1.965933989E-03
   367 -7.756528739E-04
   368 -4.138794600E-03
   369 -5.044199997E-04
   370  7.534138494E-04
   371  5.202995942E-03
   372  7.352202120E-03
   373  5.302846949E-03
   374 -4.460361773E-04
   375 -1.800100499E-03
   376  1.218037101E-04
   377 -2.691447358E-03
   378 -1.059577934E-02
   379 -1.485784842E-02
   380 -1.246657233E-02
   381 -9.692314058E-05
   382 -1.937499160E-04
   383  1.071743743E-03
   384 -1.164672972E-02
   385 -4.264362829E-03
   386 -6.284263365E-03
   387 -4.616251856E-03
   388  1.829546234E-04
   389 -1.064470872E-04
   390 -1.028666678E-04
   391 -1.491248251E-03
   392  1.464659161E-02
   393  2.091003481E-02
   394  1.594259936E-02
   395 -1.884455274E-04
   396  2.534261845E-04
   397 -8.646614950E-04
   398  1.347084993E-02
   399 -5.043659550E-02
   400 -7.491293601E-02
   401 -5.054810296E-02
   402  7.330802593E-04
   403 -1.100655079E-03
   404 -2.298765101E-03
   405 -1.525324913E-02
   406  1.687990212E-02
   407  2.559353859E-02
   408  1.549631646E-02
   409 -6.849161022E-05
   410 -8.371447394E-04
   411  2.979890882E-03
   412 -1.658257061E-03
   413  3.107445372E-02
   414  4.566053400E-02
   415  3.204581353E-02
   416 -1.530980264E-03
   417  2.098907645E-03
   418  7.079671250E-04
   419  1.435644812E-02
   420  5.470668319E-02
   421  8.121121120E-02
   422  5.513597039E-02
   423 -1.166496550E-03
   424 -1.124095376E-03
   425  2.373320449E-03
   426  1.639182873E-02
   427 -3.158204363E-02
   428 -4.656161337E-02
   429 -3.164090605E-02
   430  2.412464625E-03
   431  1.585607245E-03
   432 -6.329597877E-04
   433 -1.260787533E-02
   434 -2.042728443E-02
   435 -3.077067038E-02
   436 -1.914931568E-02
   437 -2.665758707E-04
   438 -4.368007123E-04
   439 -3.235172478E-03
   440 -2.035658739E-03
Ene=   -3.1121934513E-01
Spin= Alpha
Occup=   2.0000000
     1  8.302150010E-07
     2  1.303093968E-06
     3  7.105479034E-02
     4  3.246683306E-02
     5  4.883718975E-02
     6 -4.097127799E-06
     7  1.060407954E-01
     8  4.846335079E-02
     9  7.288466344E-02
    10 -7.346472221E-05
    11  7.958219517E-02
    12  3.623380981E-02
    13  5.475141604E-02
    14 -7.485547824E-03
    15 -1.033284870E-03
    16 -7.948536385E-03
    17  1.107276217E-02
    18 -3.877929970E-03
    19 -7.379286934E-04
    20 -2.548843996E-02
    21 -1.541260017E-02
    22 -6.742784476E-03
    23 -8.693432951E-06
    24 -1.477101995E-05
    25 -4.126040104E-02
    26 -1.887567057E-02
    27 -2.839122330E-02
    28  6.551711508E-05
    29 -5.754816012E-02
    30 -2.632580702E-02
    31 -3.960307864E-02
    32 -2.540598634E-04
    33 -5.821193384E-02
    34 -2.653780328E-02
    35 -3.999713894E-02
    36 -6.698070945E-03
    37 -1.022373173E-03
    38 -6.895953636E-03
    39  9.609075680E-03
    40 -3.217330530E-03
    41 -1.745899428E-02
    42 -1.076524241E-02
    43 -1.594281267E-03
    44 -4.015208433E-03
    45  4.858716400E-07
    46  6.237404306E-07
    47  4.585228316E-05
    48  5.184221169E-05
    49  4.231249055E-05
    50  8.830012523E-07
    51  6.910945462E-05
    52  7.794224606E-05
    53  5.946008613E-05
    54  1.453865836E-06
    55 -5.108907668E-06
    56  1.064150083E-04
    57  1.776951547E-05
    58  1.472886091E-05
    59  8.808498095E-06
    60 -9.419722695E-06
    61  4.268044852E-06
    62 -4.632506974E-06
    63  8.319712199E-03
    64  7.260298862E-04
    65  4.526066954E-04
    66 -1.915631074E-03
    67  1.316688981E-05
    68  2.140371080E-05
    69  8.579305195E-03
    70  5.268318243E-02
    71  2.931881493E-03
    72 -7.720232455E-05
    73  1.195466104E-02
    74  7.348735673E-02
    75  4.098935140E-03
    76  2.059270774E-04
    77  1.212675209E-02
    78  7.424468177E-02
    79  3.987150180E-03
    80  1.268995230E-03
    81  2.267900900E-03
    82  1.373241485E-02
    83  6.589317341E-04
    84 -3.240234286E-04
    85  1.144797331E-03
    86  3.943503675E-04
    87  1.073836055E-02
    88 -1.365665717E-04
    89 -7.357413901E-07
    90 -1.083031816E-06
    91 -1.492313681E-02
    92 -9.080789166E-02
    93 -5.003462517E-03
    94  4.183693850E-06
    95 -2.228674461E-02
    96 -1.355226262E-01
    97 -7.467791472E-03
    98  6.800463699E-05
    99 -1.652561333E-02
   100 -1.017161586E-01
   101 -5.638927354E-03
   102  1.449798052E-03
   103  2.633061458E-03
   104  1.575990400E-02
   105  8.553696862E-04
   106 -6.101888107E-05
   107 -7.677975951E-03
   108  1.337671880E-02
   109  2.439478902E-02
   110  5.825920933E-03
   111 -1.657335174E-06
   112 -2.628024136E-06
   113 -6.235868734E-02
   114  6.481881153E-02
   115 -4.873742627E-02
   116  8.439793978E-06
   117 -9.179784032E-02
   118  9.541057741E-02
   119 -7.175369272E-02
   120 -5.338013570E-06
   121 -7.342859899E-02
   122  7.637286742E-02
   123 -5.733631705E-02
   124 -4.453305896E-03
   125 -3.660260670E-04
   126  4.275743008E-03
   127  4.847733369E-03
   128 -2.753715307E-03
   129  1.186684393E-02
   130 -1.195382461E-02
   131  9.800326163E-03
   132 -7.790474472E-03
   133 -4.502039526E-06
   134 -7.606445765E-06
   135  3.258790290E-02
   136 -3.387931003E-02
   137  2.537390309E-02
   138  2.994954071E-05
   139  4.545695019E-02
   140 -4.726185390E-02
   141  3.538642502E-02
   142 -4.049513766E-05
   143  4.599425955E-02
   144 -4.784932624E-02
   145  3.584133461E-02
   146  5.432356125E-03
   147 -1.245053153E-03
   148 -6.849946835E-03
   149 -1.025953004E-02
   150  3.529923095E-03
   151 -1.097644416E-02
   152  4.685399871E-03
   153 -6.878281374E-03
   154  6.450760374E-03
   155 -7.343640993E-07
   156 -1.059961698E-06
   157 -5.617884843E-02
   158  5.830849527E-02
   159 -4.384233953E-02
   160 -1.998608553E-08
   161 -8.385172803E-02
   162  8.702519401E-02
   163 -6.543220418E-02
   164  2.509485525E-05
   165 -6.294380370E-02
   166  6.540626054E-02
   167 -4.915973773E-02
   168  6.049741314E-03
   169 -1.591045337E-03
   170 -7.806578513E-03
   171 -1.192170651E-02
   172  3.953978585E-03
   173 -3.466857876E-03
   174  1.212980315E-02
   175 -1.679522997E-02
   176  1.653257682E-02
   177 -9.241156778E-06
   178 -1.401311488E-05
   179  7.900510850E-02
   180  3.612349369E-02
   181  5.427690220E-02
   182  2.187322442E-05
   183  1.162990738E-01
   184  5.317969200E-02
   185  7.989460828E-02
   186  3.248044376E-04
   187  9.298592092E-02
   188  4.255712931E-02
   189  6.403023977E-02
   190  5.158176237E-03
   191  1.555942151E-03
   192  3.633881870E-03
   193 -5.171656875E-03
   194  5.450740663E-04
   195  1.139895151E-02
   196  8.065246627E-03
   197  5.755697712E-03
   198  6.769657547E-03
   199  1.327318205E-05
   200  2.048277907E-05
   201 -1.657540931E-02
   202 -1.008314519E-01
   203 -5.499317832E-03
   204 -3.880197642E-05
   205 -2.440906001E-02
   206 -1.484274365E-01
   207 -8.089209210E-03
   208 -4.311536357E-04
   209 -1.949109300E-02
   210 -1.187477185E-01
   211 -6.645206414E-03
   212 -7.164393108E-04
   213 -1.204375651E-03
   214 -7.895417204E-03
   215  3.114116736E-04
   216  2.215140162E-03
   217  4.231824484E-03
   218  5.270267071E-05
   219 -1.448182091E-02
   220 -1.346115818E-03
   221 -3.158673312E-07
   222 -2.552627605E-07
   223  8.568420652E-03
   224  5.212241066E-02
   225  2.854167323E-03
   226  4.652519611E-07
   227  1.200038392E-02
   228  7.297700005E-02
   229  3.997612694E-03
   230 -6.437596754E-05
   231  1.091590394E-02
   232  6.621361445E-02
   233  3.655046458E-03
   234  1.120611025E-03
   235  2.534246322E-03
   236  1.204157185E-02
   237  3.782856043E-03
   238  9.178674214E-03
   239 -6.637085619E-03
   240 -7.043692585E-04
   241 -1.075991569E-02
   242 -7.613972619E-04
   243  1.371455547E-06
   244  2.325076085E-06
   245  3.226461709E-02
   246 -3.349125027E-02
   247  2.517949826E-02
   248 -1.055991000E-05
   249  4.517888181E-02
   250 -4.689490185E-02
   251  3.524998391E-02
   252  3.775033692E-05
   253  4.101223021E-02
   254 -4.255678115E-02
   255  3.204079658E-02
   256 -1.345506413E-03
   257 -6.129420824E-03
   258 -4.462308258E-03
   259 -1.384175111E-02
   260 -2.570306018E-04
   261  1.104352636E-03
   262 -6.750858503E-03
   263  7.185491568E-03
   264 -5.301067462E-03
   265  3.560225896E-08
   266  6.561465300E-08
   267 -4.079164168E-02
   268 -1.862108088E-02
   269 -2.800858698E-02
   270 -4.317737461E-06
   271 -5.710682170E-02
   272 -2.607111531E-02
   273 -3.921647045E-02
   274  9.626363188E-05
   275 -5.184780561E-02
   276 -2.370200391E-02
   277 -3.553867447E-02
   278  2.440265004E-04
   279  3.601341318E-03
   280 -7.580306963E-03
   281  1.005312537E-02
   282 -8.908473048E-03
   283  8.738783298E-03
   284  8.275845448E-03
   285  2.211729681E-03
   286  6.370791487E-03
   287  4.535975002E-02
   288  6.521701420E-02
   289  4.170460712E-02
   290  2.534836287E-03
   291 -1.290301650E-03
   292 -7.446677070E-04
   293 -6.934211283E-03
   294 -4.541982268E-02
   295 -6.534619603E-02
   296 -4.140265968E-02
   297 -8.177678833E-04
   298  2.069519126E-03
   299  1.916834136E-03
   300  6.544554524E-03
   301  9.254605764E-06
   302  2.242822649E-05
   303 -9.243744662E-05
   304  6.201844055E-06
   305  1.415922226E-06
   306  2.350542364E-06
   307 -1.320772048E-04
   308  4.537311417E-02
   309  6.525430672E-02
   310  4.174163216E-02
   311 -2.773810233E-04
   312 -9.354536835E-04
   313 -2.765156919E-03
   314 -6.102402713E-03
   315 -4.530080250E-02
   316 -6.515385595E-02
   317 -4.146722983E-02
   318 -9.441785712E-05
   319 -1.246401409E-03
   320  2.659853876E-03
   321  6.824722593E-03
   322 -5.666232455E-05
   323 -7.867474085E-05
   324 -1.977196797E-05
   325 -3.507717347E-03
   326  3.648461825E-03
   327 -2.748917955E-03
   328  3.545850784E-04
   329  4.607925805E-05
   330  8.852476549E-05
   331 -2.253531262E-04
   332 -2.638306357E-03
   333  2.737405754E-03
   334 -2.063374311E-03
   335 -5.354157430E-04
   336 -4.531323172E-02
   337 -6.513535521E-02
   338 -4.155704537E-02
   339 -2.817518763E-03
   340 -4.794380349E-04
   341  6.431895991E-04
   342  6.513985692E-03
   343  4.530186382E-02
   344  6.508612738E-02
   345  4.180103970E-02
   346  1.474061255E-03
   347  1.874364226E-03
   348 -1.709321865E-03
   349 -6.351896535E-03
   350 -4.601795070E-05
   351 -6.266038669E-05
   352  9.684790330E-05
   353  4.447906155E-03
   354  2.033672362E-03
   355  3.049443429E-03
   356  4.287833530E-04
   357 -2.597773987E-05
   358 -4.218029790E-05
   359 -1.470303883E-04
   360  3.342434008E-03
   361  1.526336592E-03
   362  2.300995590E-03
   363 -6.877602753E-04
   364 -2.672054763E-05
   365 -1.610645528E-05
   366 -1.693563645E-04
   367 -7.009223840E-04
   368 -4.264945155E-03
   369 -2.344218499E-04
   370  1.128747948E-03
   371  1.121011077E-04
   372  1.651429167E-04
   373 -1.249750276E-04
   374 -9.417404724E-04
   375 -5.676290434E-03
   376 -2.995598382E-04
   377 -1.203493529E-03
   378  4.708260633E-02
   379  7.001000328E-02
   380  4.837861418E-02
   381 -1.335940580E-03
   382 -4.463670203E-04
   383 -2.370432848E-03
   384  1.698118214E-02
   385 -8.706301071E-05
   386 -1.119022005E-04
   387 -1.810448341E-04
   388  4.900398793E-04
   389  2.952095978E-03
   390  1.548858984E-04
   391 -2.382016805E-04
   392 -4.700026356E-02
   393 -6.985716664E-02
   394 -4.859203539E-02
   395  1.077286149E-03
   396 -1.084587504E-03
   397  2.292752508E-03
   398 -1.652869866E-02
   399  7.447104788E-05
   400  8.348413809E-05
   401  3.399057178E-04
   402  1.823033743E-03
   403 -1.894479473E-03
   404  1.430109089E-03
   405  3.053275096E-04
   406 -4.705352525E-02
   407 -6.993148837E-02
   408 -4.852477398E-02
   409 -2.432942664E-03
   410 -1.273595991E-03
   411 -2.163096383E-04
   412 -1.738234445E-02
   413  4.699701245E-02
   414  6.986402942E-02
   415  4.840301519E-02
   416  1.487411171E-03
   417  2.256106107E-03
   418 -5.325961601E-04
   419  1.699060140E-02
   420  1.011344478E-05
   421 -1.163373639E-05
   422  3.115020784E-04
   423 -2.310481250E-03
   424 -1.055919641E-03
   425 -1.587687676E-03
   426  3.576199682E-04
   427 -4.702342935E-02
   428 -6.991813362E-02
   429 -4.838040196E-02
   430 -6.926348520E-04
   431  2.548827019E-03
   432  7.861383353E-04
   433 -1.659805440E-02
   434  4.700513769E-02
   435  6.988408817E-02
   436  4.839408816E-02
   437  1.893893910E-03
   438 -1.999846900E-03
   439  3.650303155E-05
   440  1.631073927E-02
Ene=   -2.8293344669E-01
Spin= Alpha
Occup=   2.0000000
     1 -3.069652976E-03
     2 -4.877512235E-03
     3  6.776143034E-02
     4 -4.982825205E-02
     5  5.157465142E-02
     6  1.249591342E-02
     7  9.966129951E-02
     8 -7.438628094E-02
     9  7.641692042E-02
    10  2.581158150E-02
    11  7.812922142E-02
    12 -6.482370382E-02
    13  6.213452731E-02
    14 -2.437260039E-03
    15  3.336232298E-03
    16  8.751321108E-03
    17  1.835200286E-02
    18 -1.791530177E-03
    19 -1.271924741E-01
    20 -1.288219601E-01
    21 -3.318780075E-01
    22  1.050685839E-01
    23  4.582485857E-03
    24  7.286186607E-03
    25 -2.623271072E-02
    26  3.687637579E-02
    27 -3.663988296E-02
    28 -2.089764336E-02
    29 -3.475345648E-02
    30  5.372734220E-02
    31 -5.174251360E-02
    32 -4.402211939E-02
    33 -3.947030356E-02
    34  5.200110778E-02
    35 -4.384101005E-02
    36 -5.292416759E-03
    37  2.673351618E-03
    38  4.030739568E-03
    39  1.208809001E-02
    40 -6.449375861E-03
    41 -1.443909805E-01
    42  4.638015870E-02
    43  7.884716443E-02
    44 -4.112853073E-02
    45  1.516940710E-06
    46  2.424661339E-06
    47  5.697043194E-02
    48 -3.846756191E-02
    49  4.327290459E-02
    50 -5.844148511E-06
    51  8.321319372E-02
    52 -5.617802581E-02
    53  6.320476502E-02
    54 -1.172907240E-04
    55  6.517612930E-02
    56 -4.374157811E-02
    57  4.933497984E-02
    58 -1.070368990E-03
    59  3.759360098E-03
    60  2.537481281E-03
    61  1.136132841E-02
    62 -2.088232325E-03
    63  2.381603694E-02
    64 -8.038840602E-02
    65  5.234247687E-02
    66 -6.546575244E-02
    67 -5.752316069E-03
    68 -9.148091419E-03
    69 -5.720994198E-02
    70  2.404392195E-02
    71 -2.312078774E-02
    72  2.630158839E-02
    73 -8.285324655E-02
    74  3.309438441E-02
    75 -3.211913998E-02
    76  5.416962864E-02
    77 -7.377385665E-02
    78  3.170302766E-02
    79 -3.950304784E-02
    80 -6.671695091E-03
    81 -1.899507523E-05
    82  5.069128494E-03
    83  1.223663758E-02
    84 -2.444925097E-03
    85  1.764199370E-01
    86 -1.100994865E-01
    87 -1.470216561E-03
    88  4.809196167E-03
    89  3.849860637E-03
    90  6.116611315E-03
    91  7.162233261E-02
    92 -4.584596859E-02
    93  5.441965352E-02
    94 -1.566256482E-02
    95  1.068424402E-01
    96 -6.765772586E-02
    97  8.048810158E-02
    98 -3.268262601E-02
    99  9.129182250E-02
   100 -5.362315846E-02
   101  6.665673690E-02
   102 -5.623152105E-03
   103  7.771584581E-03
   104  2.960858774E-03
   105  2.033736553E-02
   106 -5.898630885E-03
   107  1.906818965E-01
   108  4.145056118E-01
   109  4.773103218E-04
   110  6.553856682E-02
   111 -1.514203827E-03
   112 -2.408613637E-03
   113 -7.232282569E-02
   114  5.992635056E-02
   115 -5.342790208E-02
   116  6.858700632E-03
   117 -1.049485590E-01
   118  8.764645510E-02
   119 -7.714839654E-02
   120  1.348011570E-02
   121 -9.275680182E-02
   122  7.354164926E-02
   123 -6.762437679E-02
   124 -1.999104751E-03
   125  3.460357253E-03
   126  3.187975236E-03
   127  1.242663995E-02
   128 -3.855347984E-03
   129  1.088156229E-01
   130 -1.759138953E-01
   131  1.564702232E-01
   132 -1.099228997E-01
   133  1.163931095E-03
   134  1.851315779E-03
   135 -2.930836905E-02
   136  1.521386931E-02
   137 -2.590046985E-02
   138 -5.333577672E-03
   139 -3.921366961E-02
   140  1.906417613E-02
   141 -3.525602233E-02
   142 -1.075151277E-02
   143 -3.985221728E-02
   144  1.960963374E-02
   145 -3.297015413E-02
   146 -3.972259084E-03
   147  3.482122142E-03
   148  4.235737122E-03
   149  1.445368876E-02
   150 -2.402860655E-03
   151 -3.770699698E-02
   152  3.897159736E-02
   153 -5.675091579E-02
   154  9.905271418E-03
   155 -7.799518635E-04
   156 -1.239038814E-03
   157  6.705925312E-02
   158 -4.368559458E-02
   159  5.078137099E-02
   160  3.168838500E-03
   161  9.865631274E-02
   162 -6.391796866E-02
   163  7.482038879E-02
   164  6.862120123E-03
   165  7.669648709E-02
   166 -4.784146520E-02
   167  5.834847501E-02
   168 -3.624002061E-03
   169  2.687193076E-03
   170  2.647057454E-03
   171  1.410746977E-02
   172 -4.301520918E-03
   173 -1.638299276E-02
   174 -1.273412077E-01
   175  1.958907415E-01
   176 -7.298450884E-02
   177 -5.957883012E-03
   178 -9.472819320E-03
   179 -7.047348178E-02
   180  1.435997491E-02
   181 -4.271637586E-02
   182  2.684056154E-02
   183 -1.025092218E-01
   184  1.846548524E-02
   185 -6.036250195E-02
   186  5.548650468E-02
   187 -9.322069662E-02
   188  2.741061240E-02
   189 -5.340635698E-02
   190 -4.159447154E-04
   191  4.167403755E-03
   192  3.034480516E-03
   193  1.498266462E-02
   194  6.956697274E-04
   195  4.080745987E-01
   196 -1.924825175E-01
   197 -1.659052080E-02
   198 -3.933742106E-02
   199  7.472796495E-03
   200  1.188312676E-02
   201 -3.118564714E-02
   202  4.315301841E-02
   203 -3.596987762E-02
   204 -3.372374842E-02
   205 -4.170693195E-02
   206  6.210193982E-02
   207 -5.170325904E-02
   208 -6.857629482E-02
   209 -4.647489027E-02
   210  5.608270258E-02
   211 -5.541621668E-02
   212  1.060957597E-03
   213  7.611475571E-03
   214  2.151945268E-03
   215  1.445697649E-02
   216 -3.675082348E-03
   217 -5.516487164E-01
   218  2.352039572E-02
   219  9.049069497E-02
   220 -1.105795161E-01
   221 -1.622340794E-02
   222 -2.588601579E-02
   223 -8.614954864E-02
   224  2.187240753E-02
   225 -3.329485675E-02
   226  7.646023027E-02
   227 -1.263252934E-01
   228  3.079928596E-02
   229 -4.762139184E-02
   230  9.088725025E-02
   231 -9.981364695E-02
   232  2.730416699E-02
   233 -4.087442147E-02
   234 -2.726298892E-03
   235  3.678975654E-04
   236  2.083886603E-03
   237  8.293789096E-03
   238 -1.046512127E-04
   239 -2.084354155E-01
   240  1.099563809E-02
   241 -2.416251656E-04
   242 -2.241453678E-03
   243  3.289945194E-03
   244  5.248477866E-03
   245 -1.788062685E-02
   246 -3.483246895E-03
   247 -1.860295709E-02
   248 -1.547209927E-02
   249 -2.380643084E-02
   250 -7.272264740E-03
   251 -2.562480328E-02
   252 -1.889018390E-02
   253 -2.468735224E-02
   254 -7.771306449E-04
   255 -2.429274628E-02
   256  1.561832978E-03
   257  4.492893162E-03
   258  6.766818760E-04
   259  9.291459275E-03
   260  5.202260889E-04
   261  1.219736773E-02
   262 -4.388270355E-03
   263 -1.603810282E-03
   264 -4.068466956E-03
   265  1.293578366E-02
   266  2.063890770E-02
   267 -1.672280894E-02
   268  6.312382309E-02
   269 -3.976371465E-02
   270 -6.093057344E-02
   271 -2.204110269E-02
   272  9.269064786E-02
   273 -5.741894854E-02
   274 -7.265047772E-02
   275 -2.357908162E-02
   276  7.310033279E-02
   277 -4.744167993E-02
   278 -1.915264001E-04
   279  3.816516845E-03
   280  2.383439712E-03
   281  7.076699817E-03
   282 -4.621804396E-03
   283  1.638787480E-01
   284 -4.012451067E-03
   285 -4.235906175E-03
   286  5.772871261E-03
   287  4.653626132E-02
   288  7.669004012E-02
   289  4.867791464E-02
   290  2.422444651E-03
   291  9.061159755E-04
   292 -1.968049446E-03
   293  2.466251815E-02
   294 -9.010500407E-03
   295 -1.201656831E-02
   296 -2.027543350E-02
   297 -1.495493078E-03
   298  2.753387724E-03
   299 -1.885773432E-03
   300 -1.068055617E-02
   301  1.120361045E-05
   302  1.118220747E-04
   303 -5.648948122E-04
   304  3.506889419E-03
   305 -2.371966484E-03
   306  2.655322275E-03
   307  7.949492319E-04
   308 -9.812557461E-03
   309 -1.852753908E-02
   310 -1.255534498E-03
   311 -3.275850609E-03
   312  2.052608589E-03
   313 -5.383586451E-04
   314 -8.163139297E-06
   315 -3.727263449E-02
   316 -6.251276225E-02
   317 -3.532421373E-02
   318 -3.379275268E-03
   319 -9.718127656E-04
   320  1.071666225E-03
   321 -1.775447677E-02
   322 -1.757664511E-04
   323 -1.142556623E-03
   324  9.243483086E-05
   325 -4.237013907E-03
   326  3.553552133E-03
   327 -3.243485434E-03
   328  3.115109783E-03
   329 -1.022965127E-02
   330 -1.694251197E-02
   331 -1.220592365E-02
   332 -3.917499858E-03
   333  4.288409180E-03
   334 -2.791665737E-03
   335 -3.846800739E-03
   336  4.626980027E-02
   337  7.452761111E-02
   338  5.572906817E-02
   339  2.295047839E-03
   340  8.721195612E-04
   341 -1.208734852E-03
   342  3.128020930E-02
   343 -3.672816220E-02
   344 -5.811162875E-02
   345 -4.803386568E-02
   346 -2.376839864E-03
   347 -1.699761733E-03
   348  1.092902344E-04
   349 -2.638890883E-02
   350 -7.078275199E-04
   351 -4.545145812E-03
   352  2.733705419E-03
   353 -3.970385703E-03
   354  8.280060258E-04
   355 -2.829152518E-03
   356  1.480858374E-02
   357 -4.021900115E-02
   358 -6.685751417E-02
   359 -4.693552919E-02
   360 -3.600452756E-03
   361 -2.429793557E-03
   362 -1.270940079E-03
   363 -1.832216879E-02
   364  5.044014997E-02
   365  8.384783244E-02
   366  5.932699223E-02
   367  2.052063446E-03
   368  1.826122539E-03
   369 -8.940132085E-05
   370  2.325022079E-02
   371  9.011489791E-04
   372  5.704742842E-03
   373 -2.772644039E-03
   374 -2.109648282E-03
   375  2.582252149E-03
   376 -1.762842712E-03
   377 -1.625805205E-02
   378 -1.533616985E-02
   379 -2.673901427E-02
   380 -3.574127813E-02
   381 -4.478610874E-03
   382  2.616681492E-03
   383 -8.579124003E-04
   384 -1.457514356E-03
   385 -7.312833023E-03
   386 -1.414100277E-02
   387 -2.721617515E-02
   388 -4.422695246E-03
   389  1.245953260E-03
   390 -3.037854249E-03
   391 -1.342058339E-03
   392 -2.892585203E-02
   393 -4.906254186E-02
   394 -5.162933907E-02
   395 -4.380986550E-03
   396 -9.277573213E-04
   397 -5.045740767E-04
   398  2.026114831E-03
   399  1.478529735E-03
   400  2.903591087E-03
   401  5.150491406E-03
   402 -1.225012952E-03
   403 -1.944037208E-04
   404 -9.003711265E-04
   405 -5.753240052E-04
   406  2.503233915E-02
   407  4.147639018E-02
   408  3.209121960E-02
   409  6.128373509E-04
   410  2.626705409E-04
   411 -1.750973607E-04
   412 -5.975760442E-03
   413 -1.604779582E-02
   414 -2.611898416E-02
   415 -1.425808428E-02
   416 -1.292308922E-03
   417 -1.289683340E-03
   418 -1.275763408E-03
   419  5.515748160E-03
   420  5.840769423E-03
   421  1.131005195E-02
   422  2.141269592E-02
   423 -1.598414146E-03
   424  3.843006530E-03
   425 -1.550506347E-03
   426  1.182406518E-03
   427  3.902551433E-03
   428  7.592949172E-03
   429  1.959631842E-02
   430 -1.312027016E-03
   431  3.218360172E-03
   432 -3.120853614E-03
   433  2.464236505E-03
   434  3.138876728E-02
   435  5.279559719E-02
   436  5.041281496E-02
   437  1.315315821E-03
   438  2.563519075E-03
   439 -1.303374487E-03
   440 -4.037258963E-03
Ene=   -2.8290491221E-01
Spin= Alpha
Occup=   2.0000000
     1 -2.677592767E-03
     2 -4.254542125E-03
     3 -3.783753875E-02
     4 -8.749378649E-02
     5 -2.129223505E-02
     6  1.089269632E-02
     7 -5.552087478E-02
     8 -1.295750400E-01
     9 -3.072716544E-02
    10  2.263356906E-02
    11 -4.173281342E-02
    12 -1.065125225E-01
    13 -2.093658588E-02
    14  3.809827396E-03
    15  1.805706069E-03
    16  1.803068684E-02
    17  1.770886560E-03
    18  6.266874003E-03
    19 -9.970941295E-02
    20  1.380032767E-01
    21 -1.770748308E-01
    22  2.723457820E-01
    23  3.980737737E-03
    24  6.328516547E-03
    25  1.881570788E-02
    26  5.108375801E-02
    27 -3.569234414E-03
    28 -1.813304808E-02
    29  2.491218553E-02
    30  7.192162478E-02
    31 -7.560818588E-03
    32 -3.849660607E-02
    33  2.081794356E-02
    34  7.040554699E-02
    35 -4.870300797E-04
    36  1.202411883E-03
    37  8.573226974E-04
    38  1.456675479E-02
    39 -4.555899667E-03
    40  3.067504943E-03
    41 -1.461542079E-01
    42 -2.700551302E-02
    43  4.132732243E-02
    44 -8.150684791E-02
    45  1.357240583E-05
    46  2.190597863E-05
    47 -3.361785120E-02
    48 -7.139942443E-02
    49 -1.918536344E-02
    50 -6.646247081E-05
    51 -4.910670754E-02
    52 -1.042745532E-01
    53 -2.803355704E-02
    54 -2.053795302E-04
    55 -3.840462163E-02
    56 -8.159976646E-02
    57 -2.206936122E-02
    58  1.457154029E-03
    59  8.835705062E-04
    60  1.058856370E-02
    61 -1.385963277E-03
    62  6.178047977E-03
    63  3.426541772E-02
    64  5.200889270E-02
    65  1.041632362E-01
    66  2.297634210E-02
    67  1.966223183E-03
    68  3.127536199E-03
    69  2.674826422E-02
    70  3.402429109E-02
    71  1.006153139E-02
    72 -9.005421400E-03
    73  3.786772800E-02
    74  4.463219298E-02
    75  1.383201244E-02
    76 -1.829271711E-02
    77  3.468735311E-02
    78  4.484879077E-02
    79  1.622717579E-02
    80  3.784240517E-03
    81  2.880144785E-03
    82  1.425142123E-02
    83 -1.745110345E-03
    84  5.386212578E-03
    85 -6.367309989E-02
    86  2.877203943E-02
    87 -6.701870565E-02
    88 -6.544710990E-03
    89 -1.325926586E-03
    90 -2.105947948E-03
    91 -4.093219337E-02
    92 -8.272217942E-02
    93 -2.378624177E-02
    94  5.378873087E-03
    95 -6.070985614E-02
    96 -1.214365165E-01
    97 -3.513394926E-02
    98  1.157694633E-02
    99 -4.948633738E-02
   100 -9.298376308E-02
   101 -2.849300710E-02
   102  3.356032126E-03
   103  4.081810301E-05
   104  1.417222536E-02
   105 -4.820748668E-03
   106  5.831109508E-03
   107 -5.857478400E-02
   108 -7.197136072E-02
   109  2.531821675E-01
   110 -2.544618516E-03
   111  7.768916506E-03
   112  1.235424339E-02
   113  2.214047885E-02
   114  5.512094132E-02
   115  8.901742215E-04
   116 -3.506453966E-02
   117  3.131162782E-02
   118  7.737702974E-02
   119 -1.259953575E-03
   120 -7.118150033E-02
   121  3.701640031E-02
   122  7.869056149E-02
   123  1.945113098E-03
   124 -5.974115930E-04
   125  8.700452584E-04
   126  1.288855810E-02
   127 -1.815842633E-03
   128  1.109109660E-02
   129 -5.810736219E-01
   130  6.247809676E-02
   131  7.630752834E-02
   132 -9.117408822E-02
   133 -5.971649014E-03
   134 -9.497450039E-03
   135  2.107453133E-02
   136  5.618456411E-02
   137  3.134195284E-02
   138  2.731674175E-02
   139  2.988732727E-02
   140  7.995515253E-02
   141  4.633104246E-02
   142  5.607934264E-02
   143  3.506095112E-02
   144  7.663600319E-02
   145  3.580969602E-02
   146  4.904280334E-03
   147  2.170261507E-03
   148  1.369534430E-02
   149 -2.563987640E-03
   150  6.115876331E-04
   151  1.752566138E-01
   152  1.246919533E-02
   153  6.306196088E-02
   154  9.483779986E-02
   155  3.989455215E-03
   156  6.338396732E-03
   157 -4.297946057E-02
   158 -8.851753403E-02
   159 -2.460451532E-02
   160 -1.623061312E-02
   161 -6.375703935E-02
   162 -1.313908801E-01
   163 -3.716199899E-02
   164 -3.384843600E-02
   165 -5.395931728E-02
   166 -1.093459667E-01
   167 -3.351268592E-02
   168  2.246782871E-03
   169  3.899279448E-03
   170  2.049164545E-02
   171 -5.669503582E-03
   172  1.003813857E-02
   173  1.953771765E-01
   174 -1.256464975E-01
   175 -2.733590789E-01
   176 -3.084864055E-01
   177 -5.178901501E-03
   178 -8.233395990E-03
   179  5.079035977E-02
   180  6.364850357E-02
   181  3.967181637E-02
   182  2.331503615E-02
   183  7.373295759E-02
   184  9.041278039E-02
   185  5.915733838E-02
   186  4.829323735E-02
   187  6.008719954E-02
   188  8.831591447E-02
   189  5.032372974E-02
   190  3.973484286E-03
   191  1.983994881E-03
   192  1.209595688E-02
   193  2.162793970E-04
   194  8.443808655E-03
   195  4.003491907E-01
   196  1.014765296E-01
   197  1.164729073E-01
   198  1.571721376E-01
   199 -2.551811227E-03
   200 -4.059201189E-03
   201  2.956007311E-02
   202  9.930260232E-02
   203  1.833580075E-02
   204  1.155277095E-02
   205  4.171119995E-02
   206  1.445483162E-01
   207  2.645193727E-02
   208  2.293404389E-02
   209  3.989050474E-02
   210  1.244049887E-01
   211  2.642250104E-02
   212  9.144222139E-04
   213 -1.599358899E-04
   214  1.270942185E-02
   215 -2.669137669E-03
   216  5.758082196E-03
   217  1.737738988E-01
   218  3.663355189E-02
   219  2.526923073E-01
   220  5.086893171E-02
   221  5.581685165E-03
   222  8.905507535E-03
   223  3.272148896E-02
   224  1.112292992E-02
   225  1.241718799E-02
   226 -2.627594013E-02
   227  4.733402077E-02
   228  1.288762174E-02
   229  1.759525748E-02
   230 -3.168775449E-02
   231  3.917848811E-02
   232  1.841226029E-02
   233  1.556775484E-02
   234  1.608797962E-03
   235  1.483322517E-03
   236  6.468328310E-03
   237  1.914247378E-04
   238  7.794366181E-03
   239  3.573278562E-02
   240  4.575496293E-03
   241  2.140958866E-03
   242  2.990637700E-03
   243 -1.682089131E-02
   244 -2.683957916E-02
   245  3.460768650E-02
   246  7.684943255E-02
   247  5.059974190E-02
   248  7.927932608E-02
   249  5.012790721E-02
   250  1.115626775E-01
   251  7.499264268E-02
   252  9.418723870E-02
   253  4.138068655E-02
   254  9.094906547E-02
   255  5.716650905E-02
   256  3.324324095E-03
   257  9.958874216E-04
   258  7.811281393E-03
   259 -1.045357248E-03
   260  2.070821888E-03
   261 -2.099389995E-01
   262  1.435379422E-03
   263 -4.036883293E-03
   264 -9.317504702E-03
   265  1.127846881E-02
   266  1.799451309E-02
   267  3.775893591E-03
   268  6.336728208E-02
   269 -2.212181890E-02
   270 -5.312161556E-02
   271  3.899750981E-03
   272  9.130514541E-02
   273 -3.426365959E-02
   274 -6.338066732E-02
   275  6.960138628E-03
   276  7.622132216E-02
   277 -2.259784129E-02
   278 -2.182122656E-03
   279 -7.512029138E-04
   280  8.205844140E-03
   281 -1.842972882E-03
   282  4.494727220E-03
   283  1.428268973E-01
   284 -5.722981239E-04
   285 -1.821472172E-03
   286  6.377254374E-03
   287 -1.558593323E-02
   288 -2.284130222E-02
   289 -2.734812547E-02
   290  3.416634736E-06
   291  3.498280610E-03
   292 -3.762968525E-04
   293 -1.444564193E-02
   294  4.817994545E-02
   295  7.896184552E-02
   296  5.205442857E-02
   297  8.738128691E-04
   298 -2.731961997E-04
   299 -2.958557987E-03
   300  2.769867985E-02
   301  2.085452815E-04
   302  4.441656596E-04
   303 -5.438327947E-04
   304 -2.047078481E-03
   305 -4.394154820E-03
   306 -1.202181970E-03
   307  7.986814041E-04
   308  4.802940156E-02
   309  7.776020139E-02
   310  5.600557422E-02
   311  5.371114882E-04
   312 -4.227281275E-04
   313 -2.685784299E-03
   314  3.041805614E-02
   315 -3.194959426E-02
   316 -5.006401605E-02
   317 -4.338962108E-02
   318  1.776924093E-03
   319  1.046011197E-04
   320  2.493757010E-03
   321 -2.288263441E-02
   322  1.047292977E-03
   323  6.096926480E-03
   324 -2.587041206E-03
   325  1.029652608E-03
   326  3.289194175E-03
   327  4.394830156E-04
   328 -1.817382006E-02
   329  5.231449322E-02
   330  8.697209796E-02
   331  6.175470626E-02
   332 -7.766304096E-04
   333 -2.972950045E-04
   334 -2.036009677E-03
   335  2.495569269E-02
   336 -1.634559908E-02
   337 -2.908883013E-02
   338 -8.900449935E-03
   339 -3.651569014E-04
   340  3.434241651E-03
   341  1.851261641E-03
   342 -3.786538531E-03
   343 -3.257136763E-02
   344 -5.511453463E-02
   345 -2.898573256E-02
   346  6.336760064E-04
   347  9.442679918E-04
   348  3.605987325E-03
   349 -1.571928136E-02
   350 -5.277682829E-04
   351 -3.766596220E-03
   352  1.988280932E-03
   353  3.194304637E-03
   354  3.760173152E-03
   355  2.104569261E-03
   356  1.388279565E-02
   357 -3.507247044E-02
   358 -5.823765185E-02
   359 -4.164944078E-02
   360  3.579034718E-03
   361  9.443141150E-04
   362  3.494847003E-03
   363 -1.662888448E-02
   364 -1.735271352E-02
   365 -2.876676460E-02
   366 -2.055066072E-02
   367  4.275408706E-04
   368  6.201891628E-03
   369  3.876167326E-04
   370 -7.265277740E-03
   371 -1.838042985E-04
   372 -1.818001269E-03
   373  1.112354812E-03
   374  1.838362227E-03
   375  5.887199426E-03
   376  9.675309354E-04
   377  5.782417855E-03
   378  2.738599860E-02
   379  4.558882843E-02
   380  3.698452470E-02
   381  5.072086317E-04
   382 -4.337528936E-04
   383 -5.633661339E-04
   384 -6.193946031E-03
   385  2.557375188E-03
   386  4.972818020E-03
   387  9.186964221E-03
   388  1.698145130E-03
   389  6.890714062E-04
   390  1.105519029E-03
   391 -1.659502005E-04
   392 -1.220450728E-02
   393 -1.956022384E-02
   394 -7.179174030E-03
   395  2.620086810E-03
   396  3.410606652E-04
   397  1.052800358E-03
   398  5.200610922E-03
   399 -7.542025456E-03
   400 -1.457348018E-02
   401 -2.838483952E-02
   402  2.847090689E-03
   403  4.542508387E-03
   404  1.958073328E-03
   405 -1.597506483E-03
   406 -1.895697639E-02
   407 -3.272259946E-02
   408 -4.103508766E-02
   409  5.535317252E-05
   410  4.727299632E-03
   411  2.350599646E-03
   412 -8.046782812E-04
   413 -2.698263787E-02
   414 -4.594007316E-02
   415 -5.001269530E-02
   416  1.951302556E-03
   417  2.066424488E-03
   418  3.913329586E-03
   419  2.700997780E-03
   420  5.159467409E-03
   421  9.930304124E-03
   422  1.904565474E-02
   423 -2.971040089E-04
   424  3.845343080E-03
   425 -5.996567750E-04
   426  8.456091259E-04
   427  3.113261270E-02
   428  5.225147383E-02
   429  4.806964641E-02
   430 -4.002251327E-04
   431  1.273874006E-03
   432 -2.200653697E-03
   433 -5.258773360E-03
   434 -4.333515514E-04
   435  2.893633106E-04
   436  1.303026937E-02
   437  8.826128297E-04
   438  3.986499598E-03
   439 -1.334457115E-03
   440  3.191427959E-03
Ene=   -2.7936874048E-01
Spin= Alpha
Occup=   2.0000000
     1 -2.018446390E-03
     2 -3.165660028E-03
     3 -5.414649010E-02
     4  2.266610359E-03
     5  7.766113499E-02
     6  7.065024036E-03
     7 -7.912930938E-02
     8  2.472549875E-03
     9  1.140587380E-01
    10  3.331970011E-02
    11 -7.010469845E-02
    12  1.601201982E-03
    13  1.014549350E-01
    14  7.342307157E-03
    15 -1.240148615E-02
    16  4.015895150E-03
    17  6.348290851E-03
    18 -1.103134758E-03
    19  1.588217774E-01
    20  7.128872132E-02
    21 -4.425387725E-02
    22 -6.987507427E-02
    23 -4.508943185E-03
    24 -7.189010843E-03
    25  4.830114903E-02
    26  1.488489940E-02
    27 -8.038609250E-02
    28  2.019007605E-02
    29  6.970365789E-02
    30  2.226128109E-02
    31 -1.165120010E-01
    32  3.561635265E-02
    33  5.608481181E-02
    34  1.014170554E-02
    35 -8.866981960E-02
    36  8.837787152E-03
    37 -1.090222977E-02
    38 -1.146330888E-03
    39  5.044521171E-03
    40  2.456646773E-03
    41  1.998824475E-01
    42  1.759065713E-02
    43 -8.504452557E-04
    44 -2.479928425E-02
    45  6.472782429E-03
    46  1.032352848E-02
    47 -5.768781170E-02
    48  5.379287184E-03
    49  8.072479439E-02
    50 -2.947030097E-02
    51 -8.210284222E-02
    52  7.668759903E-03
    53  1.148940392E-01
    54 -6.762150871E-02
    55 -7.919760971E-02
    56  7.409472131E-03
    57  1.108220515E-01
    58  1.253605784E-02
    59 -2.095224793E-02
    60  1.864142247E-03
    61  7.432418219E-03
    62 -1.364529214E-03
    63 -1.852192129E-01
    64 -1.849419234E-02
    65  7.221084816E-04
    66  2.802157251E-02
    67 -4.497438377E-03
    68 -7.169872024E-03
    69  7.071829575E-02
    70 -8.396026576E-03
    71 -6.285610761E-02
    72  2.010874690E-02
    73  1.029526393E-01
    74 -1.226313807E-02
    75 -9.051483999E-02
    76  3.592063659E-02
    77  7.391035519E-02
    78 -8.408229175E-03
    79 -7.485596888E-02
    80  3.242546383E-03
    81 -1.397088214E-02
    82  1.725203170E-03
    83  4.514126077E-03
    84 -7.597182614E-04
    85  1.993676506E-01
    86  1.970490794E-02
    87 -1.577089134E-03
    88 -2.550204161E-02
    89 -2.024000852E-03
    90 -3.174469454E-03
    91 -5.738001566E-02
    92  5.642156434E-03
    93  7.511461331E-02
    94  7.093973449E-03
    95 -8.484769502E-02
    96  8.428241189E-03
    97  1.095708151E-01
    98  3.338954019E-02
    99 -7.569253167E-02
   100  7.582945458E-03
   101  9.694783342E-02
   102  9.226098353E-03
   103 -1.326918808E-02
   104  1.220477037E-03
   105  1.662277938E-03
   106  1.665915629E-04
   107  1.501283022E-01
   108  3.226627247E-02
   109  1.099404758E-03
   110 -1.029843027E-01
   111  5.358188839E-03
   112  8.518808919E-03
   113  3.179900050E-02
   114  4.728510611E-03
   115 -3.420671716E-02
   116 -2.383813703E-02
   117  4.443076261E-02
   118  8.533803252E-03
   119 -4.523976411E-02
   120 -5.081825835E-02
   121  5.024435968E-02
   122  5.926050247E-03
   123 -5.598161183E-02
   124  5.984205761E-03
   125 -1.465624177E-02
   126 -5.765534502E-04
   127  6.021835615E-03
   128  2.079618778E-03
   129 -2.341913824E-01
   130  1.827695212E-02
   131  2.395679893E-02
   132  1.257013107E-02
   133 -4.484203559E-03
   134 -7.148323510E-03
   135  4.230148158E-02
   136 -2.140123734E-02
   137 -8.240464821E-02
   138  2.003406574E-02
   139  6.080212251E-02
   140 -3.156052808E-02
   141 -1.195106046E-01
   142  3.597858403E-02
   143  5.149340424E-02
   144 -1.862667271E-02
   145 -9.029929304E-02
   146  9.161685656E-03
   147 -1.066113682E-02
   148  2.530936546E-03
   149  3.052549612E-03
   150 -4.006724066E-03
   151  2.090969237E-01
   152  1.889825329E-02
   153 -8.621035735E-04
   154 -2.703107995E-02
   155 -2.033206353E-03
   156 -3.188841539E-03
   157 -5.324920182E-02
   158  7.527872736E-03
   159  7.795279152E-02
   160  7.124527337E-03
   161 -7.754818093E-02
   162  1.175785796E-02
   163  1.145833346E-01
   164  3.361243652E-02
   165 -6.863706629E-02
   166  1.075934400E-02
   167  1.017394275E-01
   168  6.800948751E-03
   169 -1.340112501E-02
   170 -1.821232762E-03
   171  5.858565237E-03
   172 -1.626259849E-03
   173  1.522352488E-01
   174  8.031653997E-02
   175  1.313214717E-02
   176 -7.722696299E-02
   177  5.384062106E-03
   178  8.561333781E-03
   179  2.907347941E-02
   180 -1.133744146E-02
   181 -3.514796152E-02
   182 -2.399385650E-02
   183  3.995999065E-02
   184 -1.791354763E-02
   185 -4.679163152E-02
   186 -5.048325920E-02
   187  4.632651012E-02
   188 -1.619264945E-02
   189 -5.708612116E-02
   190  6.351286212E-03
   191 -1.430452536E-02
   192  3.602642054E-03
   193  4.201892121E-03
   194 -3.969016601E-03
   195 -2.290417829E-01
   196  9.740016071E-03
   197 -2.855193382E-02
   198  1.319999469E-02
   199  5.377314928E-03
   200  8.549567888E-03
   201  1.918621588E-02
   202 -1.090300389E-03
   203 -4.288750436E-02
   204 -2.393081184E-02
   205  2.368453297E-02
   206 -1.037162021E-03
   207 -5.952599187E-02
   208 -5.088926146E-02
   209  3.269669882E-02
   210 -2.064219429E-03
   211 -6.793847260E-02
   212  1.187096419E-02
   213 -1.150900996E-02
   214  5.463955457E-04
   215  4.137772905E-03
   216 -7.772296675E-04
   217 -2.221250723E-01
   218 -2.795767335E-02
   219  5.705366751E-03
   220 -1.500845992E-02
   221  6.194875062E-03
   222  9.883184819E-03
   223  3.802580395E-02
   224 -6.027957868E-03
   225 -5.192759897E-03
   226 -2.894528663E-02
   227  5.487419065E-02
   228 -8.841812551E-03
   229 -4.739415337E-03
   230 -3.989421069E-02
   231  4.938481200E-02
   232 -7.610810609E-03
   233 -1.138121451E-02
   234  4.165831093E-04
   235 -9.622698896E-03
   236  1.408167192E-03
   237  2.382080875E-03
   238 -2.826140078E-04
   239 -6.168710673E-02
   240  9.749840406E-03
   241 -2.433376892E-03
   242  2.128901401E-02
   243  6.236762118E-03
   244  9.949875358E-03
   245  1.293646597E-04
   246 -2.343915288E-02
   247 -3.126644257E-02
   248 -2.913102346E-02
   249 -1.995152172E-03
   250 -3.495870082E-02
   251 -4.385465679E-02
   252 -4.032264926E-02
   253  3.844739910E-03
   254 -2.863879170E-02
   255 -4.276195309E-02
   256  6.433807679E-03
   257 -6.031149809E-03
   258  1.735740507E-03
   259  1.545147527E-03
   260 -4.147208247E-03
   261 -6.701019210E-02
   262 -1.732202053E-02
   263 -1.551333842E-02
   264  1.868516770E-03
   265  6.176356270E-03
   266  9.853145331E-03
   267  8.166614227E-03
   268  2.495019368E-02
   269 -2.852740760E-02
   270 -2.884616997E-02
   271  1.006922363E-02
   272  3.763462497E-02
   273 -3.974495350E-02
   274 -3.985536235E-02
   275  1.351625789E-02
   276  2.969431868E-02
   277 -3.948311941E-02
   278  6.177088199E-03
   279 -6.119778560E-03
   280 -1.227354728E-03
   281  3.802220802E-03
   282  2.997168389E-03
   283 -4.991351569E-02
   284 -1.161369366E-02
   285  1.699935583E-02
   286  5.670440256E-03
   287 -1.989456956E-02
   288 -3.558268302E-02
   289 -2.999667152E-02
   290  8.482900466E-04
   291  1.547061827E-03
   292 -5.125105214E-03
   293 -1.721262403E-02
   294 -2.000306136E-02
   295 -3.572075171E-02
   296 -3.030305468E-02
   297  3.181348937E-03
   298  2.617491531E-03
   299 -3.518698224E-03
   300 -1.769096037E-02
   301  1.016947696E-01
   302  1.606832751E-01
   303  1.214536068E-01
   304  3.051833716E-03
   305 -2.666885578E-04
   306 -4.257380028E-03
   307  3.467505214E-02
   308 -2.000363077E-02
   309 -3.573213792E-02
   310 -3.011111652E-02
   311  4.890458537E-03
   312  8.450091795E-04
   313 -2.184221983E-03
   314 -1.701214846E-02
   315 -1.982348392E-02
   316 -3.549798966E-02
   317 -2.973224571E-02
   318  4.395726990E-03
   319 -2.137447657E-03
   320 -2.353863132E-03
   321 -1.698933451E-02
   322  5.332345061E-02
   323  8.750043759E-02
   324  6.152445488E-02
   325 -1.208761318E-03
   326 -2.979251843E-04
   327  1.158111845E-03
   328  1.116183352E-02
   329 -1.646412664E-02
   330 -2.129153885E-02
   331 -2.388890159E-02
   332  2.338420783E-03
   333  9.476159744E-04
   334 -1.720920185E-03
   335  1.508135364E-02
   336 -1.988120087E-02
   337 -3.552141666E-02
   338 -2.996136189E-02
   339  3.938000428E-04
   340 -1.212527883E-03
   341 -5.279330918E-03
   342 -1.714788130E-02
   343 -1.983009264E-02
   344 -3.547031660E-02
   345 -2.988859073E-02
   346  2.237545771E-03
   347 -3.125044251E-03
   348 -3.836825554E-03
   349 -1.708691161E-02
   350  5.331859537E-02
   351  8.752348854E-02
   352  6.188630716E-02
   353 -1.078372439E-03
   354  5.343277274E-04
   355  1.197455684E-03
   356  1.289713020E-02
   357 -1.629066814E-02
   358 -2.101197124E-02
   359 -2.375403886E-02
   360  1.930526363E-03
   361 -1.466198610E-03
   362 -1.857941920E-03
   363  1.374654079E-02
   364 -1.632252277E-02
   365 -2.104304747E-02
   366 -2.390115793E-02
   367  4.488660055E-04
   368  7.358737378E-05
   369 -3.021351692E-03
   370  1.395887548E-02
   371  5.332426206E-02
   372  8.753354291E-02
   373  6.158716645E-02
   374 -5.627747263E-04
   375 -5.732204395E-06
   376  1.603859714E-03
   377  1.263600374E-02
   378 -4.559979148E-03
   379 -6.435857726E-03
   380 -6.847900628E-03
   381  2.611191296E-03
   382 -5.991348251E-04
   383 -3.108444784E-04
   384 -5.839425246E-03
   385  2.819285913E-02
   386  4.723394213E-02
   387  3.679212540E-02
   388  2.602779694E-04
   389 -8.290707693E-05
   390  7.239890113E-04
   391  1.891444488E-02
   392 -4.478097705E-03
   393 -6.316829044E-03
   394 -6.698580129E-03
   395  2.665699150E-03
   396 -2.402724830E-04
   397 -2.933560306E-04
   398 -5.210489723E-03
   399  2.821309686E-02
   400  4.732883951E-02
   401  3.633577289E-02
   402 -6.086890018E-04
   403 -4.841595899E-04
   404  1.324484588E-04
   405  1.844028134E-02
   406 -4.465971659E-03
   407 -6.286213893E-03
   408 -6.670322537E-03
   409  8.097306270E-05
   410 -1.762908981E-03
   411 -2.053061698E-03
   412 -4.686317614E-03
   413 -4.460293885E-03
   414 -6.258574180E-03
   415 -7.020861123E-03
   416 -1.470323575E-04
   417 -1.528274272E-03
   418 -2.229173696E-03
   419 -5.034837208E-03
   420  2.819080349E-02
   421  4.723812012E-02
   422  3.646616438E-02
   423 -4.183677581E-04
   424  6.185546928E-04
   425  1.949154997E-04
   426  1.899768382E-02
   427 -4.577783344E-03
   428 -6.467888694E-03
   429 -7.038271867E-03
   430  3.908754398E-04
   431  1.708259063E-03
   432 -2.044833915E-03
   433 -5.171482106E-03
   434 -4.510151426E-03
   435 -6.361396615E-03
   436 -6.870231178E-03
   437  6.710029697E-04
   438  1.830636246E-03
   439 -1.852925262E-03
   440 -4.915604236E-03
Ene=   -1.3300341165E-02
Spin= Alpha
Occup=   0.0000000
     1  1.856438612E-03
     2  2.913645305E-03
     3 -2.530663070E-03
     4  4.134370688E-04
     5  3.422451404E-03
     6 -5.175911472E-03
     7 -3.500194416E-03
     8 -2.169070042E-04
     9  5.157867506E-03
    10 -5.368522886E-02
    11 -1.213562023E-03
    12  1.465329564E-02
    13 -8.068657991E-03
    14  4.047655969E-05
    15  1.978948402E-04
    16  4.440268729E-03
    17  3.219581967E-03
    18 -5.343657026E-05
    19 -4.723023182E+00
    20  1.320127720E-01
    21 -2.379155115E-01
    22 -3.422440636E-01
    23 -1.212786121E-02
    24 -1.945455081E-02
    25 -1.166119314E-02
    26  1.883316188E-02
    27  4.489375558E-03
    28  5.345602305E-02
    29 -1.559053095E-02
    30  2.531944319E-02
    31  5.945261352E-03
    32  2.302480952E-01
    33 -4.041366925E-02
    34  5.608202129E-02
    35  2.065613019E-02
    36  1.939976361E-03
    37 -1.468077661E-03
    38 -2.060393396E-03
    39  1.900450205E-04
    40  1.433938852E-03
    41  4.605556711E+00
    42  3.560200223E-01
    43 -2.298784779E-01
    44 -3.362252236E-01
    45 -2.670003272E-03
    46 -4.376904045E-03
    47 -1.492198295E-02
    48  1.351545378E-03
    49  2.086071068E-02
    50  1.644770193E-02
    51 -2.047978947E-02
    52  1.846125491E-03
    53  2.844491364E-02
    54  3.937132646E-02
    55 -6.896182129E-02
    56  2.932218465E-03
    57  1.007546575E-01
    58 -2.763893891E-03
    59  4.565087816E-03
    60 -3.597541501E-04
    61 -1.595814605E-03
    62  2.672923648E-04
    63 -3.626520316E+00
    64 -9.728288179E-01
    65 -3.609911486E-02
    66  1.357356441E+00
    67 -1.213321035E-02
    68 -1.948527464E-02
    69  8.919972936E-03
    70 -2.540682407E-03
    71  2.061390325E-02
    72  5.424943297E-02
    73  1.216620071E-02
    74 -3.603421450E-03
    75  2.763175449E-02
    76  2.172648150E-01
    77  2.415061670E-02
    78 -4.023623702E-03
    79  7.391300539E-02
    80 -1.409332761E-03
    81 -2.425172900E-03
    82  4.830744844E-04
    83  1.943202749E-03
    84 -5.131853053E-04
    85  3.844240049E+00
    86  2.294219684E-01
    87  2.628181579E-02
    88 -3.496465746E-01
    89  1.853903817E-03
    90  2.902572073E-03
    91 -2.358906119E-03
    92  2.214330013E-04
    93  3.581560902E-03
    94 -5.004590106E-03
    95 -3.720033681E-03
    96  2.123896630E-04
    97  4.764300857E-03
    98 -6.022283221E-02
    99  7.826155649E-03
   100 -3.346718992E-03
   101  6.227896756E-03
   102  2.405329786E-03
   103 -1.685571572E-03
   104  3.192941599E-04
   105 -4.449499748E-03
   106  1.646017852E-03
   107 -4.847841946E+00
   108 -5.188957592E-01
   109 -4.610668122E-02
   110 -4.132739728E-01
   111 -1.263941109E-02
   112 -2.040650596E-02
   113  1.491420967E-02
   114  1.211035476E-02
   115 -2.981237266E-03
   116  5.964162681E-02
   117  1.969528975E-02
   118  1.571183416E-02
   119 -4.296773128E-03
   120  1.683887201E-01
   121  6.687770018E-02
   122  5.928619369E-02
   123 -4.385250040E-03
   124 -1.951435640E-06
   125  3.297546402E-04
   126 -2.952154060E-04
   127 -1.789936445E-05
   128 -5.837748909E-04
   129  3.252530643E+00
   130 -1.805675825E-01
   131 -1.242479703E-01
   132  2.812229700E-01
   133 -1.212659085E-02
   134 -1.947786196E-02
   135 -1.714578738E-02
   136 -1.443272039E-02
   137  2.720363344E-03
   138  5.423072359E-02
   139 -2.297161082E-02
   140 -1.959400274E-02
   141  3.541132255E-03
   142  2.169286035E-01
   143 -6.247112302E-02
   144 -4.354178097E-02
   145  1.381244370E-02
   146  2.308878504E-03
   147 -8.622936043E-04
   148  2.095685445E-03
   149 -4.419510425E-04
   150 -1.284852891E-03
   151  3.774820216E+00
   152  2.777907919E-01
   153 -2.062171167E-02
   154 -3.800024079E-01
   155  1.853226492E-03
   156  2.898215005E-03
   157 -2.587691109E-03
   158  1.159812927E-04
   159  3.418145604E-03
   160 -4.848567223E-03
   161 -3.438962304E-03
   162  3.961137112E-04
   163  5.072100704E-03
   164 -6.201064220E-02
   165 -3.666328255E-03
   166 -8.277999800E-03
   167 -2.461766169E-03
   168 -7.446863366E-04
   169 -1.405484116E-03
   170 -4.555762015E-03
   171  2.235905665E-03
   172 -1.763693162E-03
   173 -4.839880578E+00
   174  3.379937634E-01
   175  6.033463625E-01
   176  2.341407849E-01
   177 -1.264178610E-02
   178 -2.043752414E-02
   179  1.031260659E-02
   180 -1.585910577E-02
   181 -4.496828782E-03
   182  6.045192888E-02
   183  1.369067882E-02
   184 -2.067148001E-02
   185 -6.088447342E-03
   186  1.551641623E-01
   187  4.699568843E-02
   188 -7.963169775E-02
   189 -1.743168968E-02
   190  1.153039144E-04
   191  4.253629975E-04
   192  1.521192831E-04
   193  4.075866359E-04
   194  4.907377052E-04
   195  2.805607961E+00
   196 -2.453974072E-01
   197  3.254004627E-02
   198  8.336637708E-02
   199 -1.263807845E-02
   200 -2.040506428E-02
   201 -6.979659118E-03
   202  2.110064951E-03
   203 -1.801450698E-02
   204  5.955916584E-02
   205 -8.827005669E-03
   206  2.789693936E-03
   207 -2.380139084E-02
   208  1.709705237E-01
   209 -4.125946318E-02
   210  8.783796028E-03
   211 -7.921864645E-02
   212 -4.393089919E-04
   213 -1.640926217E-04
   214  1.041498804E-04
   215 -5.126594663E-04
   216  1.869919562E-04
   217  2.408902605E+00
   218 -1.393185584E-01
   219 -1.739545877E-01
   220  1.414522329E-01
   221 -9.627689185E-03
   222 -1.546094271E-02
   223  2.534787138E-02
   224 -4.648013145E-03
   225  8.284496123E-03
   226  4.419670178E-02
   227  3.564289494E-02
   228 -6.372531690E-03
   229  1.184872642E-02
   230  1.667117123E-01
   231  8.122977064E-02
   232 -1.494299020E-02
   233  3.102927272E-02
   234 -1.044573340E-03
   235  3.050691141E-04
   236 -2.054055586E-05
   237  1.902765726E-03
   238 -6.691830271E-04
   239  3.114698935E+00
   240 -2.365949976E-01
   241  2.540047518E-02
   242 -1.133786639E-01
   243 -9.621405927E-03
   244 -1.544827486E-02
   245 -9.105982641E-03
   246 -2.032235757E-02
   247 -1.535472435E-02
   248  4.397739802E-02
   249 -1.293658199E-02
   250 -2.872877002E-02
   251 -2.147290414E-02
   252  1.694374221E-01
   253 -3.271958990E-02
   254 -6.413459010E-02
   255 -4.730090352E-02
   256  5.815938827E-04
   257  3.388243964E-04
   258  1.979798672E-03
   259 -8.617237728E-04
   260  4.874218903E-04
   261  3.050758073E+00
   262  9.737051451E-02
   263  1.614311778E-01
   264  1.158278275E-01
   265 -9.616655619E-03
   266 -1.544457511E-02
   267 -1.851921820E-03
   268  2.362713295E-02
   269 -1.304458858E-02
   270  4.444307274E-02
   271 -2.781044722E-03
   272  3.344380031E-02
   273 -1.791475124E-02
   274  1.597323454E-01
   275 -8.881606922E-03
   276  8.072258139E-02
   277 -4.343791356E-02
   278  2.382329198E-04
   279 -2.936842595E-04
   280 -1.900803625E-03
   281 -1.160217732E-03
   282  2.123547691E-04
   283  2.608320753E+00
   284  4.020309314E-02
   285 -1.650135424E-01
   286  5.945090511E-02
   287 -3.349374398E-05
   288 -4.759881067E-03
   289 -2.646630188E-01
   290  5.589457695E-03
   291  2.412041231E-04
   292  2.391943108E-03
   293 -4.793374017E-01
   294 -9.862876306E-06
   295 -4.863456300E-03
   296 -2.610450459E-01
   297 -3.154968216E-03
   298 -3.758100589E-03
   299 -3.616292783E-03
   300 -4.718926679E-01
   301 -2.245694877E-03
   302 -9.089598125E-03
   303 -2.811711129E-01
   304  2.929043670E-03
   305 -2.013208583E-04
   306 -4.153322917E-03
   307 -9.901969651E-01
   308  6.685726655E-05
   309 -5.961270513E-03
   310 -2.553401176E-01
   311 -1.596962836E-03
   312 -5.364420218E-03
   313 -2.406153583E-03
   314 -5.318115041E-01
   315  1.665568044E-05
   316 -4.705822669E-03
   317 -2.541280030E-01
   318  2.091938503E-04
   319  5.871425686E-03
   320 -1.830998147E-03
   321 -4.915325106E-01
   322  1.964786393E-03
   323 -1.126183670E-03
   324 -2.437304179E-01
   325 -2.571361893E-03
   326  1.414290716E-03
   327  5.103715457E-03
   328 -2.657296803E-01
   329  1.223680435E-03
   330 -5.674811224E-03
   331 -2.708672084E-01
   332 -8.237928993E-04
   333 -4.070114104E-03
   334 -4.358621333E-03
   335 -4.995676831E-01
   336  8.342009568E-05
   337 -6.263277889E-03
   338 -2.573037805E-01
   339  5.169189070E-03
   340 -2.272532982E-03
   341  2.249941247E-03
   342 -4.953042612E-01
   343  2.947123273E-05
   344 -4.833783947E-03
   345 -2.567415953E-01
   346 -1.737452484E-03
   347  4.975366333E-03
   348 -3.162593440E-03
   349 -4.883952815E-01
   350  2.030577889E-03
   351 -1.987573812E-03
   352 -2.506169096E-01
   353 -2.943278332E-03
   354 -1.048493307E-03
   355  4.966125870E-03
   356 -3.058532072E-01
   357  1.220741405E-03
   358 -5.123998435E-03
   359 -2.761777906E-01
   360  6.124674006E-04
   361  4.601157850E-03
   362 -3.937750612E-03
   363 -4.517540846E-01
   364  1.259853788E-03
   365 -6.300362599E-03
   366 -2.590938566E-01
   367  5.927325310E-03
   368 -9.755599097E-04
   369  2.939883085E-04
   370 -4.881416619E-01
   371  2.016996985E-03
   372 -1.868295199E-03
   373 -2.325419995E-01
   374 -4.434454753E-03
   375  5.459826360E-04
   376  3.803851118E-03
   377 -2.943568116E-01
   378  6.814422220E-04
   379 -1.321952495E-03
   380 -1.790697191E-01
   381  6.430417241E-04
   382 -4.778582753E-03
   383 -2.765840718E-03
   384 -3.833952697E-01
   385  1.771829388E-03
   386  3.999610474E-03
   387 -1.805977090E-01
   388 -6.553116755E-04
   389 -1.853389428E-04
   390  5.360634329E-03
   391 -4.965657091E-01
   392  6.090846871E-04
   393 -3.146068547E-04
   394 -1.887510986E-01
   395  2.223872305E-03
   396  4.616382394E-03
   397 -2.295630677E-03
   398 -4.281722545E-01
   399  1.843078779E-03
   400  3.071965061E-03
   401 -1.699235212E-01
   402 -4.110736144E-03
   403 -1.785323424E-03
   404  2.940491550E-03
   405 -4.958840590E-01
   406  6.610620679E-04
   407 -1.190123831E-03
   408 -1.792016234E-01
   409  4.731665297E-03
   410 -2.926672817E-03
   411  4.972601720E-05
   412 -4.175866746E-01
   413  6.589078324E-04
   414 -9.050953701E-04
   415 -1.755417750E-01
   416 -1.051339366E-03
   417  3.117166688E-03
   418 -4.538891315E-03
   419 -4.276380672E-01
   420  1.732545736E-03
   421  4.598214143E-03
   422 -1.937123528E-01
   423 -3.415686057E-03
   424  2.685424605E-03
   425  3.223809297E-03
   426 -5.050949277E-01
   427  6.110236146E-04
   428 -2.525499381E-04
   429 -1.877356890E-01
   430 -1.930578477E-03
   431 -2.169387610E-03
   432 -4.793807728E-03
   433 -3.889919408E-01
   434  5.859804151E-04
   435 -6.253140413E-05
   436 -1.955421025E-01
   437  5.463898181E-03
   438  1.226446898E-03
   439  2.869277553E-04
   440 -3.999855447E-01
Ene=    5.3408786550E-03
Spin= Alpha
Occup=   0.0000000
     1 -2.804898122E-03
     2 -4.646743586E-03
     3  4.097609210E-03
     4  5.316885280E-04
     5 -5.498026800E-03
     6  1.587231975E-02
     7  9.406953619E-03
     8  2.650272226E-03
     9 -1.389990520E-02
    10 -4.996047149E-03
    11  6.051058050E-03
    12 -2.903229036E-02
    13  7.281243656E-03
    14 -3.433350409E-03
    15  3.733931615E-03
    16  2.799483116E-03
    17 -4.389040962E-04
    18 -1.639418003E-03
    19  2.668085408E+00
    20  8.896260898E-01
    21 -1.255898147E+00
    22 -1.053364666E-01
    23 -4.632503491E-03
    24 -7.224814735E-03
    25 -1.706489112E-02
    26  1.449171197E-02
    27  1.437963234E-02
    28  1.530405706E-02
    29 -2.661090229E-02
    30  2.026780619E-02
    31  2.391132170E-02
    32  1.782615863E-01
    33 -1.194005654E-02
    34  1.741227181E-02
    35  1.112684982E-02
    36  1.376902619E-03
    37 -3.015772660E-04
    38 -3.619612444E-03
    39 -1.014141485E-03
    40  1.784056182E-03
    41  4.328601193E+00
    42  1.180046660E-01
    43 -3.865619781E-01
    44  4.953246856E-02
    45 -1.030508229E-02
    46 -1.657834411E-02
    47 -2.135128649E-02
    48  2.470578172E-03
    49  3.029053990E-02
    50  4.583971012E-02
    51 -2.615291344E-02
    52  3.138349271E-03
    53  3.775607010E-02
    54  3.136769914E-01
    55 -1.508971397E-01
    56  1.510444047E-02
    57  2.039074112E-01
    58 -2.550258519E-03
    59  4.280788171E-03
    60 -4.854016172E-04
    61 -1.547636407E-03
    62  2.528762349E-04
    63 -7.914073928E+00
    64 -2.139271328E+00
    65  1.970563997E-01
    66  2.911632217E+00
    67 -4.721747026E-03
    68 -7.362179558E-03
    69 -1.390875308E-03
    70 -1.785586431E-03
    71  2.675538969E-02
    72  1.549420459E-02
    73 -5.109143906E-03
    74 -2.456570675E-03
    75  4.104270292E-02
    76  1.842969578E-01
    77  3.105404683E-03
    78  3.666022526E-04
    79  2.203910112E-02
    80 -3.015145246E-03
    81 -1.088518745E-03
    82  2.124307804E-04
    83  2.874864595E-03
    84 -9.227047407E-04
    85  5.044003056E+00
    86 -3.180330259E-01
    87  1.189198527E-01
    88 -4.568635283E-01
    89 -2.783143310E-03
    90 -4.605317415E-03
    91  4.570528346E-03
    92  6.859488469E-05
    93 -5.182266524E-03
    94  1.559927648E-02
    95  1.221417572E-02
    96 -3.318260142E-04
    97 -1.156637011E-02
    98 -1.789979755E-03
    99 -2.230940150E-02
   100  3.456450636E-03
   101 -2.114714633E-02
   102  7.562921978E-04
   103  4.663148562E-03
   104 -7.452067972E-04
   105 -3.698002402E-03
   106  8.998883019E-04
   107  2.803614668E+00
   108 -5.412290845E-01
   109  1.898324322E-01
   110 -1.533598329E+00
   111  3.724142294E-03
   112  5.809637226E-03
   113 -2.020025219E-02
   114 -5.059326390E-03
   115  1.931712612E-02
   116 -1.291923306E-02
   117 -2.886306022E-02
   118 -9.564208442E-03
   119  2.467016136E-02
   120 -1.106106236E-01
   121 -3.901833654E-02
   122  1.037679344E-02
   123  6.025238031E-02
   124 -4.634816212E-04
   125  2.291797727E-03
   126  3.032760216E-04
   127 -1.048676044E-03
   128 -9.349904881E-04
   129 -4.402423941E+00
   130  2.833954308E-01
   131  6.605290319E-01
   132  5.199930137E-01
   133 -5.152747482E-03
   134 -8.036879439E-03
   135 -2.185116187E-02
   136 -1.119942646E-02
   137  1.337105559E-02
   138  1.700170552E-02
   139 -3.333034980E-02
   140 -1.513309972E-02
   141  2.283807965E-02
   142  1.931016385E-01
   143 -1.804966074E-02
   144 -1.737685238E-02
   145  5.730763918E-03
   146  2.017039975E-03
   147  5.981601587E-04
   148  3.191460652E-03
   149 -1.510009061E-03
   150 -9.381846653E-04
   151  4.823529165E+00
   152  3.089443606E-01
   153  3.068298833E-01
   154  2.306576360E-02
   155 -2.678137566E-03
   156 -4.442639222E-03
   157  4.042778863E-03
   158 -2.292716979E-04
   159 -5.690706267E-03
   160  1.563553747E-02
   161  8.883071096E-03
   162 -1.957813817E-03
   163 -1.434865634E-02
   164 -1.199248201E-02
   165  1.529047117E-02
   166  2.313734642E-02
   167  8.732484003E-03
   168 -4.058646554E-03
   169  2.846589137E-03
   170 -3.421238460E-03
   171  1.841994382E-04
   172  1.252627231E-03
   173  1.413263366E+00
   174  1.209499243E+00
   175  9.903358557E-01
   176 -4.312567481E-02
   177  3.320379476E-03
   178  5.175462708E-03
   179 -1.753326686E-02
   180  7.395976208E-03
   181  1.980069857E-02
   182 -1.139624523E-02
   183 -2.425753646E-02
   184  1.307934592E-02
   185  2.548921221E-02
   186 -1.028317973E-01
   187 -4.235336305E-02
   188 -8.107175835E-03
   189  5.576164959E-02
   190 -6.344660746E-04
   191  2.184423035E-03
   192 -1.004310646E-03
   193 -3.616908398E-04
   194  1.029455532E-03
   195 -3.746948980E+00
   196 -1.246922345E-01
   197 -7.476547618E-01
   198  4.276766918E-01
   199  3.396092668E-03
   200  5.290732417E-03
   201 -1.003710114E-02
   202 -2.786415389E-04
   203  2.572964931E-02
   204 -1.149358506E-02
   205 -1.088717655E-02
   206 -9.985244328E-04
   207  3.645683464E-02
   208 -1.114199529E-01
   209 -4.527230387E-02
   210  8.437807564E-04
   211  4.870771131E-02
   212 -2.373513164E-03
   213  1.243051664E-03
   214 -1.186870500E-04
   215 -5.857357347E-04
   216  6.163046211E-05
   217 -2.770580349E+00
   218 -7.083868073E-01
   219  4.405517359E-02
   220  4.024282821E-02
   221  7.731473107E-03
   222  1.242178240E-02
   223 -1.365288122E-02
   224  1.031864867E-03
   225  1.340374703E-02
   226 -3.736525070E-02
   227 -2.284827999E-02
   228  1.930679968E-03
   229  2.023691320E-02
   230 -9.456805152E-02
   231 -3.918549967E-02
   232  5.922325919E-03
   233  1.771936818E-02
   234 -1.128098772E-04
   235 -4.329684886E-04
   236  4.781897902E-05
   237  7.937635173E-04
   238 -3.001214367E-04
   239 -9.174193724E-01
   240 -2.048054339E-01
   241 -1.791878929E-02
   242  3.883104700E-01
   243  6.789047958E-03
   244  1.093077541E-02
   245 -9.945725265E-03
   246  1.933934311E-03
   247  1.556580263E-02
   248 -3.368021949E-02
   249 -1.468205813E-02
   250  4.428984639E-03
   251  2.478502069E-02
   252 -6.936103836E-02
   253 -1.048109505E-02
   254  1.644937689E-02
   255  4.067412335E-02
   256  4.811067693E-04
   257 -2.609838356E-04
   258  7.438917182E-04
   259 -2.140011959E-04
   260  1.735123988E-04
   261 -4.230164188E-01
   262 -2.870435544E-01
   263  1.568276827E-02
   264  3.606027174E-01
   265  7.944556453E-03
   266  1.276262868E-02
   267 -1.036377005E-02
   268 -2.580470017E-03
   269  1.616165430E-02
   270 -3.840284636E-02
   271 -1.594145671E-02
   272 -5.768771936E-03
   273  2.567070062E-02
   274 -9.587395988E-02
   275 -1.494507576E-02
   276 -1.874526503E-02
   277  3.963350708E-02
   278  4.294370118E-04
   279 -5.137369681E-04
   280 -6.151339594E-04
   281 -2.057604769E-04
   282  4.348129396E-05
   283 -8.457789694E-01
   284 -2.824875190E-01
   285  4.796525145E-02
   286  3.220915480E-01
   287  2.824025409E-04
   288  2.319802337E-03
   289 -1.013228938E-01
   290  4.321291202E-03
   291  7.670860919E-05
   292  1.040604417E-03
   293 -5.855092009E-01
   294 -1.457339993E-04
   295  1.976916818E-04
   296 -1.003914321E-01
   297 -1.638140467E-03
   298 -2.504675671E-03
   299 -2.997592072E-03
   300 -5.723243636E-01
   301 -3.594721636E-03
   302 -4.752934598E-02
   303 -4.163109514E-01
   304  4.276440797E-03
   305 -2.572010013E-04
   306 -5.766541115E-03
   307 -2.738579103E+00
   308 -2.388878235E-04
   309  1.290016559E-03
   310 -1.205741834E-01
   311 -6.510501765E-04
   312 -3.615623427E-03
   313 -2.182013423E-03
   314 -5.690978218E-01
   315  3.654496389E-04
   316  2.581626435E-03
   317 -1.137537409E-01
   318  5.628058374E-04
   319  4.041716191E-03
   320 -1.918074446E-03
   321 -5.139686148E-01
   322 -9.134663560E-03
   323 -2.244255736E-02
   324  2.278662325E-01
   325  3.523576876E-03
   326 -8.128346876E-04
   327 -5.540717986E-03
   328  7.624897219E-01
   329  1.831766103E-03
   330  3.397805968E-03
   331  7.128613112E-03
   332 -2.452397916E-05
   333  4.638000489E-04
   334  6.483175176E-04
   335  2.044651709E-02
   336  3.095907439E-04
   337  2.308953755E-03
   338 -1.141442047E-01
   339  4.206230112E-03
   340 -1.580167528E-03
   341  1.100542387E-03
   342 -6.077673859E-01
   343  4.359200742E-04
   344  1.935980916E-03
   345 -1.191706273E-01
   346 -7.914263772E-04
   347  3.578732205E-03
   348 -2.839455046E-03
   349 -6.303161588E-01
   350 -9.096206632E-03
   351 -2.286251596E-02
   352  2.155901313E-01
   353  3.655875981E-03
   354  2.085484473E-04
   355 -5.306593752E-03
   356  7.455177899E-01
   357  2.359218871E-03
   358  5.603543995E-03
   359 -1.527476731E-02
   360 -1.398584684E-04
   361 -1.191290472E-04
   362  3.788033465E-04
   363 -2.339794604E-02
   364  2.206940148E-03
   365  6.167996621E-03
   366 -2.657464947E-02
   367 -4.192452311E-04
   368  1.162951748E-04
   369  1.892135906E-04
   370  6.556454797E-02
   371 -9.207499819E-03
   372 -2.169979417E-02
   373  1.854218009E-01
   374  4.181636989E-03
   375 -3.633585387E-04
   376 -4.957490138E-03
   377  7.224502100E-01
   378  1.484217550E-03
   379 -3.015445850E-03
   380  1.071371632E-01
   381  1.324648038E-04
   382  1.194648587E-03
   383  9.753681342E-04
   384  1.608656387E-01
   385 -3.995666733E-03
   386 -1.378385266E-02
   387  1.838871218E-01
   388  4.388417560E-03
   389 -4.327586306E-04
   390 -5.642948762E-03
   391  1.003324880E+00
   392  1.803585385E-03
   393 -1.697625141E-03
   394  1.030602850E-01
   395 -2.788372555E-04
   396 -1.084457078E-03
   397  7.283936386E-04
   398  1.046517727E-01
   399 -4.061409707E-03
   400 -1.368094576E-02
   401  1.818894128E-01
   402  3.715018358E-03
   403 -6.272192548E-04
   404 -5.629706698E-03
   405  9.709712850E-01
   406  1.738322221E-03
   407 -1.601182759E-03
   408  9.636595669E-02
   409 -9.441973774E-04
   410  3.189609952E-04
   411 -6.076508679E-05
   412  5.365651207E-02
   413  1.847717287E-03
   414 -2.162130451E-03
   415  9.299591515E-02
   416  1.679344887E-05
   417 -6.903571200E-04
   418  7.319180646E-04
   419  5.848487100E-02
   420 -3.980408708E-03
   421 -1.400620693E-02
   422  1.948323977E-01
   423  4.108427857E-03
   424 -1.345045402E-04
   425 -5.948823042E-03
   426  1.024160411E+00
   427  1.493403261E-03
   428 -3.223763333E-03
   429  1.079864687E-01
   430  4.379368117E-04
   431  9.809078090E-04
   432  1.263111896E-03
   433  1.590276593E-01
   434  1.763610356E-03
   435 -2.171362546E-03
   436  1.130669979E-01
   437 -1.469385682E-03
   438  2.200264565E-06
   439 -1.593124772E-04
   440  1.303629502E-01
Ene=    5.6990387704E-03
Spin= Alpha
Occup=   0.0000000
     1  1.645290466E-03
     2  2.758999923E-03
     3  1.103283302E-02
     4 -7.375328162E-03
     5  5.205983724E-03
     6 -8.959841891E-03
     7  1.938755437E-02
     8 -1.661137603E-02
     9  1.074486532E-02
    10  3.252623405E-03
    11  1.389963749E-02
    12  2.141701813E-02
    13 -1.574779240E-02
    14 -2.684655387E-04
    15  1.224570631E-03
    16  9.461653352E-04
    17  3.123698932E-03
    18 -1.169249064E-03
    19 -8.591987625E+00
    20 -1.194558447E+00
    21 -3.177195609E-01
    22  4.000573654E-01
    23 -6.866645232E-03
    24 -1.089551814E-02
    25 -1.852289470E-02
    26  1.529923369E-02
    27 -3.519028157E-03
    28  2.725463930E-02
    29 -2.640898526E-02
    30  2.270283112E-02
    31 -3.821556489E-03
    32  1.624121404E-01
    33 -3.515665176E-02
    34  2.650592939E-02
    35 -8.758797605E-03
    36 -7.769779066E-04
    37  3.493860885E-04
    38  1.336774025E-03
    39  1.717254721E-03
    40 -1.029369277E-03
    41  1.586485513E+00
    42 -6.260090405E-02
    43  3.210747942E-01
    44 -3.179209545E-01
    45 -3.969770326E-05
    46 -6.408495294E-05
    47  9.836393277E-03
    48 -8.379684522E-03
    49  7.747811855E-03
    50  1.938667903E-04
    51  1.504912083E-02
    52 -1.292035489E-02
    53  1.190955632E-02
    54  4.695821189E-04
    55  3.823963502E-02
    56 -3.047374568E-02
    57  2.946044350E-02
    58 -4.098149576E-04
    59  5.834824739E-04
    60  7.145219682E-04
    61  2.005712369E-03
    62 -3.653648280E-04
    63 -4.046433417E-02
    64 -1.197494839E-01
    65 -3.026664183E-02
    66 -7.386082965E-02
    67  7.617215014E-03
    68  1.208797199E-02
    69 -1.083903984E-02
    70  1.069662889E-02
    71 -2.022972210E-02
    72 -3.018550858E-02
    73 -1.546416183E-02
    74  1.452680736E-02
    75 -3.010054484E-02
    76 -1.817515494E-01
    77 -2.049459944E-02
    78  2.027045491E-02
    79 -3.472533343E-02
    80 -1.407869298E-03
    81 -3.472285505E-06
    82  8.129367387E-04
    83  2.104731374E-03
    84 -4.426790536E-04
    85 -1.562020558E+00
    86 -5.302598190E-01
    87  2.399624762E-01
    88 -5.533343300E-02
    89 -1.857844753E-03
    90 -3.107470234E-03
    91  7.169988886E-03
    92 -7.946441454E-03
    93  9.117775626E-03
    94  9.855335412E-03
    95  1.689349252E-02
    96 -1.461173607E-02
    97  1.741704520E-02
    98 -1.501545813E-03
    99 -3.266498568E-02
   100 -4.971114201E-04
   101  5.992426311E-03
   102 -6.661590924E-04
   103  7.209629321E-04
   104  1.202189448E-03
   105  3.162675399E-03
   106 -1.130964571E-05
   107  9.717519248E+00
   108  8.490011400E-01
   109  1.463858904E-01
   110 -8.735051112E-01
   111  6.173670675E-04
   112  9.827602912E-04
   113 -1.145942405E-02
   114  7.767361812E-03
   115 -7.678971133E-03
   116 -2.442141256E-03
   117 -1.854125040E-02
   118  1.343488963E-02
   119 -1.258924126E-02
   120 -1.621267162E-02
   121 -2.700429839E-02
   122  1.747260836E-02
   123 -1.692543201E-02
   124 -3.274760170E-04
   125  1.030937046E-03
   126  1.096226336E-03
   127  2.923905764E-03
   128 -4.492596914E-04
   129  3.722140896E-01
   130 -2.103996355E+00
   131  2.063860466E+00
   132 -1.506396849E+00
   133 -8.191810913E-04
   134 -1.294114254E-03
   135 -1.318759101E-02
   136  9.943839678E-03
   137 -8.754870391E-03
   138  3.011729667E-03
   139 -1.780594320E-02
   140  1.290000316E-02
   141 -1.150353186E-02
   142  2.220831089E-02
   143 -2.578114237E-02
   144  2.161921887E-02
   145 -1.892421923E-02
   146 -4.221806367E-04
   147  4.364772601E-04
   148  6.224664833E-04
   149  1.782676466E-03
   150 -2.729596509E-04
   151  1.440580560E-01
   152 -1.742670335E-01
   153  1.201305431E-01
   154 -2.519466164E-01
   155  1.819725198E-04
   156  3.041621530E-04
   157  9.935415017E-03
   158 -8.436306975E-03
   159  7.257900556E-03
   160 -9.233902544E-04
   161  1.722588845E-02
   162 -1.414162655E-02
   163  1.281278869E-02
   164  4.261293396E-04
   165  1.034902801E-02
   166 -1.175476364E-02
   167  3.737756502E-03
   168  1.350492697E-04
   169  1.569081935E-03
   170  9.834121418E-04
   171  3.770990395E-03
   172 -1.031308244E-04
   173 -9.660334814E-01
   174 -6.297375597E-01
   175  6.418247558E-01
   176 -3.638627008E-01
   177  5.220085048E-03
   178  8.310117055E-03
   179 -1.682506463E-02
   180  1.874365772E-02
   181 -5.100478380E-03
   182 -2.195935395E-02
   183 -2.547402830E-02
   184  2.605318751E-02
   185 -8.444928929E-03
   186 -1.040415722E-01
   187 -4.963163913E-02
   188  3.927095123E-02
   189  5.097040816E-03
   190 -6.663911245E-05
   191  8.805536608E-04
   192 -3.060852795E-05
   193  2.587015224E-03
   194 -7.641072548E-05
   195 -2.377275699E+00
   196 -1.594336360E+00
   197 -1.034090144E+00
   198 -7.981519504E-01
   199 -5.822973776E-03
   200 -9.263029658E-03
   201 -1.532610123E-02
   202  1.018371711E-02
   203 -2.054191601E-02
   204  2.416111375E-02
   205 -2.169213006E-02
   206  1.612513838E-02
   207 -2.912918882E-02
   208  1.222872277E-01
   209 -1.849328242E-02
   210  2.008926231E-02
   211 -6.077221924E-02
   212  4.991491753E-04
   213  1.108672041E-03
   214  9.349263025E-04
   215  2.027445066E-03
   216 -1.345906716E-04
   217  1.853478199E+00
   218  6.193389954E-01
   219  1.118355317E+00
   220 -4.150512999E-02
   221  1.632763871E-02
   222  2.611401446E-02
   223 -2.982233378E-02
   224  1.187207111E-02
   225 -1.382945085E-02
   226 -7.248196088E-02
   227 -4.916870619E-02
   228  1.823217741E-02
   229 -2.010308624E-02
   230 -2.917485565E-01
   231 -6.402878209E-02
   232  1.904056455E-02
   233 -3.403503589E-02
   234  4.786216819E-06
   235 -7.093398089E-04
   236  2.125605229E-04
   237 -2.066487654E-04
   238  5.385639278E-04
   239 -3.454929563E+00
   240 -8.968825499E-02
   241  2.992625782E-01
   242 -3.784398493E-01
   243 -1.682419366E-03
   244 -2.690857850E-03
   245 -1.053194293E-02
   246  6.590515934E-03
   247 -8.768507988E-03
   248  7.379894070E-03
   249 -1.520023995E-02
   250  8.908971082E-03
   251 -1.303221227E-02
   252  3.130853677E-02
   253 -1.554170549E-02
   254  7.548348959E-03
   255 -1.276262710E-02
   256  4.642981254E-04
   257  4.904576496E-04
   258 -3.264554963E-05
   259  5.508305824E-04
   260  3.107965412E-04
   261  2.052568457E-01
   262 -4.256036811E-01
   263  3.145614795E-01
   264 -3.063025823E-01
   265 -1.457125733E-02
   266 -2.331113021E-02
   267 -1.105955379E-02
   268  2.487084082E-02
   269 -1.681782274E-02
   270  6.496217751E-02
   271 -1.500321110E-02
   272  4.006811121E-02
   273 -2.762816278E-02
   274  2.575206534E-01
   275 -2.274760080E-02
   276  5.805283697E-02
   277 -3.264375198E-02
   278 -1.054907093E-04
   279  3.857395335E-04
   280 -3.167641079E-04
   281 -3.797743643E-04
   282 -6.365530864E-04
   283  3.107863058E+00
   284 -4.847156545E-01
   285  1.434081292E-01
   286 -8.052975736E-02
   287  8.716212546E-03
   288  2.192995396E-02
   289 -2.191709648E-01
   290  5.641954428E-03
   291 -7.826305977E-04
   292  2.500516925E-03
   293 -7.504216606E-01
   294 -1.200536796E-04
   295 -4.287462014E-03
   296 -7.840337859E-02
   297 -1.182492686E-03
   298 -1.945474179E-03
   299 -8.767417863E-04
   300 -4.022132146E-01
   301 -1.392815669E-05
   302 -3.789864598E-05
   303 -5.791268385E-04
   304  2.090717520E-03
   305 -1.787433932E-03
   306  1.562741703E-03
   307 -2.492017914E-03
   308 -1.670043506E-03
   309  1.811350975E-04
   310  1.132136057E-01
   311  1.651140280E-03
   312  2.608360835E-03
   313  1.439871531E-03
   314  4.843854133E-01
   315 -7.968066906E-03
   316 -1.916701895E-02
   317  2.140859599E-01
   318  6.804606076E-04
   319 -5.659492845E-03
   320  2.324185732E-03
   321  7.669598137E-01
   322 -1.462590650E-04
   323  1.371399065E-03
   324  9.580864540E-04
   325  6.990043817E-04
   326 -6.195811026E-04
   327  2.188213563E-04
   328  6.988161464E-02
   329 -8.988082338E-04
   330 -1.547664038E-03
   331  1.504266431E-02
   332  8.157390151E-04
   333 -1.865559365E-04
   334  9.093182990E-04
   335  2.728673711E-02
   336  8.064890778E-03
   337  2.368480748E-02
   338 -1.433029891E-01
   339  3.464688965E-03
   340 -9.983150912E-04
   341  1.201970230E-03
   342 -4.070253422E-01
   343 -7.044735431E-03
   344 -2.210092963E-02
   345  1.055305331E-01
   346  3.949931801E-04
   347 -2.318588733E-03
   348  1.562544353E-03
   349  2.930381584E-01
   350 -3.648979827E-04
   351  4.459324599E-03
   352  1.330410894E-01
   353  1.632706412E-03
   354  4.744508544E-04
   355 -1.708311667E-03
   356  6.565161723E-01
   357 -7.410120489E-03
   358 -1.924385331E-02
   359  1.800903468E-01
   360  5.144720390E-04
   361 -4.582567157E-03
   362  3.464314591E-03
   363  1.207844041E-01
   364  8.326600921E-03
   365  2.091313841E-02
   366 -1.923926684E-01
   367  6.074170647E-03
   368 -1.518432621E-03
   369  1.336544617E-03
   370 -1.454152930E-01
   371  3.891319890E-04
   372 -5.817051078E-03
   373 -1.348408016E-01
   374 -1.910781143E-03
   375 -1.804008689E-04
   376  1.761266516E-03
   377 -7.283727517E-01
   378 -9.580301102E-04
   379 -2.600532680E-03
   380  1.781689403E-01
   381  6.908267048E-04
   382  5.771414568E-03
   383  3.946677747E-03
   384  9.574296836E-01
   385  3.506855167E-04
   386  5.988310070E-03
   387  1.064058666E-01
   388  2.525211399E-03
   389 -7.206558086E-05
   390 -6.059106140E-03
   391  6.209584537E-01
   392 -4.766288324E-03
   393 -1.482343296E-02
   394  2.408840077E-01
   395 -1.113526718E-03
   396 -8.134499627E-03
   397  4.601022974E-03
   398  1.554603784E+00
   399 -9.320308977E-06
   400 -1.153871860E-03
   401 -3.597590286E-03
   402 -4.425782480E-04
   403 -7.543009281E-05
   404  4.683973447E-04
   405 -6.840584954E-02
   406  4.895754639E-03
   407  1.516730630E-02
   408 -9.962861633E-02
   409  3.572001435E-03
   410 -7.149021693E-04
   411  9.222539196E-04
   412 -8.625709290E-01
   413 -4.219100906E-03
   414 -1.418364575E-02
   415  6.959647419E-02
   416 -2.735445684E-07
   417 -1.892307687E-03
   418  9.110790622E-04
   419  5.823418968E-01
   420 -3.645278380E-04
   421 -5.028715873E-03
   422 -1.026201478E-01
   423 -3.645311951E-03
   424  1.575137398E-03
   425  4.314412859E-03
   426 -5.395505550E-01
   427 -5.529615306E-05
   428 -1.048180866E-03
   429 -1.333134376E-01
   430 -1.887511407E-03
   431 -3.174238468E-03
   432 -4.318786461E-03
   433 -6.641594564E-01
   434  5.178864860E-03
   435  1.703096441E-02
   436 -2.502260415E-01
   437  8.865679705E-03
   438 -3.730309373E-04
   439  1.769600815E-03
   440 -1.559107250E+00
Ene=    5.7097875869E-03
Spin= Alpha
Occup=   0.0000000
     1  1.068295804E-03
     2  1.787227920E-03
     3 -6.127316909E-03
     4 -1.171956751E-02
     5 -6.220998569E-03
     6 -5.613958582E-03
     7 -1.030346143E-02
     8 -2.271552079E-02
     9 -9.277929430E-03
    10  1.496712383E-03
    11 -3.695424466E-03
    12  5.099285051E-03
    13 -2.586658090E-02
    14 -2.676635077E-04
    15 -6.928767371E-05
    16  3.333163397E-03
    17 -1.180651283E-03
    18  1.947882216E-03
    19 -5.723429281E+00
    20  1.860262971E-01
    21  1.157791411E-01
    22  9.760465339E-01
    23 -5.060167954E-03
    24 -8.037673598E-03
    25  3.819676972E-03
    26  1.945343969E-02
    27  1.008877288E-02
    28  2.024971906E-02
    29  3.550288192E-03
    30  2.758797010E-02
    31  1.427373521E-02
    32  1.198719807E-01
    33  1.323678662E-02
    34  3.547335353E-02
    35  1.967927577E-02
    36  1.846548562E-04
    37 -1.335157231E-05
    38  2.057911346E-03
    39 -5.588756678E-04
    40  4.034186276E-04
    41  1.222655004E+00
    42  2.811670627E-01
    43  3.289466446E-01
    44 -1.487194287E-01
    45 -4.046794893E-04
    46 -6.469966447E-04
    47 -8.010004449E-03
    48 -1.244671433E-02
    49 -3.149513332E-03
    50  1.651050968E-03
    51 -1.241479981E-02
    52 -1.865784939E-02
    53 -5.398183157E-03
    54  1.310610366E-02
    55 -2.877457370E-02
    56 -5.431698949E-02
    57 -8.163873337E-03
    58  1.986326199E-04
    59  4.337535369E-04
    60  2.015510130E-03
    61 -5.658644913E-04
    62  9.117777751E-04
    63  3.118611223E-01
    64  6.546157847E-02
    65  1.325817972E-01
    66  4.706608646E-02
    67 -3.676747258E-03
    68 -5.831600764E-03
    69  8.213480900E-03
    70  1.519700228E-02
    71  1.141828043E-02
    72  1.457916736E-02
    73  1.133981869E-02
    74  2.002244620E-02
    75  1.693187183E-02
    76  8.954731358E-02
    77  1.824403903E-02
    78  3.431870814E-02
    79  1.989876620E-02
    80  7.377633764E-04
    81  3.441283720E-04
    82  1.721093419E-03
    83 -5.982516587E-04
    84  8.030504890E-04
    85  2.682280656E-01
    86  2.642495392E-01
    87  1.405705582E-01
    88  1.895453230E-01
    89  7.353708276E-04
    90  1.247214751E-03
    91 -5.740030127E-03
    92 -1.256780475E-02
    93 -5.225933044E-03
    94 -4.291842702E-03
    95 -1.189370612E-02
    96 -2.108571054E-02
    97 -9.951825999E-03
    98  5.795091909E-03
    99  1.300728546E-02
   100 -1.795785144E-02
   101 -1.031320237E-03
   102  6.427360215E-04
   103  5.750312132E-04
   104  3.081512899E-03
   105 -4.575385441E-04
   106  2.540926820E-03
   107 -4.533154232E+00
   108  7.618588475E-02
   109  1.277731542E+00
   110  6.929176569E-01
   111 -6.240810876E-03
   112 -9.924911096E-03
   113  1.822842616E-02
   114  2.218579920E-02
   115  3.055711827E-03
   116  2.576004540E-02
   117  2.564608787E-02
   118  3.179937733E-02
   119  4.036469591E-03
   120  1.339394159E-01
   121  5.171581090E-02
   122  4.463182449E-02
   123 -1.094288091E-02
   124 -1.228946300E-04
   125 -3.360528270E-05
   126  1.621808773E-03
   127 -1.924039779E-04
   128  1.693324588E-03
   129  2.032790767E+00
   130 -2.688036970E-01
   131  4.060904959E-02
   132 -6.111200732E-01
   133  8.159692688E-03
   134  1.294184258E-02
   135  1.729067820E-02
   136  1.889252644E-02
   137 -7.352776110E-04
   138 -3.211243022E-02
   139  2.571816456E-02
   140  2.735703857E-02
   141 -1.432508811E-03
   142 -1.968096852E-01
   143  2.834160352E-02
   144  3.268267392E-02
   145 -4.597939365E-03
   146  1.096680856E-03
   147  4.441773151E-04
   148  2.514172648E-03
   149 -9.326241224E-04
   150 -6.748368075E-05
   151 -2.008727255E+00
   152  5.505842549E-02
   153  3.873326897E-01
   154  4.661769142E-01
   155 -2.127993220E-03
   156 -3.569761385E-03
   157 -8.036520927E-03
   158 -1.117159353E-02
   159 -1.547194927E-03
   160  1.174261445E-02
   161 -1.593709595E-02
   162 -2.334867029E-02
   163 -5.659538157E-03
   164 -7.375178430E-03
   165 -1.710609490E-04
   166  2.079796687E-02
   167  2.982856352E-02
   168  6.139693129E-04
   169  3.663832101E-04
   170  2.824022371E-03
   171 -7.321338365E-04
   172  1.265226442E-03
   173  1.038583517E+01
   174  2.889042853E-01
   175  2.057312290E-01
   176 -1.198255312E+00
   177  3.845706275E-03
   178  6.132921490E-03
   179  2.171176543E-03
   180  2.044248647E-02
   181  7.301832040E-03
   182 -1.626206776E-02
   183  5.354695285E-03
   184  3.035134963E-02
   185  1.172566995E-02
   186 -8.184036420E-02
   187 -3.238456205E-03
   188  4.426666038E-02
   189  2.861402032E-02
   190  5.890994882E-04
   191  2.545410850E-04
   192  2.114306241E-03
   193 -9.873668402E-04
   194  1.887570276E-03
   195  4.567904625E-01
   196  1.756120903E+00
   197  1.016854449E+00
   198  1.739604884E+00
   199  2.785048034E-03
   200  4.425818612E-03
   201  9.356189750E-03
   202  1.227946832E-02
   203  1.129711468E-02
   204 -1.157052617E-02
   205  1.405027066E-02
   206  2.076500874E-02
   207  1.618083921E-02
   208 -5.657157372E-02
   209  1.281118281E-02
   210  2.678088634E-02
   211  3.152624380E-02
   212  1.322368844E-05
   213  1.054680942E-04
   214  2.805488135E-03
   215 -2.614706815E-04
   216  1.453931398E-03
   217 -2.073767739E+00
   218  2.370228946E-01
   219  3.048594600E+00
   220 -3.790734065E-02
   221 -7.140340464E-03
   222 -1.142057908E-02
   223  1.572960574E-02
   224  1.079478065E-02
   225  7.763106499E-03
   226  3.185756348E-02
   227  2.527434589E-02
   228  1.452774115E-02
   229  1.103675712E-02
   230  1.254417792E-01
   231  3.385234340E-02
   232  1.660362706E-02
   233  2.080695188E-02
   234 -2.460969221E-07
   235  4.136697725E-04
   236  6.077337588E-05
   237  3.768098221E-04
   238  6.558333751E-04
   239  1.325563477E+00
   240  1.730576223E-01
   241  5.155327156E-01
   242  2.037362685E-01
   243  1.812138054E-02
   244  2.898873728E-02
   245  1.434187078E-02
   246  2.993768832E-02
   247  1.828553084E-02
   248 -8.078131539E-02
   249  2.190988084E-02
   250  4.752119954E-02
   251  3.154393378E-02
   252 -3.185287746E-01
   253  3.205537686E-02
   254  6.931488229E-02
   255  3.693794607E-02
   256  4.410625558E-04
   257 -3.370399157E-04
   258 -2.375818741E-04
   259  2.961998654E-04
   260 -6.308608093E-04
   261 -3.710977867E+00
   262  3.202465566E-01
   263  3.024466277E-01
   264 -8.582927982E-02
   265 -1.010340681E-02
   266 -1.616388972E-02
   267  5.873176490E-03
   268  2.406395428E-02
   269 -1.769900914E-03
   270  4.488120529E-02
   271  8.684632941E-03
   272  3.762732654E-02
   273 -4.865193151E-03
   274  1.804171515E-01
   275  4.928761807E-03
   276  4.861364068E-02
   277 -9.450394271E-03
   278 -5.873748669E-04
   279 -2.603300811E-04
   280 -1.902944332E-05
   281 -5.485001319E-04
   282  2.464938065E-04
   283  2.031135196E+00
   284  2.235136518E-01
   285  4.234846907E-01
   286  3.180847327E-01
   287 -3.144281933E-03
   288 -1.196393775E-02
   289 -1.976252798E-02
   290  3.382640805E-04
   291 -2.246926663E-04
   292  5.732899097E-04
   293 -8.152016367E-02
   294  9.254340317E-03
   295  2.465079853E-02
   296 -2.224828742E-01
   297 -2.551888464E-03
   298 -4.239298985E-03
   299 -3.211519593E-03
   300 -6.724616157E-01
   301 -2.282449024E-04
   302 -8.218484012E-04
   303 -2.556912635E-02
   304 -1.309839913E-03
   305 -2.559061994E-03
   306 -1.195587662E-03
   307 -9.052404123E-02
   308  9.186013496E-03
   309  2.420374682E-02
   310 -1.762273784E-01
   311 -1.756975531E-03
   312 -4.288778408E-03
   313 -2.664698703E-03
   314 -6.306977621E-01
   315 -4.677298041E-03
   316 -1.635394551E-02
   317  5.030650600E-02
   318 -3.265137565E-04
   319 -5.466182800E-04
   320  3.520399196E-04
   321 -4.498121728E-02
   322  1.138405131E-04
   323 -7.256909834E-03
   324 -1.347530063E-01
   325 -1.177364808E-03
   326  4.772521031E-04
   327  2.228461397E-03
   328 -7.526365689E-01
   329  9.146173471E-03
   330  2.331022725E-02
   331 -2.143947315E-01
   332 -1.789030731E-03
   333 -5.152266080E-03
   334 -4.312152375E-03
   335 -1.693326717E-01
   336 -4.530494109E-03
   337 -8.374102508E-03
   338  1.620956349E-01
   339 -4.147462864E-03
   340  8.279448812E-04
   341 -2.158037594E-03
   342  6.238725503E-01
   343 -5.949435871E-03
   344 -1.277236271E-02
   345  1.940281331E-01
   346  9.332583608E-04
   347 -4.824054373E-03
   348  2.104718078E-03
   349  6.914321871E-01
   350 -7.599897626E-04
   351  4.337313798E-03
   352  6.540902395E-02
   353  4.411542435E-04
   354 -7.519492612E-05
   355 -2.019382856E-03
   356  5.198175067E-01
   357 -5.361857307E-03
   358 -1.141410135E-02
   359  9.098738720E-02
   360 -5.978959834E-04
   361 -3.742541777E-03
   362  1.781999906E-03
   363  1.092425879E-01
   364 -3.666483793E-03
   365 -9.832072362E-03
   366  1.030325936E-01
   367 -2.960176506E-03
   368 -4.560796750E-04
   369 -6.433810373E-04
   370  4.982291210E-02
   371 -4.348918001E-04
   372  3.132819147E-04
   373  9.212140310E-02
   374  9.011664057E-04
   375 -9.019291857E-04
   376 -1.071400099E-03
   377  3.219607180E-01
   378  5.469122525E-03
   379  1.798620718E-02
   380 -1.870359221E-01
   381 -1.369423613E-03
   382 -4.956837349E-03
   383 -3.729655066E-03
   384 -1.243806490E+00
   385 -3.765896745E-04
   386 -2.458510219E-03
   387 -4.424371008E-02
   388 -1.031550555E-03
   389 -5.634729052E-06
   390  2.579927989E-03
   391 -2.409335159E-01
   392 -2.760062670E-03
   393 -9.703835283E-03
   394 -8.861803215E-03
   395  6.737919072E-04
   396  8.969261996E-04
   397 -4.254399470E-04
   398  1.304657337E-01
   399  2.855693782E-04
   400  5.376041361E-03
   401  1.356174667E-01
   402  5.139483787E-03
   403  8.487230040E-04
   404 -5.339545753E-03
   405  7.303211047E-01
   406 -2.641135365E-03
   407 -8.387179516E-03
   408  2.186200403E-01
   409 -8.182994415E-03
   410  2.890748583E-03
   411 -1.344177828E-03
   412  1.280760344E+00
   413 -3.498226176E-03
   414 -1.098094924E-02
   415  2.517779698E-01
   416  9.594644426E-04
   417 -7.008596849E-03
   418  6.008994791E-03
   419  1.449040005E+00
   420 -3.451651096E-04
   421 -4.759173166E-03
   422 -6.179227294E-02
   423 -2.433290392E-03
   424  1.092303895E-03
   425  2.826735962E-03
   426 -3.703705145E-01
   427  5.614625386E-03
   428  1.750401465E-02
   429 -1.958508988E-01
   430 -2.443760279E-03
   431 -4.953866225E-03
   432 -5.171636926E-03
   433 -1.379797177E+00
   434 -1.824534953E-03
   435 -6.616041873E-03
   436 -5.930332860E-02
   437  2.850769667E-03
   438  4.331287141E-04
   439  3.024256410E-04
   440 -2.173468813E-01
Ene=    2.0448415662E-02
Spin= Alpha
Occup=   0.0000000
     1  1.493420728E-03
     2  2.563872601E-03
     3  3.083510416E-03
     4  1.407560099E-02
     5 -7.659466649E-03
     6 -1.204526560E-02
     7  4.802613679E-03
     8  1.895646493E-02
     9 -1.157365027E-02
    10  8.557055083E-02
    11  1.190241767E-02
    12  9.314310960E-02
    13 -5.717451248E-02
    14  1.006868031E-03
    15  1.645376746E-03
    16  4.449972570E-03
    17 -1.632574586E-04
    18  2.424957193E-03
    19  8.447493947E+00
    20  1.205260868E-01
    21  3.547371678E+00
    22 -2.025623429E+00
    23 -9.527813588E-04
    24 -1.287189796E-03
    25  7.634312460E-03
    26  1.950763868E-02
    27  9.492293715E-03
    28 -3.501137083E-03
    29  8.270342054E-03
    30  2.505126681E-02
    31  1.294115641E-02
    32  1.636934088E-01
    33  7.154535958E-02
    34  5.872192975E-02
    35  3.849837833E-02
    36 -1.883675250E-03
    37  2.242158486E-03
    38 -2.988326346E-03
    39 -2.446348419E-04
    40 -6.611841786E-04
    41  1.651966215E-01
    42 -6.742674204E-02
    43  4.031581935E-01
    44  1.533436785E+00
    45  5.518948359E-05
    46  8.879119717E-05
    47  6.557627313E-04
    48  7.642918101E-03
    49 -2.114849701E-04
    50 -1.838189573E-04
    51  1.365387094E-03
    52  1.064425684E-02
    53  8.134339218E-05
    54 -1.490258059E-03
    55 -4.827628104E-03
    56 -1.783822224E-03
    57  6.207547519E-04
    58  6.710225386E-04
    59  7.537539310E-04
    60  2.068231687E-03
    61  2.382636142E-03
    62  5.154698180E-03
    63 -1.427306658E+00
    64 -2.432596778E-01
    65 -1.573370707E+00
    66  2.547891583E-01
    67  1.731643349E-04
    68  2.603570858E-04
    69  6.048771227E-03
    70  4.328476527E-02
    71  7.817016085E-04
    72 -1.736437990E-04
    73  7.474727753E-03
    74  5.293596885E-02
    75  4.655323763E-04
    76 -1.859720026E-02
    77  3.304753158E-02
    78  2.409735341E-01
    79  1.269059482E-02
    80 -2.828454458E-04
    81 -1.187301522E-03
    82 -5.183029226E-03
    83 -7.791263151E-04
    84 -1.352409639E-03
    85  9.728145627E-01
    86  4.873572878E-01
    87  2.476302321E+00
    88 -2.062154403E-01
    89 -1.626466637E-04
    90 -2.900399688E-04
    91 -5.473386278E-04
    92  8.276625355E-03
    93  1.907142371E-04
    94  1.618724286E-03
    95 -5.801338586E-04
    96  1.037714552E-02
    97  3.624069267E-04
    98 -1.567945011E-02
    99 -1.488557073E-02
   100  2.602981027E-02
   101 -4.160025913E-03
   102  8.365327697E-04
   103  1.547921928E-03
   104  8.278232066E-03
   105  1.443205591E-03
   106  1.716153606E-03
   107 -8.058788163E-01
   108 -9.834937968E-01
   109 -2.430896341E-01
   110 -5.762523876E-01
   111  1.826069413E-03
   112  3.123733158E-03
   113  2.284647801E-03
   114  2.810175526E-02
   115  8.571996430E-03
   116 -1.400637204E-02
   117  4.174017834E-03
   118  3.717647142E-02
   119  9.061597027E-03
   120  8.372620192E-02
   121 -8.208405146E-03
   122  1.078190723E-01
   123  7.003353403E-02
   124  1.236077310E-03
   125 -1.235184200E-03
   126 -2.686854434E-03
   127 -1.479676626E-03
   128 -1.226432519E-03
   129 -3.947619547E+00
   130  1.109996161E+00
   131  1.052387457E+00
   132  6.636500857E-01
   133  8.818230928E-04
   134  1.262609206E-03
   135 -6.846820055E-03
   136  2.575969894E-02
   137 -1.123489232E-02
   138  1.154084350E-03
   139 -6.704661987E-03
   140  3.204992056E-02
   141 -1.524716121E-02
   142 -1.233903615E-01
   143 -7.705365538E-02
   144  1.165793391E-01
   145 -4.969584876E-02
   146  1.325543625E-03
   147 -2.949216492E-03
   148 -2.675822752E-03
   149 -1.362792129E-03
   150  6.398173452E-05
   151  1.026290767E+00
   152 -1.085355477E-01
   153  1.048675677E+00
   154 -1.557796782E+00
   155 -1.288011091E-03
   156 -2.204882601E-03
   157  9.707310585E-05
   158  1.310240485E-02
   159  7.209068406E-03
   160  1.026883704E-02
   161  3.379921680E-04
   162  1.780525338E-02
   163  1.070880048E-02
   164 -7.167096568E-02
   165  1.054166391E-02
   166  7.436796379E-02
   167  6.109183765E-02
   168 -5.396027969E-04
   169  5.562282273E-04
   170  5.076757561E-03
   171  3.584846729E-03
   172  1.273107841E-03
   173 -7.727700825E+00
   174  1.400821046E+00
   175  2.280297166E+00
   176  2.224828643E+00
   177 -2.036565048E-03
   178 -3.527747713E-03
   179  3.757379403E-03
   180  2.979027531E-02
   181 -9.266259221E-03
   182  1.682414505E-02
   183  3.664969388E-03
   184  3.944509385E-02
   185 -9.589702190E-03
   186 -1.068987288E-01
   187  3.921505478E-02
   188  1.085501302E-01
   189 -7.913156723E-02
   190 -1.464391347E-03
   191  1.253592581E-04
   192 -2.621938026E-03
   193 -6.557549248E-04
   194 -1.612599723E-03
   195  2.045541987E+00
   196 -2.048278601E-01
   197  1.321844360E+00
   198 -5.028458670E-01
   199  2.618203505E-04
   200  4.588686468E-04
   201  2.674422602E-04
   202  2.109870523E-02
   203 -5.764717311E-05
   204 -2.303784055E-03
   205  5.494904902E-04
   206  2.868123957E-02
   207 -1.944943020E-04
   208  1.375928078E-02
   209 -4.134099023E-03
   210  6.839292282E-02
   211  5.212687787E-03
   212 -4.202397297E-04
   213 -9.320649106E-04
   214 -4.470505847E-03
   215 -7.544559283E-04
   216 -7.622006848E-04
   217  7.235343210E-01
   218 -1.099871750E-01
   219 -6.794219302E-02
   220  1.399306710E-01
   221 -1.629081945E-03
   222 -2.603551454E-03
   223  6.894281554E-03
   224  3.281415598E-02
   225  9.051122123E-04
   226  6.528479605E-03
   227  1.050527756E-02
   228  4.775168490E-02
   229  1.728503680E-03
   230  4.438710177E-02
   231  1.194759205E-02
   232  1.196787156E-01
   233 -2.729312648E-03
   234 -1.528749787E-04
   235 -3.700202960E-04
   236 -1.582651326E-03
   237 -5.683497632E-04
   238 -1.604506998E-03
   239  1.535950599E+00
   240 -1.205247368E-01
   241  7.237149556E-01
   242 -3.011521300E-02
   243 -1.247957272E-02
   244 -1.998323994E-02
   245 -8.659582741E-03
   246  7.410167994E-03
   247 -2.049142598E-02
   248  5.361983297E-02
   249 -1.429770888E-02
   250  8.196579148E-03
   251 -3.157210988E-02
   252  2.838163109E-01
   253 -6.820759444E-03
   254  7.926684074E-02
   255 -2.910639679E-02
   256 -2.253895990E-04
   257 -4.746019853E-04
   258 -2.768073454E-04
   259 -1.367756424E-03
   260 -1.774178582E-04
   261  8.228685336E+00
   262  3.776533438E-01
   263  1.328131719E+00
   264  3.670376604E-01
   265  1.404310417E-02
   266  2.249704651E-02
   267  5.025901319E-03
   268 -6.397160438E-04
   269  1.926332262E-02
   270 -6.048201756E-02
   271  7.622795322E-03
   272 -4.735704511E-03
   273  2.914771570E-02
   274 -3.203803586E-01
   275  1.606759595E-02
   276  7.081798221E-02
   277  2.898662795E-02
   278  6.815850230E-05
   279  1.673122021E-04
   280 -2.942761807E-04
   281  6.170416488E-04
   282 -7.459629778E-04
   283 -9.164354295E+00
   284 -6.952390137E-02
   285  1.463917852E+00
   286 -2.971155295E-01
   287  1.607780110E-04
   288 -2.860674238E-03
   289  1.720553527E-01
   290 -7.946867574E-04
   291  1.865633341E-03
   292 -1.562492516E-03
   293  1.001284791E-01
   294  2.292878599E-04
   295 -6.032337467E-03
   296 -1.549743831E-01
   297 -1.017141398E-03
   298 -2.319932633E-03
   299 -4.466279725E-03
   300 -1.452241099E+00
   301  2.108600235E-04
   302 -2.237975378E-03
   303  2.723669080E-02
   304 -2.222601938E-04
   305 -1.432392859E-03
   306  1.496037051E-04
   307 -1.784709722E-02
   308 -8.096051357E-06
   309 -2.876297395E-03
   310 -4.321030359E-01
   311 -2.436219163E-03
   312 -4.985041053E-03
   313 -4.744452316E-03
   314 -1.970820780E+00
   315 -2.005191198E-04
   316  5.428985623E-03
   317  3.904810726E-01
   318  1.346155125E-04
   319 -6.358934403E-03
   320  4.507001457E-03
   321  2.166578707E+00
   322 -8.961110443E-04
   323 -8.433614227E-03
   324  2.591777511E-01
   325  4.070441057E-04
   326  2.157340091E-03
   327 -2.480273513E-03
   328  1.823039377E-01
   329 -5.948447577E-05
   330 -1.386662000E-02
   331 -9.892107246E-02
   332 -2.596163167E-03
   333 -2.256786957E-03
   334 -4.327876011E-03
   335 -1.180328411E+00
   336 -8.666336795E-05
   337  1.354633892E-03
   338 -2.406967929E-01
   339  2.755998566E-03
   340  1.093945323E-03
   341  1.834190586E-03
   342 -6.600429288E-01
   343 -2.998370349E-04
   344  7.467179038E-03
   345  2.348886678E-01
   346  1.471770777E-04
   347 -4.199650420E-03
   348  4.617113777E-03
   349  1.747916551E+00
   350  1.208170535E-03
   351  8.055090798E-03
   352 -2.685494058E-01
   353 -5.023570382E-04
   354  1.831286697E-03
   355  2.582966530E-03
   356 -2.559778258E-01
   357  2.726790816E-04
   358  1.341168775E-02
   359  1.463867850E-01
   360  1.085809693E-03
   361 -4.141487500E-03
   362  4.011999261E-03
   363  1.290744838E+00
   364 -1.747312859E-05
   365 -1.992904785E-03
   366 -2.278271607E-02
   367  1.156162082E-03
   368  3.594762021E-03
   369  2.880144567E-04
   370 -1.128475247E-01
   371 -2.542740299E-04
   372  6.991570378E-04
   373  6.951349771E-03
   374  6.732616728E-04
   375  3.871234866E-03
   376 -1.143569595E-04
   377  5.126870912E-02
   378  3.594192454E-03
   379 -1.982918850E-03
   380 -1.570563277E-01
   381 -1.773796876E-03
   382 -4.172483883E-03
   383 -4.463948617E-03
   384 -1.130281664E+00
   385  5.037799180E-04
   386  3.229940577E-04
   387 -2.460454143E-02
   388 -7.130943740E-05
   389  1.769817975E-03
   390  6.626759816E-04
   391 -1.479483473E-01
   392 -3.540149005E-03
   393  1.610532068E-03
   394  1.406573389E-01
   395  2.817407808E-04
   396 -4.369185164E-03
   397  3.576373001E-03
   398  9.669865346E-01
   399  3.092270179E-03
   400  1.136340238E-02
   401 -2.373783112E-01
   402 -4.106618261E-03
   403  8.671313979E-04
   404  4.154390576E-03
   405 -1.150214280E+00
   406  2.009820538E-03
   407  3.188510062E-03
   408 -2.291221039E-01
   409  6.592562841E-03
   410 -5.234442897E-04
   411  1.181476118E-03
   412 -1.167250374E+00
   413 -2.105260856E-03
   414  4.098263967E-03
   415 -5.407465815E-02
   416 -1.288064954E-04
   417 -3.557501710E-04
   418  2.894636271E-04
   419  8.364926589E-02
   420 -3.615258477E-03
   421 -1.188757631E-02
   422  2.524741023E-01
   423  4.359924687E-03
   424 -2.441568739E-04
   425 -4.874945203E-03
   426  1.307352799E+00
   427  1.464137302E-03
   428 -3.734154612E-03
   429  7.740793990E-02
   430  2.968178068E-04
   431  8.139296469E-04
   432  6.134372755E-04
   433  1.598870750E-01
   434 -1.368193797E-03
   435 -3.572729844E-03
   436  2.241385693E-01
   437 -5.725943680E-03
   438  1.498668363E-03
   439 -1.070584372E-03
   440  1.113375742E+00
Ene=    2.0478138941E-02
Spin= Alpha
Occup=   0.0000000
     1 -6.958434213E-04
     2 -1.196113370E-03
     3  5.443772539E-03
     4 -3.145267115E-03
     5  8.072182464E-03
     6  5.335624614E-03
     7  6.766515440E-03
     8 -4.004507906E-03
     9  1.045119530E-02
    10 -3.907935438E-02
    11  1.413504592E-02
    12 -3.703779803E-02
    13  4.911781318E-02
    14  2.689544889E-03
    15 -1.219646188E-03
    16  3.078551210E-03
    17 -6.580956335E-03
    18  2.465585964E-03
    19 -2.992114888E+00
    20  5.935429943E-01
    21 -1.969627557E+00
    22  1.499803179E+00
    23  3.547337426E-04
    24  4.529297476E-04
    25  3.372773355E-02
    26  8.275258435E-03
    27  2.096650307E-02
    28  2.293190292E-03
    29  4.214146201E-02
    30  9.922539809E-03
    31  2.488508210E-02
    32 -8.128446976E-02
    33  1.704213125E-01
    34  6.741600011E-02
    35  1.305322939E-01
    36 -9.060032786E-04
    37 -5.003371119E-04
    38 -1.916418149E-03
    39  4.268742846E-03
    40 -2.116867583E-03
    41  2.374485907E-01
    42  1.955142740E+00
    43  6.917408879E-01
    44  7.073800455E-01
    45 -1.252015802E-04
    46 -2.087768253E-04
    47  6.024019253E-03
    48 -4.840401246E-04
    49  4.670410798E-03
    50  9.094151913E-04
    51  9.228054391E-03
    52 -2.514281522E-04
    53  7.139311646E-03
    54 -2.718137069E-03
    55 -1.418643422E-02
    56  5.805561677E-04
    57 -6.524147062E-03
    58 -2.704930130E-03
    59 -3.175470597E-03
    60  1.230976843E-03
    61 -3.818103743E-03
    62  2.116690219E-03
    63 -9.666987803E-01
    64 -1.380221280E+00
    65  8.935796540E-02
    66 -7.355536259E-01
    67 -1.079936143E-03
    68 -1.481966400E-03
    69  1.040196853E-02
    70  2.319879598E-03
    71  1.250306959E-02
    72 -3.363727128E-03
    73  1.211735161E-02
    74  2.659864381E-03
    75  1.768987981E-02
    76  1.743588836E-01
    77  3.152944192E-02
    78  1.831439491E-02
    79  7.757785341E-03
    80 -2.546992237E-03
    81  2.604944998E-03
    82 -9.169068531E-04
    83  1.001184657E-03
    84 -7.177382476E-04
    85  1.012334013E+00
    86 -6.546074631E-01
    87  3.474507775E-01
    88  8.076879956E-01
    89  1.554585135E-03
    90  2.666235794E-03
    91  1.715386466E-02
    92 -2.149805098E-03
    93  2.645959053E-03
    94 -1.250153772E-02
    95  2.429989783E-02
    96 -2.953782438E-03
    97  2.869667078E-03
    98  9.189606904E-02
    99  1.182867772E-01
   100 -1.393968542E-02
   101  1.366874217E-02
   102 -5.005944375E-05
   103 -6.056615491E-04
   104  1.197585903E-03
   105 -4.073852513E-03
   106  1.558255595E-03
   107  9.893414022E+00
   108  4.360007087E+00
   109 -4.735690316E-01
   110  7.665831105E-01
   111  1.267575016E-03
   112  2.148803257E-03
   113  1.784101840E-02
   114  3.963678591E-03
   115  1.799144393E-02
   116 -9.236310819E-03
   117  2.495334024E-02
   118  5.163821188E-03
   119  2.290151036E-02
   120  5.728644993E-02
   121  5.032384517E-02
   122  2.211693882E-02
   123  8.394318018E-02
   124 -5.111358560E-04
   125  2.467575759E-04
   126  6.566489706E-04
   127  3.587295329E-03
   128 -1.930410200E-03
   129 -5.130392024E+00
   130  1.066772896E+00
   131  1.099898796E+00
   132  1.701230823E-01
   133  5.305681569E-04
   134  7.551213546E-04
   135  2.805984887E-02
   136 -1.580151950E-02
   137  1.750243379E-02
   138  9.157896063E-04
   139  3.545504829E-02
   140 -1.920583694E-02
   141  2.028788780E-02
   142 -8.235627334E-02
   143  1.334660758E-01
   144 -1.096913097E-01
   145  1.094800670E-01
   146 -3.893357954E-04
   147 -5.825835672E-04
   148  9.169688981E-04
   149  4.674583476E-03
   150 -8.975281362E-04
   151  5.767435202E-01
   152  1.676225543E+00
   153 -1.178898713E+00
   154  3.306803057E-01
   155 -9.802943476E-04
   156 -1.663731642E-03
   157  6.174215908E-03
   158  3.059508220E-03
   159  9.923283130E-03
   160  7.338057310E-03
   161  8.115525134E-03
   162  5.099756088E-03
   163  1.355704172E-02
   164 -4.497870066E-02
   165  1.879331902E-02
   166  3.312323501E-02
   167  5.518431682E-02
   168  2.080406412E-03
   169 -2.028391555E-03
   170 -1.016353662E-03
   171 -6.508501232E-03
   172  2.721959113E-03
   173 -5.496741478E+00
   174  8.004794436E-01
   175  1.418858788E+00
   176  1.264010543E+00
   177  8.819773994E-04
   178  1.547044534E-03
   179  1.635158142E-02
   180 -5.161442550E-03
   181  1.567569136E-02
   182 -8.065931870E-03
   183  2.298992017E-02
   184 -6.598641331E-03
   185  2.009687321E-02
   186  6.255543029E-02
   187  3.746042543E-02
   188 -1.998581357E-02
   189  7.365603208E-02
   190 -1.142784740E-03
   191  1.485762913E-04
   192 -1.562254429E-03
   193  3.887357790E-03
   194 -1.140046784E-03
   195 -2.083454163E+00
   196  3.443418697E-01
   197 -6.955462090E-01
   198  3.024813990E-01
   199 -2.230463094E-03
   200 -3.858795650E-03
   201  3.123453208E-02
   202 -3.549085330E-03
   203  1.115931926E-02
   204  1.853044248E-02
   205  3.937493636E-02
   206 -4.134152249E-03
   207  1.716079406E-02
   208 -1.240781623E-01
   209  1.521714389E-01
   210 -2.024664450E-02
   211 -8.476447369E-04
   212 -4.168936141E-04
   213  2.103320953E-03
   214 -1.005379094E-03
   215  1.936506631E-03
   216 -9.265670374E-04
   217  5.255861876E+00
   218  1.523985508E+00
   219 -1.136693122E-01
   220  1.331087457E+00
   221  1.542722061E-02
   222  2.470261182E-02
   223 -1.290385589E-02
   224  5.473897579E-03
   225  6.558926779E-03
   226 -6.633104937E-02
   227 -2.290318543E-02
   228  8.406201879E-03
   229  8.027464161E-03
   230 -3.515852558E-01
   231  4.174887220E-02
   232  5.861921391E-03
   233  4.358029099E-02
   234  3.035540941E-04
   235 -1.044871671E-04
   236 -1.412567469E-04
   237 -3.075887935E-05
   238 -1.237837489E-04
   239 -1.052073457E+01
   240  1.528729977E+00
   241 -2.231038578E-01
   242  8.859555102E-01
   243 -8.939482841E-03
   244 -1.432300553E-02
   245  1.937633768E-02
   246 -2.103788876E-02
   247  4.821765778E-03
   248  3.890307635E-02
   249  2.697942813E-02
   250 -3.216495230E-02
   251  5.612084563E-03
   252  1.967382831E-01
   253  8.562146803E-02
   254 -4.284597593E-02
   255  4.962506659E-02
   256  3.386912354E-04
   257  1.064681941E-03
   258  4.285485377E-04
   259  1.653913960E-03
   260  8.662968353E-05
   261  5.559653119E+00
   262  8.015888695E-01
   263  3.801607516E-01
   264  6.267660211E-01
   265 -6.171433249E-03
   266 -9.899742212E-03
   267  2.675647095E-02
   268  1.332557574E-02
   269  1.084866393E-02
   270  2.676420590E-02
   271  3.809912593E-02
   272  2.052845867E-02
   273  1.478049686E-02
   274  1.417513130E-01
   275  1.028345145E-01
   276  1.728964856E-02
   277  6.016033250E-02
   278  2.579140946E-04
   279  6.832335475E-04
   280 -1.061462895E-03
   281  1.287609535E-03
   282 -1.332730781E-03
   283  4.651346647E+00
   284  6.127265622E-01
   285 -4.856659972E-01
   286  6.190722891E-01
   287 -2.313201392E-04
   288  6.829144668E-03
   289  3.684800722E-01
   290 -7.462564162E-03
   291  1.019814211E-03
   292 -1.070007333E-03
   293  2.089044305E+00
   294 -5.194375298E-06
   295 -1.898847006E-03
   296 -3.840878232E-01
   297 -1.468825555E-03
   298 -5.285882751E-03
   299 -3.069470258E-03
   300 -1.575400658E+00
   301  2.263534249E-04
   302 -5.606329139E-04
   303  1.177709792E-02
   304 -1.049862282E-03
   305  8.314738880E-06
   306 -8.144113060E-04
   307 -3.355804427E-02
   308 -4.779332188E-05
   309 -3.032246931E-03
   310 -8.011245313E-02
   311  1.419956190E-03
   312 -2.614575173E-03
   313 -1.771503229E-03
   314 -8.517848361E-01
   315  9.176202295E-05
   316 -4.649738176E-03
   317  2.389745794E-02
   318  2.259557733E-03
   319  7.926013829E-04
   320 -5.982951860E-04
   321 -3.829734306E-01
   322 -5.529933664E-04
   323 -7.834923164E-03
   324  2.022416955E-01
   325  3.203533475E-03
   326 -1.495187558E-03
   327  6.905502293E-04
   328 -3.919598717E-03
   329  8.773719159E-05
   330 -1.144420998E-02
   331 -2.851978489E-02
   332  9.170957012E-04
   333 -4.619765364E-03
   334 -9.447836941E-04
   335 -7.923995679E-01
   336 -2.706059663E-04
   337  7.610245189E-03
   338  3.456241572E-01
   339 -6.964222166E-03
   340  1.830439934E-03
   341 -7.490691613E-04
   342  1.999635707E+00
   343  1.355174259E-05
   344 -2.001031490E-03
   345 -3.186816825E-01
   346  4.805751091E-04
   347  4.890382678E-03
   348 -1.510497257E-03
   349 -1.305080163E+00
   350 -5.194863456E-04
   351 -3.918829352E-03
   352  1.305105235E-01
   353  3.514953487E-03
   354  7.435663491E-04
   355  1.291090813E-03
   356  1.117966747E-01
   357 -5.214740466E-05
   358 -7.867434710E-03
   359 -3.825371610E-02
   360  2.659256966E-03
   361  3.163000799E-03
   362  4.318342612E-04
   363 -5.975148862E-01
   364  4.993861792E-05
   365  1.700674318E-02
   366  1.153418701E-01
   367 -5.951040425E-03
   368  1.421925191E-03
   369 -1.236975521E-03
   370  1.479302313E+00
   371  1.062881319E-03
   372  1.096355639E-02
   373 -3.465855788E-01
   374 -5.769873721E-04
   375  3.672676351E-04
   376  3.037479024E-03
   377 -2.016633593E-01
   378  3.986207468E-04
   379 -4.794916515E-03
   380  1.611155400E-01
   381  1.009895730E-03
   382  2.198932350E-03
   383  2.230161708E-03
   384  5.381502612E-01
   385 -3.689203314E-03
   386 -1.454889498E-02
   387  2.800155136E-01
   388  4.004367777E-03
   389 -1.669028838E-04
   390 -5.846822659E-03
   391  1.379683221E+00
   392 -3.641057042E-04
   393 -4.448941196E-03
   394  2.029427954E-01
   395  2.643329264E-04
   396 -3.593107136E-03
   397  2.764377990E-03
   398  8.169926439E-01
   399  2.191929432E-03
   400  9.433501133E-03
   401 -1.818308642E-01
   402 -1.766249485E-03
   403 -7.239701444E-04
   404  4.148157204E-03
   405 -8.478194836E-01
   406 -2.935270902E-03
   407  3.569111350E-03
   408  2.994334332E-02
   409 -2.622933603E-03
   410  2.475481854E-04
   411 -4.527765229E-04
   412  5.152963949E-01
   413  2.792600600E-03
   414  1.904087213E-03
   415 -2.426991473E-01
   416  6.927220871E-04
   417  6.047127548E-03
   418 -3.722905339E-03
   419 -1.235418079E+00
   420  1.686091831E-03
   421  4.537113486E-03
   422 -1.147622312E-01
   423 -5.438160809E-04
   424  8.396558362E-04
   425  3.164030111E-03
   426 -5.638348477E-01
   427  3.207019750E-03
   428  6.160171229E-04
   429 -2.230070359E-01
   430 -1.232879325E-03
   431 -5.413181483E-03
   432 -4.347464435E-03
   433 -1.296152832E+00
   434 -3.242399131E-03
   435  1.837185000E-03
   436  9.540190907E-02
   437 -3.852896583E-03
   438  1.101275415E-03
   439 -6.571059513E-04
   440  7.616120167E-01
Ene=    2.1652474322E-02
Spin= Alpha
Occup=   0.0000000
     1  2.998586396E-03
     2  4.831076054E-03
     3 -1.112412347E-03
     4 -4.872729369E-03
     5  5.157016535E-03
     6 -1.266145025E-02
     7 -1.601485312E-03
     8 -9.909860300E-03
     9  9.134719053E-03
    10 -8.029307907E-02
    11 -2.837673477E-02
    12  1.363914430E-02
    13  3.354277609E-02
    14 -2.361377444E-03
    15  5.816228871E-03
    16 -3.597217753E-03
    17 -3.097984852E-03
    18  2.074573903E-03
    19 -4.979190407E+00
    20  4.474404284E-01
    21  1.541956346E-01
    22 -1.160263829E+00
    23  4.412478332E-03
    24  7.073310250E-03
    25 -6.708552399E-03
    26 -6.877440693E-03
    27  1.551190683E-02
    28 -1.841826672E-02
    29 -8.635665080E-03
    30 -9.794915438E-03
    31  2.064892639E-02
    32 -9.742171931E-02
    33 -4.020881056E-02
    34 -4.952909866E-03
    35  6.666674022E-02
    36 -7.296362736E-04
    37 -1.611349370E-04
    38  4.237294664E-03
    39  2.153286337E-03
    40 -1.368475099E-03
    41 -2.531067061E+00
    42 -5.847189413E-01
    43  4.025560969E-01
    44  6.848677933E-01
    45  1.105757837E-02
    46  1.794854237E-02
    47  1.541344532E-02
    48 -1.385977102E-03
    49 -2.127895855E-02
    50 -5.507799461E-02
    51  1.782015980E-02
    52 -1.603237410E-03
    53 -2.503923795E-02
    54 -2.028791713E-01
    55  1.027437047E-01
    56 -1.156321406E-02
    57 -1.372433306E-01
    58 -7.128835884E-04
    59  1.041733168E-03
    60 -3.654284927E-05
    61 -4.278962802E-04
    62  8.539643447E-05
    63  4.855971148E+00
    64  2.042218509E+00
    65 -2.256408238E-01
    66 -2.860828401E+00
    67  4.362069718E-03
    68  6.997559337E-03
    69 -1.593633368E-02
    70  2.210465947E-03
    71  8.555179350E-03
    72 -1.829954869E-02
    73 -2.160477455E-02
    74  3.103774498E-03
    75  1.098045628E-02
    76 -9.723801274E-02
    77 -4.891319203E-02
    78  6.673913117E-03
    79  5.884415486E-02
    80  3.276201616E-03
    81 -2.242566173E-04
    82 -1.735226826E-05
    83 -3.542600836E-03
    84  1.220809038E-03
    85 -3.131179858E+00
    86 -2.042596057E-01
    87 -4.513014172E-02
    88  1.149641255E+00
    89  3.041896450E-03
    90  4.896415188E-03
    91 -6.628645579E-03
    92  1.083834521E-03
    93  5.645615485E-04
    94 -1.263722721E-02
    95 -1.260861345E-02
    96  2.002030810E-03
    97 -1.754737983E-04
    98 -8.563237955E-02
    99 -1.679762278E-02
   100 -7.667822109E-04
   101  4.722757055E-02
   102 -6.319218571E-03
   103  5.046586764E-03
   104 -2.370729694E-04
   105  1.796693046E-04
   106 -3.026359517E-04
   107 -5.355884789E+00
   108  7.778619772E-01
   109 -1.427267574E-01
   110 -5.896332864E-01
   111  9.275449118E-04
   112  1.539511277E-03
   113 -1.569528747E-02
   114  8.027807206E-03
   115  3.129861727E-02
   116 -6.062684195E-03
   117 -2.154977150E-02
   118  8.759343003E-03
   119  3.977690050E-02
   120  8.556515060E-04
   121 -8.696343289E-02
   122  1.840281563E-02
   123  1.445392705E-01
   124  1.299899670E-03
   125 -4.474917036E-03
   126 -7.884401330E-04
   127  2.117052678E-03
   128  9.118255552E-04
   129  3.496752819E+00
   130 -1.368418464E+00
   131 -7.933995576E-02
   132  1.766213208E+00
   133  4.411800651E-03
   134  7.046619790E-03
   135 -4.441912367E-03
   136  7.086177107E-03
   137  1.625288812E-02
   138 -1.762667518E-02
   139 -5.394107449E-03
   140  9.824781516E-03
   141  2.166371966E-02
   142 -1.093078527E-01
   143 -4.294873498E-02
   144  1.035829354E-02
   145  6.720502455E-02
   146 -1.501956946E-03
   147 -1.398599748E-03
   148 -3.995163600E-03
   149  2.173029560E-03
   150 -4.992822458E-05
   151 -3.106273863E+00
   152 -8.175471770E-01
   153 -3.390241813E-01
   154  6.459086593E-01
   155  2.993546489E-03
   156  4.817793621E-03
   157  4.235084013E-04
   158  4.469238517E-03
   159  5.680921765E-03
   160 -1.256811906E-02
   161  1.415146905E-03
   162  8.673393724E-03
   163  1.003252227E-02
   164 -8.444133439E-02
   165 -3.031285210E-02
   166 -4.557257133E-03
   167  3.800200056E-02
   168 -1.779719972E-03
   169  6.633363057E-03
   170  2.261446590E-03
   171 -3.570129618E-03
   172 -5.245030164E-04
   173 -4.900435044E+00
   174  4.998424484E-01
   175  1.262360547E-01
   176 -7.389787072E-01
   177  9.227200408E-04
   178  1.507340481E-03
   179 -1.795203387E-02
   180 -5.685854180E-03
   181  3.052990182E-02
   182 -5.297179656E-03
   183 -2.397587240E-02
   184 -5.444431473E-03
   185  3.916352622E-02
   186 -1.082146297E-02
   187 -8.718632920E-02
   188 -5.494884642E-03
   189  1.390489035E-01
   190  1.578769733E-03
   191 -4.205690374E-03
   192  1.766646067E-03
   193  1.415715675E-03
   194 -1.576033275E-03
   195  3.256078878E+00
   196 -1.314723991E+00
   197  2.900331112E-01
   198  1.656661803E+00
   199  8.498662249E-04
   200  1.390779778E-03
   201 -2.620995109E-02
   202  3.080176351E-03
   203  2.377731368E-02
   204 -5.067624284E-03
   205 -3.212662722E-02
   206  3.594373269E-03
   207  3.199254830E-02
   208 -3.713334867E-03
   209 -1.094307458E-01
   210  1.090012775E-02
   211  1.262769375E-01
   212  4.158811180E-03
   213 -3.113475939E-03
   214  1.039638920E-04
   215  8.221747133E-04
   216 -9.812988934E-05
   217  2.101361297E+00
   218 -1.208557057E+00
   219 -1.225626259E-02
   220  1.638086763E+00
   221 -8.359176004E-03
   222 -1.340246070E-02
   223 -8.778307974E-03
   224  6.174743411E-05
   225  2.662287822E-02
   226  3.848396281E-02
   227 -9.658969584E-03
   228 -3.678259053E-04
   229  3.857939729E-02
   230  1.365050619E-01
   231 -5.099361202E-02
   232  4.211453919E-03
   233  8.574944548E-02
   234  1.168738900E-03
   235 -9.089440298E-04
   236  7.860628855E-05
   237 -8.028607323E-04
   238  2.996197117E-04
   239  3.121093618E+00
   240 -7.721011921E-01
   241  8.131601150E-02
   242  7.358528120E-01
   243 -8.783212651E-03
   244 -1.409165839E-02
   245 -1.970832230E-02
   246 -5.548393507E-03
   247  1.858240283E-02
   248  4.049888464E-02
   249 -2.892072432E-02
   250 -1.029447859E-02
   251  2.471340600E-02
   252  1.438480186E-01
   253 -6.113256505E-02
   254  7.345060859E-04
   255  7.592368337E-02
   256  9.706751941E-05
   257 -1.087657159E-03
   258 -1.027484857E-03
   259  8.646957443E-04
   260 -2.766006243E-04
   261  3.509883333E+00
   262 -4.708557187E-01
   263  2.327212164E-01
   264  9.720827061E-01
   265 -8.753281941E-03
   266 -1.403923163E-02
   267 -1.717170257E-02
   268  9.591094881E-03
   269  1.939083897E-02
   270  4.050243782E-02
   271 -2.452139023E-02
   272  1.639483358E-02
   273  2.631662589E-02
   274  1.392074764E-01
   275 -5.870536433E-02
   276  1.368289153E-02
   277  7.509328356E-02
   278  3.188485241E-04
   279 -6.881069307E-04
   280  1.196826717E-03
   281  9.895381332E-04
   282 -2.480602660E-04
   283  3.122488532E+00
   284 -5.411938561E-01
   285 -1.287313430E-01
   286  9.067867415E-01
   287  2.571516213E-03
   288  1.246418307E-03
   289  1.151519813E-01
   290 -1.708353229E-03
   291 -1.536152473E-03
   292  2.375558470E-03
   293 -1.778681412E-02
   294  2.596397312E-03
   295  8.618701792E-04
   296  1.083206669E-01
   297 -8.226111614E-04
   298 -1.288384079E-03
   299  2.894644262E-03
   300 -8.509918915E-02
   301 -8.625535928E-03
   302 -1.050279267E-02
   303  3.623861296E-01
   304 -4.236928477E-03
   305  4.299132547E-04
   306  5.804202517E-03
   307  2.636194472E+00
   308  2.687851923E-03
   309 -1.509804620E-04
   310  1.254157440E-01
   311 -2.817198682E-03
   312  8.981320728E-04
   313  1.305827036E-03
   314 -1.106168943E-01
   315  2.610124257E-03
   316  1.234138117E-03
   317  1.181028574E-01
   318 -2.981459283E-03
   319 -3.742351121E-05
   320  1.259513783E-03
   321 -1.360176448E-01
   322  1.808800179E-03
   323  1.326654694E-02
   324  2.638339717E-01
   325  4.622271650E-03
   326 -7.994895898E-04
   327 -6.919566999E-03
   328  1.666424381E+00
   329  1.578666530E-03
   330  1.503719396E-02
   331 -2.832973097E-01
   332 -2.642984008E-03
   333 -3.400422442E-03
   334 -1.054350977E-03
   335 -6.844628005E-01
   336  2.642175710E-03
   337  4.176153487E-04
   338  1.168740649E-01
   339 -1.161952270E-03
   340  1.737703483E-03
   341  2.554696620E-03
   342 -5.463833077E-02
   343  2.617965528E-03
   344  1.147265757E-03
   345  1.122888895E-01
   346 -4.240504970E-04
   347  1.235977678E-03
   348  3.010705430E-03
   349 -7.873609367E-02
   350  1.822614417E-03
   351  1.303116503E-02
   352  2.537498014E-01
   353  4.762856390E-03
   354 -2.790947784E-05
   355 -6.868030891E-03
   356  1.610362276E+00
   357  1.585242999E-03
   358  1.540040557E-02
   359 -2.835524981E-01
   360 -1.384377823E-03
   361  4.196620861E-03
   362 -6.714460368E-04
   363 -6.268810064E-01
   364  1.667898479E-03
   365  1.455890768E-02
   366 -2.621744066E-01
   367  3.118195270E-03
   368 -6.606470177E-04
   369  2.962882390E-03
   370 -6.814896632E-01
   371  1.982100267E-03
   372  1.208072019E-02
   373  2.836656108E-01
   374  5.201205294E-03
   375 -5.052986593E-04
   376 -6.393104376E-03
   377  1.636677883E+00
   378  2.601113282E-03
   379  1.114009395E-02
   380 -2.349280549E-01
   381 -3.199974302E-03
   382 -4.258645837E-03
   383 -1.804640522E-03
   384 -1.168447311E+00
   385 -4.399237278E-03
   386  1.140969670E-02
   387 -4.292023152E-02
   388  7.090871040E-04
   389  5.333549578E-05
   390 -3.230975688E-03
   391  8.952851451E-01
   392  2.590078859E-03
   393  1.127622182E-02
   394 -2.360493737E-01
   395 -1.617666962E-03
   396  5.209159016E-03
   397 -1.297302043E-03
   398 -1.181636875E+00
   399 -4.211585652E-03
   400  1.112093231E-02
   401 -4.918005773E-02
   402  2.400158130E-03
   403  8.200756854E-04
   404 -1.857347604E-03
   405  8.617942938E-01
   406  2.581499194E-03
   407  1.083687665E-02
   408 -2.390447150E-01
   409  4.396016444E-03
   410 -8.301508700E-04
   411  3.431630759E-03
   412 -1.179572346E+00
   413  2.627030939E-03
   414  1.144401492E-02
   415 -2.380975336E-01
   416 -1.465279757E-03
   417  5.449269838E-03
   418 -1.323592160E-03
   419 -1.218835816E+00
   420 -4.295598644E-03
   421  1.225047284E-02
   422 -6.364761376E-02
   423  2.016128726E-03
   424 -1.365654997E-03
   425 -1.949853422E-03
   426  8.444615119E-01
   427  2.601405324E-03
   428  1.164953923E-02
   429 -2.441575169E-01
   430 -3.115966922E-03
   431 -4.537873861E-03
   432 -1.835777543E-03
   433 -1.184705386E+00
   434  2.511648239E-03
   435  1.162090470E-02
   436 -2.480898767E-01
   437  4.389251323E-03
   438 -9.916231384E-04
   439  3.428830940E-03
   440 -1.177508914E+00
Ene=    3.2297076918E-02
Spin= Alpha
Occup=   0.0000000
     1  4.746446839E-04
     2  7.726492515E-04
     3 -4.538128746E-03
     4 -3.733362335E-03
     5 -7.149516700E-03
     6 -2.610785449E-03
     7 -7.562942816E-03
     8 -6.760390416E-03
     9 -1.287306387E-02
    10 -4.836905801E-03
    11 -1.191995250E-02
    12 -2.778204849E-03
    13 -6.890386691E-03
    14 -5.690978138E-03
    15 -3.107807239E-03
    16  1.783832008E-03
    17 -1.696105565E-03
    18  3.416688676E-03
    19  5.110832924E-01
    20  5.248987566E+00
    21  2.788275968E+00
    22  4.286410386E+00
    23 -2.304291050E-03
    24 -3.656139218E-03
    25 -9.656836737E-03
    26  3.337436717E-03
    27  5.207187418E-04
    28  8.947074953E-03
    29 -1.452003969E-02
    30  7.332572720E-03
    31  1.676261510E-03
    32  6.135085099E-02
    33 -4.139822538E-02
    34 -1.863331253E-02
    35 -4.964029284E-03
    36  2.197866791E-03
    37  1.738563553E-03
    38  4.163732761E-04
    39 -1.268384290E-03
    40 -6.455644672E-04
    41 -7.632008248E-01
    42 -1.801681869E+00
    43 -3.247570121E-01
    44 -3.030843807E-01
    45  7.069687121E-05
    46  1.082876564E-04
    47  6.375350222E-03
    48  6.492848897E-04
    49  4.435575545E-03
    50 -2.824397191E-05
    51  1.155865118E-02
    52  1.082829241E-03
    53  7.989095276E-03
    54 -6.788490520E-03
    55  3.489298249E-02
    56  2.384994647E-03
    57  2.933149192E-02
    58 -1.641099133E-03
    59 -1.422306220E-03
    60  3.784099148E-04
    61 -6.460344883E-04
    62  9.232498850E-04
    63 -1.206157814E+00
    64  1.005302550E+00
    65  1.956949694E-01
    66  1.041642509E+00
    67  8.476470630E-03
    68  1.342870357E-02
    69 -3.588969529E-03
    70  5.936885951E-04
    71 -3.005209471E-02
    72 -3.212009215E-02
    73 -6.271290677E-03
    74  1.250475886E-03
    75 -5.212575961E-02
    76 -2.348843333E-01
    77  2.772576396E-03
    78 -4.094483853E-03
    79 -3.555820061E-02
    80  2.113703666E-03
    81 -6.523178374E-04
    82  4.773797460E-04
    83  1.875732455E-04
    84 -5.955741911E-04
    85  3.862358662E+00
    86  7.572503217E-01
    87 -3.207736360E-01
    88 -2.968301779E+00
    89 -1.611574570E-03
    90 -2.615725609E-03
    91 -6.806043219E-03
    92 -1.819022756E-03
    93  1.100779344E-02
    94  7.033646945E-03
    95 -1.066948570E-02
    96 -3.124047089E-03
    97  2.026604348E-02
    98  4.288711277E-02
    99 -2.043757185E-02
   100 -5.175952286E-03
   101  6.868970975E-03
   102 -3.592040978E-03
   103 -5.041328809E-03
   104  1.069980850E-03
   105  1.779325230E-03
   106  1.760243700E-03
   107  3.909311591E+00
   108  4.097917801E-01
   109  2.125130073E+00
   110 -3.253870240E+00
   111 -4.280216406E-03
   112 -6.834256726E-03
   113  1.596269923E-02
   114  1.324501870E-02
   115 -6.304404016E-03
   116  1.774325302E-02
   117  2.853681138E-02
   118  2.319758485E-02
   119 -1.115455180E-02
   120  9.389535916E-02
   121  1.957657341E-02
   122  2.887583509E-02
   123 -7.552367990E-03
   124  1.952834056E-03
   125  1.753822772E-03
   126 -7.951112399E-04
   127 -3.326685234E-04
   128  1.341481193E-04
   129 -1.669912020E+01
   130  3.763009630E+00
   131  1.379069523E+00
   132 -2.598064314E-01
   133 -6.081436327E-03
   134 -9.603602721E-03
   135 -1.995014664E-02
   136 -7.717789055E-03
   137  6.064374379E-03
   138  2.225850724E-02
   139 -3.334150958E-02
   140 -1.482825766E-02
   141  1.142692824E-02
   142  1.747310870E-01
   143 -3.752001526E-02
   144  1.750563015E-02
   145  2.796627096E-03
   146  1.477029796E-03
   147  2.024783661E-03
   148 -6.541985349E-04
   149 -9.512349579E-04
   150  4.234758020E-04
   151 -9.661481816E-01
   152 -2.082893946E+00
   153  4.425281595E-01
   154  7.193342363E-01
   155  1.246498828E-03
   156  2.009756129E-03
   157  1.997110237E-03
   158  4.270084517E-03
   159 -1.007580870E-02
   160 -5.173003751E-03
   161  4.532652695E-03
   162  8.503821305E-03
   163 -1.803175668E-02
   164 -3.885317327E-02
   165 -6.032707344E-03
   166 -2.942811312E-03
   167 -1.193831294E-02
   168 -6.442078176E-03
   169 -2.182019254E-03
   170 -5.993669209E-04
   171 -2.160763111E-03
   172  1.327789290E-03
   173 -2.483187861E+00
   174  1.740637012E+00
   175 -4.024064272E+00
   176  3.275645146E+00
   177 -1.586430367E-03
   178 -2.533872322E-03
   179  2.811846122E-03
   180 -7.056542029E-03
   181 -3.847981485E-03
   182  6.672941471E-03
   183  5.561081138E-03
   184 -1.228466906E-02
   185 -6.480457300E-03
   186  3.178123101E-02
   187 -1.045921696E-02
   188 -1.805147399E-02
   189 -1.613821072E-02
   190  2.566460646E-03
   191  1.706232282E-03
   192  2.301160055E-04
   193 -5.811451631E-04
   194 -1.022486278E-03
   195 -6.180105145E+00
   196  2.037789954E+00
   197 -5.525049066E-01
   198  5.317578571E-01
   199  5.954453961E-03
   200  9.416535351E-03
   201  7.453234464E-03
   202 -3.436412697E-03
   203  2.892782848E-02
   204 -2.226088316E-02
   205  1.245104670E-02
   206 -5.580249047E-03
   207  5.103554967E-02
   208 -1.514931643E-01
   209  2.339835317E-02
   210 -1.798963170E-02
   211  4.113574013E-02
   212  1.729646668E-03
   213  9.915253921E-05
   214  1.577558469E-04
   215  3.478405802E-04
   216 -9.230944017E-04
   217  1.984692299E+01
   218  1.347700384E+00
   219  2.080152573E-02
   220  4.569082903E+00
   221 -5.188128214E-04
   222 -8.883813687E-04
   223  1.190994122E-02
   224  6.369139062E-03
   225 -2.764191570E-02
   226  3.603610914E-03
   227  1.809541484E-02
   228  9.741736875E-03
   229 -4.350302567E-02
   230  5.924943859E-04
   231  2.832478779E-02
   232  1.424680858E-02
   233 -4.919607408E-02
   234  6.564103047E-04
   235  4.503008476E-04
   236 -3.401734747E-04
   237 -3.080549967E-04
   238 -4.777306399E-04
   239 -1.283453607E+00
   240  5.906041085E-01
   241 -1.812187159E-01
   242  1.163110056E-01
   243  3.026324950E-04
   244  5.176552535E-04
   245 -3.356960514E-03
   246 -1.550179185E-02
   247  2.458650267E-02
   248 -1.973795474E-03
   249 -5.967875632E-03
   250 -2.394396012E-02
   251  3.817739232E-02
   252 -7.743318102E-04
   253 -5.900662726E-04
   254 -2.779467252E-02
   255  4.773119383E-02
   256  8.372801020E-04
   257  8.580378288E-04
   258  3.105092011E-04
   259  1.047801920E-03
   260 -1.101646436E-04
   261  1.039212365E+00
   262 -1.061021331E-02
   263  4.112713260E-01
   264  2.643017198E-01
   265 -6.440821983E-05
   266 -1.170132599E-04
   267  1.511710584E-02
   268  1.183089971E-02
   269  1.984716108E-02
   270  8.518391857E-04
   271  2.266604103E-02
   272  1.803655452E-02
   273  3.051875525E-02
   274 -7.636718295E-03
   275  3.417875917E-02
   276  2.701215833E-02
   277  3.725663583E-02
   278  8.062349930E-04
   279  8.045954245E-04
   280 -7.892074485E-04
   281  1.112941733E-03
   282 -1.248612956E-03
   283  3.769870445E-01
   284 -1.646907858E-01
   285 -1.967823813E-01
   286  1.060726128E-02
   287  1.623549018E-03
   288 -1.666479016E-03
   289 -4.198488783E-02
   290  2.921681760E-03
   291  5.441156688E-04
   292 -1.456503380E-03
   293 -1.383574634E+00
   294  1.371540486E-03
   295  4.933496066E-03
   296  3.705311655E-02
   297 -6.824251205E-04
   298 -1.908612203E-03
   299  1.438239080E-03
   300  1.639075900E-01
   301  1.255482289E-04
   302 -9.466984001E-04
   303  1.674731973E-02
   304  2.657051433E-03
   305  3.830958184E-04
   306  1.980981292E-03
   307 -4.846444245E-02
   308 -5.277274136E-03
   309 -4.153772334E-03
   310  3.192704745E-02
   311  1.468988840E-03
   312  3.597115693E-03
   313  4.421343662E-03
   314  2.364649058E+00
   315 -5.184466498E-03
   316 -6.303590814E-03
   317  3.371719881E-02
   318  1.286615386E-03
   319 -4.098472473E-03
   320  3.328442540E-03
   321  2.104809228E+00
   322  3.328082041E-03
   323 -2.132352496E-03
   324  8.911199925E-02
   325 -4.063818270E-03
   326  6.921441225E-04
   327  2.196691612E-03
   328 -1.245519535E+00
   329  3.540018975E-03
   330 -3.942437640E-03
   331  6.494710958E-02
   332 -5.592221868E-04
   333 -3.355867333E-03
   334 -8.629001305E-04
   335 -1.408296775E+00
   336  3.830623854E-03
   337  2.972628578E-03
   338 -7.177939253E-02
   339  4.710126049E-03
   340 -8.906176810E-04
   341 -5.468264196E-04
   342 -2.173375132E+00
   343  3.604599124E-03
   344  7.972976791E-03
   345 -9.722501714E-03
   346  3.802380260E-04
   347  3.939557687E-03
   348 -9.123150643E-05
   349 -1.052407236E+00
   350  1.267858308E-03
   351 -5.658412398E-04
   352  2.915605423E-02
   353 -2.914334811E-03
   354 -4.848501761E-04
   355 -1.335780636E-04
   356 -4.379376821E-01
   357  1.335870562E-03
   358 -1.019694067E-03
   359  2.383523785E-02
   360  1.235481891E-03
   361  1.796281306E-03
   362  4.987691749E-04
   363 -5.702060728E-01
   364 -4.495760349E-03
   365  2.748973204E-03
   366 -3.004097906E-02
   367 -3.765432063E-03
   368  1.221849599E-03
   369 -1.873319923E-03
   370  2.079319412E+00
   371 -4.371242938E-03
   372  2.099223088E-03
   373 -1.002277600E-01
   374  2.133729984E-03
   375 -7.032300589E-04
   376 -5.400892693E-03
   377  1.745857367E+00
   378 -2.895125414E-03
   379 -8.266492019E-03
   380  3.534225075E-02
   381  4.867568839E-04
   382  4.439175826E-04
   383  1.663003645E-03
   384  5.511330282E-02
   385  9.961497650E-03
   386  2.390540866E-02
   387 -9.606949972E-02
   388 -4.480251518E-03
   389  1.905851881E-04
   390  4.687666246E-03
   391 -1.129292779E+00
   392 -5.989293073E-03
   393 -2.002724384E-02
   394  1.297275266E-01
   395  8.930283047E-04
   396 -2.973504122E-03
   397  2.628004580E-03
   398  4.562869101E-01
   399 -7.344842682E-03
   400 -1.607527239E-02
   401  4.843194829E-02
   402  1.876083570E-03
   403 -2.431109041E-04
   404 -4.310637873E-03
   405  7.893635751E-01
   406 -1.202989608E-03
   407 -6.407710633E-03
   408  6.462429396E-02
   409 -1.211662303E-03
   410  6.488108318E-04
   411 -1.328956537E-03
   412  3.870898395E-01
   413  7.716965076E-03
   414  2.781095442E-02
   415 -1.862858568E-01
   416  2.617169778E-04
   417  5.354498119E-03
   418 -2.031055825E-03
   419 -7.900543735E-01
   420 -2.768159126E-03
   421 -6.161318722E-03
   422  7.320018545E-03
   423  1.106477522E-04
   424 -2.103558315E-04
   425 -1.972806687E-03
   426  2.916489545E-01
   427  7.235943042E-03
   428  2.808166712E-02
   429 -2.109891736E-01
   430 -1.940562516E-03
   431 -4.888033221E-03
   432 -2.541805277E-03
   433 -9.091131301E-01
   434 -4.708082475E-03
   435 -1.944982091E-02
   436  1.448021723E-01
   437 -3.541533620E-03
   438  8.860938253E-04
   439 -2.109514230E-03
   440  7.453479217E-01
Ene=    3.2367598394E-02
Spin= Alpha
Occup=   0.0000000
     1 -1.647808937E-03
     2 -2.690696419E-03
     3 -9.492869734E-03
     4  1.290285585E-03
     5  8.660803482E-03
     6  7.786682888E-03
     7 -1.738407639E-02
     8  4.258057497E-03
     9  1.470079206E-02
    10  2.701971580E-02
    11 -8.633173071E-03
    12 -1.637233153E-02
    13  2.501332220E-02
    14  2.543995931E-03
    15 -2.067653095E-03
    16 -2.113494097E-03
    17  1.891624090E-03
    18  5.478981143E-03
    19  2.910499054E+00
    20  3.161262363E+00
    21 -1.796826929E+00
    22  1.951658968E-01
    23  8.406372582E-03
    24  1.324809038E-02
    25  1.677179873E-02
    26 -2.053436013E-02
    27 -1.399883967E-02
    28 -2.948392317E-02
    29  2.981297676E-02
    30 -3.546696665E-02
    31 -2.328694176E-02
    32 -2.689831598E-01
    33  3.296436474E-03
    34 -4.444412756E-03
    35 -3.872185212E-02
    36  9.725274499E-04
    37 -1.276547080E-03
    38  1.065975893E-03
    39  2.299680382E-04
    40 -1.261705663E-03
    41  1.189195005E+00
    42  1.141800217E+00
    43 -8.225935097E-01
    44 -2.078055508E+00
    45 -3.614094766E-05
    46 -5.346113245E-05
    47 -2.795264528E-04
    48  7.985560198E-03
    49 -7.016389688E-04
    50 -2.543458052E-05
    51 -7.216690840E-04
    52  1.359851020E-02
    53 -1.230652168E-03
    54  2.644137768E-03
    55  2.692340814E-03
    56  6.970096181E-02
    57 -7.754151658E-03
    58  3.991087639E-04
    59  6.144128414E-04
    60 -4.260640961E-04
    61  9.385294681E-04
    62  2.373170619E-03
    63  1.179330317E+00
    64  1.620706392E-01
    65  1.434357890E+00
    66 -2.618989814E-01
    67 -2.204173202E-03
    68 -3.471027842E-03
    69 -5.137643071E-05
    70 -6.032115924E-03
    71  7.429314603E-03
    72  7.597947277E-03
    73 -8.286962723E-06
    74 -7.563133682E-03
    75  1.314781455E-02
    76  7.083136713E-02
    77 -4.535686727E-03
    78 -5.824130807E-02
    79  1.597590625E-03
    80 -2.885925234E-04
    81  2.050851965E-04
    82  1.755130659E-03
    83 -7.506975936E-04
    84 -2.279827795E-03
    85 -9.476904312E-01
    86 -3.214702466E-01
    87 -1.535065791E+00
    88  5.830985931E-01
    89  3.922542940E-04
    90  6.340915222E-04
    91  3.450166831E-04
    92 -8.517986265E-03
    93 -3.290667384E-03
    94 -1.282135014E-03
    95 -4.220150335E-05
    96 -1.486193275E-02
    97 -5.994338387E-03
    98 -1.302243515E-02
    99  1.006155330E-02
   100 -4.838051969E-03
   101 -1.456563584E-03
   102  8.763184593E-04
   103  1.766316037E-03
   104 -4.374071425E-04
   105  2.176065170E-03
   106  7.084608855E-03
   107 -1.590945243E+00
   108  1.521676159E+00
   109  6.166537855E+00
   110  1.363805900E+00
   111 -4.390488672E-03
   112 -6.967923286E-03
   113  1.837690810E-02
   114  1.173514896E-02
   115 -4.709899024E-03
   116  1.736493557E-02
   117  3.190895762E-02
   118  2.108132347E-02
   119 -8.771683755E-03
   120  8.793432296E-02
   121  4.047912381E-02
   122  1.303721080E-02
   123 -5.751123503E-04
   124 -1.596417831E-03
   125 -1.079174029E-04
   126  7.806868865E-04
   127 -5.716197951E-04
   128 -2.054060221E-03
   129 -1.289039952E+01
   130  1.855993344E+00
   131  2.394271019E+00
   132 -1.249019527E+00
   133 -6.325219558E-03
   134 -1.001536291E-02
   135 -1.531151199E-02
   136 -1.325596711E-02
   137  1.021365009E-02
   138  2.367682638E-02
   139 -2.792674306E-02
   140 -2.177166803E-02
   141  1.662027164E-02
   142  1.848908732E-01
   143  1.017288333E-02
   144 -2.505009979E-02
   145  3.935113970E-02
   146 -1.635935305E-03
   147  4.900678208E-04
   148  1.309697003E-03
   149 -5.098011844E-04
   150 -1.476444246E-03
   151 -1.556046737E+00
   152 -6.631637621E-01
   153 -1.034980140E+00
   154  1.845784058E+00
   155  1.165710940E-03
   156  1.907129779E-03
   157  9.865491340E-03
   158 -3.574229924E-03
   159 -4.326333703E-03
   160 -5.807165967E-03
   161  1.785722575E-02
   162 -5.123294687E-03
   163 -7.021523145E-03
   164 -1.317622330E-02
   165  6.945977967E-03
   166 -1.482458374E-02
   167 -2.028691820E-02
   168  2.604440541E-04
   169  3.360557249E-03
   170 -2.292148259E-03
   171  2.965722341E-03
   172  5.264776134E-03
   173 -1.262318945E+00
   174 -4.612159407E+00
   175  1.472543868E+00
   176 -1.926489952E+00
   177  5.825313912E-03
   178  9.306334172E-03
   179 -1.735344663E-02
   180  2.264020148E-02
   181  9.154089962E-03
   182 -2.488145265E-02
   183 -3.092182026E-02
   184  3.974918711E-02
   185  1.616384295E-02
   186 -9.702937471E-02
   187 -2.671062603E-02
   188  4.859736645E-02
   189  1.898640862E-02
   190  5.259163203E-04
   191 -8.030938867E-04
   192  6.577327830E-04
   193 -6.309948326E-04
   194 -1.671755526E-03
   195  1.857343011E+01
   196 -1.937685144E+00
   197  3.685961632E+00
   198  1.768781471E+00
   199 -1.598142145E-03
   200 -2.558232358E-03
   201 -2.553138101E-03
   202 -1.276715215E-03
   203 -7.763178641E-03
   204  6.925363091E-03
   205 -4.066519837E-03
   206 -1.910703860E-03
   207 -1.380828705E-02
   208  2.759393697E-02
   209 -8.502988069E-03
   210 -7.199884225E-03
   211 -1.325227304E-02
   212 -2.821098996E-04
   213  6.376596862E-05
   214  1.665184807E-03
   215 -1.015252566E-03
   216 -2.715684447E-03
   217 -4.929825073E+00
   218 -9.316785060E-02
   219  1.966635536E+00
   220 -1.001895450E+00
   221  1.681467776E-04
   222  2.927613763E-04
   223  1.494088429E-03
   224  2.655200187E-02
   225  8.650829450E-03
   226 -1.400291063E-03
   227  2.497023125E-03
   228  4.112650899E-02
   229  1.358261398E-02
   230  2.996133497E-03
   231 -1.524018716E-03
   232  4.509797526E-02
   233  1.495518661E-02
   234 -2.699096974E-04
   235 -4.114824480E-04
   236 -9.846882400E-04
   237 -5.517332209E-04
   238 -1.611014125E-03
   239 -5.047330746E-01
   240  4.314867239E-02
   241 -1.169078204E-01
   242  4.537113763E-02
   243  1.357195540E-04
   244  2.188644116E-04
   245 -2.731000060E-02
   246  8.924300828E-03
   247  5.871072546E-03
   248 -1.552614798E-04
   249 -4.325968207E-02
   250  1.352715606E-02
   251  9.836867702E-03
   252 -1.782020962E-02
   253 -4.699014777E-02
   254  1.052505097E-02
   255  4.222546500E-03
   256 -1.454382129E-04
   257 -6.633232827E-04
   258 -6.507288630E-05
   259 -1.225557299E-03
   260 -7.625144428E-04
   261 -2.144912218E-01
   262  1.018561034E-01
   263  1.012933872E-01
   264  1.856663432E-01
   265 -1.884570118E-04
   266 -3.376797251E-04
   267  2.435600325E-02
   268 -6.084781447E-03
   269 -1.750512562E-02
   270  1.349192446E-03
   271  3.843386853E-02
   272 -1.045436886E-02
   273 -2.790129461E-02
   274  9.926166999E-03
   275  3.980883382E-02
   276 -1.031256406E-02
   277 -2.769568005E-02
   278 -3.370105557E-04
   279  2.201672398E-04
   280  4.608267212E-05
   281  4.732881644E-06
   282 -1.003313509E-03
   283 -1.501013311E-02
   284  4.398032042E-02
   285  2.504356932E-01
   286 -2.199481345E-01
   287 -4.978618083E-03
   288 -8.818894622E-03
   289  4.709144450E-02
   290 -4.678583112E-03
   291  2.279350560E-03
   292 -1.361182491E-03
   293  1.869574914E+00
   294 -5.196896861E-03
   295 -5.295107086E-03
   296  7.988238441E-02
   297  4.689859197E-04
   298  4.232672243E-03
   299  3.639635303E-03
   300  2.368560788E+00
   301 -1.698362179E-04
   302  1.417748039E-03
   303 -1.915797343E-02
   304 -9.874366776E-05
   305  2.938313533E-03
   306 -3.597171228E-04
   307  4.819839409E-02
   308  9.952258845E-04
   309  7.692744124E-03
   310  2.730786560E-02
   311 -2.647732828E-03
   312 -1.003844965E-04
   313 -2.993511540E-05
   314  1.990118994E-01
   315  1.616474982E-03
   316 -5.302964639E-03
   317 -5.324536351E-02
   318  2.073312567E-03
   319  1.122636019E-03
   320 -1.872217109E-03
   321 -1.303646537E+00
   322  3.125107927E-03
   323 -4.471080312E-04
   324  1.947689645E-02
   325 -1.721112350E-03
   326 -1.627689622E-03
   327  3.949457736E-03
   328 -1.309491938E+00
   329  3.183225695E-03
   330  1.120666951E-04
   331 -1.218953082E-02
   332 -2.227156212E-03
   333 -1.682577719E-03
   334 -2.303904760E-03
   335 -1.413069594E+00
   336  3.593021734E-03
   337  9.454243141E-03
   338 -1.491268920E-02
   339  3.511697060E-03
   340  9.585805935E-04
   341  2.166508259E-03
   342 -9.856294405E-01
   343  3.932268735E-03
   344  8.399483747E-04
   345 -7.906319926E-02
   346  8.070780766E-04
   347  3.054366447E-03
   348 -3.614927268E-03
   349 -2.128579726E+00
   350 -4.367620859E-03
   351  1.156049147E-03
   352 -4.769767059E-02
   353  3.008379608E-03
   354 -1.659575739E-03
   355 -4.693889162E-03
   356  1.733857977E+00
   357 -4.562716674E-03
   358  1.402229528E-03
   359 -1.110280560E-02
   360  1.018355636E-03
   361 -3.953655654E-03
   362  2.084455393E-03
   363  1.922727849E+00
   364  1.155883942E-03
   365 -4.388808802E-05
   366 -3.149042886E-04
   367  1.440680903E-03
   368  1.658151094E-03
   369  5.800272746E-04
   370 -5.451961773E-01
   371  1.169209614E-03
   372 -1.065692716E-03
   373  2.502235779E-02
   374 -1.066846368E-03
   375 -2.552395884E-03
   376  1.262157147E-03
   377 -4.029423492E-01
   378  7.285574735E-03
   379  2.663266354E-02
   380 -1.631121445E-01
   381 -2.781544459E-03
   382 -3.982173110E-03
   383 -3.262316418E-03
   384 -9.401664504E-01
   385 -2.511369705E-03
   386 -7.083553955E-03
   387  4.368843328E-02
   388  9.861537560E-04
   389 -9.635186387E-04
   390 -1.303826740E-03
   391  2.891133107E-01
   392 -4.940064141E-03
   393 -2.075316941E-02
   394  1.512770735E-01
   395  9.136453970E-04
   396 -4.038023621E-03
   397  1.691355054E-03
   398  7.391837264E-01
   399 -7.393455745E-03
   400 -1.651829123E-02
   401  3.421397176E-02
   402  2.676575729E-03
   403 -1.124793013E-03
   404 -3.643751240E-03
   405  7.642551869E-01
   406  7.742544559E-03
   407  2.759182825E-02
   408 -1.828155042E-01
   409  5.569668920E-03
   410 -3.872630760E-07
   411  1.978780148E-03
   412 -7.805721790E-01
   413 -1.111448641E-03
   414 -6.640973505E-03
   415  4.472193939E-02
   416  8.459723249E-04
   417 -1.524299951E-03
   418  3.494716273E-04
   419  4.503904614E-01
   420  9.917043526E-03
   421  2.357910614E-02
   422 -6.954919024E-02
   423 -3.654484098E-03
   424 -5.124236661E-04
   425  5.153331266E-03
   426 -1.047059691E+00
   427 -2.845339126E-03
   428 -7.258585775E-03
   429  3.540157345E-02
   430 -5.051849335E-04
   431  1.491727085E-03
   432  8.080417261E-04
   433  1.152395586E-02
   434 -6.110181592E-03
   435 -2.188095810E-02
   436  1.372015822E-01
   437 -3.888613954E-03
   438  1.762921814E-03
   439 -9.892327455E-04
   440  5.180283258E-01
Ene=    3.9306213883E-02
Spin= Alpha
Occup=   0.0000000
     1 -6.428692145E-03
     2 -1.050328664E-02
     3 -7.695084432E-05
     4  1.248880581E-02
     5 -8.211726345E-03
     6  3.223467705E-02
     7 -3.022955261E-03
     8  2.060560082E-02
     9 -9.340750488E-03
    10  2.330521924E-01
    11  3.368092756E-03
    12  5.659126269E-02
    13 -4.173935511E-02
    14  1.335446685E-03
    15  1.524393685E-03
    16  1.508553893E-03
    17  3.171817202E-03
    18  2.983063123E-03
    19  4.509256783E+00
    20 -4.931349674E-01
    21  2.124263783E+00
    22 -8.244964414E-01
    23 -6.458664224E-03
    24 -1.065064578E-02
    25 -8.545137185E-03
    26  5.617469466E-03
    27  8.674833369E-03
    28  3.607419794E-02
    29 -1.124343537E-02
    30  6.824665811E-03
    31  1.171562289E-02
    32  6.333913658E-03
    33 -7.566271998E-02
    34  1.221006574E-01
    35  2.700803220E-02
    36  1.193218370E-03
    37 -2.997584156E-03
    38 -3.474388518E-04
    39  1.246098858E-05
    40 -9.508776848E-04
    41 -4.419442545E+00
    42 -9.110945038E-01
    43  8.506058014E-01
    44  8.118054334E-01
    45  3.467194327E-03
    46  5.731330663E-03
    47  1.540189776E-02
    48 -1.388126967E-03
    49 -2.138118437E-02
    50 -2.213818943E-02
    51  1.371642945E-02
    52 -1.041460616E-03
    53 -1.943491005E-02
    54 -1.200780640E-02
    55  1.667778024E-01
    56 -1.231809979E-02
    57 -2.287760986E-01
    58 -2.312431400E-03
    59  3.802833467E-03
    60 -3.522716792E-04
    61 -1.333496887E-03
    62  2.648019211E-04
    63  7.410221695E+00
    64  3.144255584E+00
    65 -1.308330113E-01
    66 -4.394817695E+00
    67 -6.402421967E-03
    68 -1.054045974E-02
    69 -2.929586780E-03
    70 -1.576835396E-04
    71  1.271084544E-02
    72  3.522762420E-02
    73 -4.169924045E-03
    74  2.507053717E-04
    75  1.636256555E-02
    76  1.656815931E-02
    77  5.341917291E-02
    78 -2.118738727E-02
    79  1.285457334E-01
    80  2.067371937E-03
    81 -1.768610226E-03
    82 -1.268638023E-04
    83  1.924203440E-03
    84 -5.761456102E-04
    85 -4.216039217E+00
    86 -2.380880618E-01
    87 -1.499284993E-01
    88  1.497586352E+00
    89 -6.448771532E-03
    90 -1.052458768E-02
    91  1.437603375E-02
    92 -2.462927431E-03
    93  3.251048899E-03
    94  3.189263084E-02
    95  2.015333440E-02
    96 -3.466845528E-03
    97  8.931919091E-03
    98  2.453626925E-01
    99  7.756960943E-02
   100 -1.016489413E-02
   101  1.529934368E-02
   102 -2.025853723E-03
   103 -2.791790135E-03
   104  8.585400780E-04
   105 -3.274501558E-03
   106  1.167937058E-03
   107  4.754556713E+00
   108  2.873516538E+00
   109 -2.210972509E-01
   110  1.365521581E+00
   111 -1.185065879E-02
   112 -1.902523994E-02
   113  1.687086990E-02
   114  2.025122572E-02
   115  5.145287060E-03
   116  5.069798189E-02
   117  2.341619416E-02
   118  2.841010268E-02
   119  7.752485886E-03
   120  2.344007262E-01
   121  6.521072073E-02
   122  8.603511391E-02
   123  2.490714341E-02
   124 -1.417938440E-03
   125  6.229790957E-04
   126 -5.998377145E-03
   127  1.832832177E-03
   128 -3.744467380E-03
   129  4.172404289E+00
   130 -1.773501300E-01
   131  4.037060993E-01
   132  7.329737713E-02
   133 -6.503760868E-03
   134 -1.070523934E-02
   135 -9.979016580E-03
   136 -3.433016254E-03
   137  8.132779371E-03
   138  3.575752433E-02
   139 -1.289960667E-02
   140 -3.951082263E-03
   141  1.079600280E-02
   142  1.910437254E-02
   143 -1.056018757E-01
   144 -9.017766197E-02
   145  2.128197509E-02
   146  1.290523059E-03
   147 -2.698450985E-03
   148  9.375173680E-04
   149  6.527207577E-04
   150  1.123674945E-03
   151 -3.731882114E+00
   152 -1.060388098E+00
   153 -4.321965099E-01
   154  8.627730634E-01
   155 -6.447379799E-03
   156 -1.051652988E-02
   157 -3.987712006E-03
   158 -1.086882758E-02
   159 -9.503271027E-03
   160  3.158118741E-02
   161 -9.208206211E-03
   162 -1.696161501E-02
   163 -1.135048222E-02
   164  2.499814157E-01
   165 -1.936223944E-02
   166 -5.512187424E-02
   167 -5.513581071E-02
   168  9.752732074E-04
   169  4.301668467E-04
   170 -2.098138366E-03
   171  3.479606013E-04
   172 -4.314860544E-03
   173  5.116037773E+00
   174 -1.398633915E+00
   175 -2.342156488E+00
   176 -1.768416423E+00
   177 -1.196663091E-02
   178 -1.918442572E-02
   179  9.765198951E-03
   180 -2.509729370E-02
   181  2.533148993E-03
   182  5.048956557E-02
   183  1.333618279E-02
   184 -3.528013228E-02
   185  3.902213965E-03
   186  2.487373462E-01
   187  3.446381963E-02
   188 -9.967435645E-02
   189  2.176097545E-02
   190 -5.050696169E-04
   191  2.898997373E-03
   192  5.211570915E-03
   193  4.132583632E-03
   194  1.432877595E-03
   195  5.267869952E+00
   196 -8.801731232E-02
   197 -3.140685904E-02
   198  3.856127332E-01
   199 -1.184638677E-02
   200 -1.902378001E-02
   201 -1.838725953E-02
   202  4.113267415E-03
   203 -1.894186636E-02
   204  5.083408874E-02
   205 -2.609626584E-02
   206  5.540771788E-03
   207 -2.611247965E-02
   208  2.351564239E-01
   209 -8.073951209E-02
   210  2.326357856E-02
   211 -7.395144868E-02
   212  4.797079596E-04
   213 -1.136744157E-03
   214  5.453075709E-04
   215 -6.888148800E-03
   216  2.403751556E-03
   217  3.729343992E+00
   218 -3.362241729E-01
   219  3.425268953E-01
   220 -6.645218752E-02
   221  5.768610562E-03
   222  9.165606203E-03
   223  2.120457051E-03
   224 -6.116894210E-04
   225  7.136020526E-03
   226 -2.554278384E-02
   227 -2.643539466E-03
   228 -1.893274299E-04
   229  6.951583263E-03
   230 -1.243150219E-01
   231  9.102325257E-02
   232 -1.682314042E-02
   233  6.875362631E-02
   234 -1.086658804E-03
   235  2.785883821E-03
   236 -6.447010493E-04
   237  3.852796357E-03
   238 -1.464864030E-03
   239 -8.636175628E+00
   240  1.306703393E+00
   241 -2.183481549E-01
   242  8.739893666E-01
   243  5.713708060E-03
   244  9.065071502E-03
   245 -5.879438791E-03
   246 -4.545738965E-03
   247  1.829102403E-03
   248 -2.499091280E-02
   249 -5.280421463E-03
   250 -1.671939164E-03
   251  5.689885954E-03
   252 -1.280291740E-01
   253 -6.452674237E-02
   254 -8.957012413E-02
   255 -4.014040715E-02
   256 -3.380587338E-04
   257  1.363919024E-03
   258  3.594734590E-03
   259 -1.718648575E-03
   260  2.842986480E-03
   261 -8.781903005E+00
   262 -8.230412353E-01
   263 -1.241328952E+00
   264 -6.010725149E-01
   265  5.845117774E-03
   266  9.304912632E-03
   267 -4.542441963E-03
   268  5.938855758E-03
   269  2.796285921E-03
   270 -2.679593089E-02
   271 -5.158381522E-03
   272  2.665693703E-03
   273  6.163959519E-03
   274 -1.107279287E-01
   275 -3.190193211E-02
   276  9.963230537E-02
   277 -2.177144997E-02
   278 -9.726214262E-04
   279 -1.141741577E-04
   280 -3.479577808E-03
   281 -3.559803021E-03
   282 -1.121913181E-03
   283 -8.005587285E+00
   284 -4.043217478E-01
   285  1.434737698E+00
   286 -3.750245649E-01
   287 -2.681466703E-03
   288 -2.680703925E-02
   289 -7.066142781E-02
   290  2.687320305E-03
   291  1.366496232E-03
   292  4.501489579E-03
   293 -4.588191463E-01
   294 -2.779937308E-03
   295 -2.595773082E-02
   296 -7.525317710E-02
   297 -4.944426640E-03
   298 -2.161971076E-03
   299 -7.132906491E-04
   300 -5.049358323E-01
   301 -1.140378863E-02
   302 -2.198317959E-02
   303  4.929694174E-01
   304 -2.546946664E-03
   305  1.591572840E-04
   306  3.590477493E-03
   307  4.219907802E+00
   308 -2.843824444E-03
   309 -2.574544510E-02
   310 -5.489665760E-02
   311 -2.473823520E-03
   312 -4.644131552E-03
   313  1.153219431E-03
   314 -4.327448840E-01
   315 -2.718560363E-03
   316 -2.682832389E-02
   317 -6.150507356E-02
   318 -8.357658895E-04
   319  4.954667773E-03
   320  1.749827227E-03
   321 -5.402339195E-01
   322 -2.173124596E-03
   323 -1.436656091E-02
   324 -1.528590227E-01
   325 -2.448452174E-04
   326  3.145908270E-03
   327  4.391993784E-03
   328 -7.698070507E-01
   329 -6.363251738E-03
   330 -2.592392667E-02
   331 -3.530596822E-01
   332 -7.869490160E-04
   333 -5.771907190E-03
   334 -6.622225248E-03
   335 -1.741971487E+00
   336 -2.848745204E-03
   337 -2.502311556E-02
   338 -7.293641163E-02
   339  2.092033581E-03
   340 -2.617159307E-03
   341  4.255581678E-03
   342 -4.695328456E-01
   343 -2.745248808E-03
   344 -2.606079347E-02
   345 -7.126499163E-02
   346 -3.950292302E-03
   347  3.637925262E-03
   348 -4.087962905E-04
   349 -4.950651983E-01
   350 -2.331304258E-03
   351 -1.217708022E-02
   352 -1.675125420E-01
   353 -1.400560665E-03
   354 -3.291000653E-03
   355  4.187761697E-03
   356 -7.594782021E-01
   357 -6.306070962E-03
   358 -2.606425475E-02
   359 -3.547357329E-01
   360  1.212045656E-03
   361  6.326859933E-03
   362 -5.939002259E-03
   363 -1.767595825E+00
   364 -6.342640698E-03
   365 -2.629268491E-02
   366 -3.437232612E-01
   367  8.677806446E-03
   368 -1.463377126E-03
   369 -1.071570278E-04
   370 -1.786537696E+00
   371 -2.185175581E-03
   372 -1.469207124E-02
   373 -1.388425882E-01
   374 -5.248773304E-03
   375  8.267323123E-04
   376  9.847242473E-04
   377 -7.530210516E-01
   378 -2.397102220E-03
   379 -3.099732688E-02
   380  1.879298548E-01
   381  3.115489931E-03
   382 -1.665730447E-03
   383  1.954949822E-03
   384  5.922993755E-01
   385 -2.903297498E-03
   386 -2.981216969E-02
   387  3.148612721E-01
   388  3.890331044E-03
   389 -6.073070221E-04
   390 -4.629439955E-04
   391  1.684918113E+00
   392 -2.245840836E-03
   393 -3.235710393E-02
   394  2.103532121E-01
   395  3.398251992E-03
   396  3.066540350E-04
   397  2.097009872E-03
   398  6.982671883E-01
   399 -2.982350249E-03
   400 -2.996165884E-02
   401  3.079121020E-01
   402 -3.465185041E-05
   403 -2.425429984E-03
   404 -3.175677002E-03
   405  1.676457915E+00
   406 -2.318517943E-03
   407 -3.222967091E-02
   408  1.955758607E-01
   409 -1.345449663E-03
   410 -3.684542955E-03
   411 -1.084300326E-03
   412  6.531501525E-01
   413 -2.209882505E-03
   414 -3.170649203E-02
   415  2.029032533E-01
   416 -2.539243188E-03
   417 -2.298391198E-03
   418 -2.049833485E-03
   419  6.693098788E-01
   420 -2.940989644E-03
   421 -3.179738830E-02
   422  3.432278418E-01
   423  9.515196746E-04
   424  2.594032315E-03
   425 -3.101000048E-03
   426  1.711131789E+00
   427 -2.165295051E-03
   428 -3.246232150E-02
   429  2.192037688E-01
   430 -1.619278017E-03
   431  3.277890395E-03
   432 -1.726441403E-03
   433  6.033800196E-01
   434 -2.218876600E-03
   435 -3.233451313E-02
   436  2.150561531E-01
   437 -8.971093335E-05
   438  3.975421386E-03
   439 -6.474155797E-04
   440  5.848038393E-01
Ene=    5.0980602838E-02
Spin= Alpha
Occup=   0.0000000
     1  2.646198033E-05
     2  3.493508028E-05
     3 -9.888388774E-04
     4 -5.800401745E-04
     5 -4.896938742E-04
     6  1.393996583E-04
     7 -4.115186424E-03
     8 -1.768607639E-03
     9 -2.611450122E-03
    10 -7.819701402E-03
    11  1.981690915E-02
    12  5.250511503E-03
    13  1.746660062E-02
    14 -2.902769082E-04
    15  1.136734987E-03
    16 -2.740622238E-03
    17  3.744750582E-03
    18 -3.007463440E-03
    19 -1.610126754E-01
    20 -1.928594092E+00
    21 -1.120795413E+00
    22 -1.126437690E+00
    23  1.292584771E-04
    24  1.958950411E-04
    25 -1.533471446E-02
    26 -7.130716355E-03
    27 -1.062918239E-02
    28 -1.634874126E-04
    29 -1.838673615E-02
    30 -8.614698251E-03
    31 -1.257086773E-02
    32 -1.056151131E-02
    33 -8.455451185E-02
    34 -3.539302814E-02
    35 -5.868716026E-02
    36  6.179148114E-04
    37 -9.825597779E-05
    38  9.410518433E-04
    39 -1.285855775E-03
    40  7.240065352E-04
    41 -1.901011727E-01
    42 -9.061369914E-01
    43 -3.855460518E-01
    44 -6.056649767E-01
    45 -9.417173986E-06
    46 -2.002131355E-05
    47 -2.966388384E-05
    48  8.232139533E-05
    49  6.406390524E-05
    50  2.088917037E-04
    51 -3.464314107E-04
    52  1.780405607E-04
    53 -4.692480960E-05
    54 -2.849723685E-03
    55  3.444083513E-03
    56  4.248903809E-03
    57  1.048591881E-03
    58 -2.943074951E-05
    59  6.911269879E-05
    60 -2.487079023E-05
    61  4.555579969E-05
    62  2.243869229E-05
    63  3.140427540E-01
    64  5.621219312E-02
    65 -1.036508046E-02
    66 -5.415708497E-02
    67 -7.409196476E-05
    68 -1.191713667E-04
    69  3.249765680E-03
    70  1.954203904E-02
    71  1.101842356E-03
    72  3.626423084E-04
    73  4.007897034E-03
    74  2.355216639E-02
    75  1.423647871E-03
    76  1.044803925E-03
    77  1.564931843E-02
    78  9.969529532E-02
    79  5.047044111E-03
    80 -1.687043788E-04
    81 -3.163501709E-04
    82 -1.823543847E-03
    83 -2.736005082E-04
    84 -4.336615919E-04
    85 -4.013726047E-01
    86  1.835120433E-01
    87  1.136465586E+00
    88  1.653923076E-01
    89  4.104380492E-06
    90  1.104466703E-05
    91  3.111814652E-04
    92  1.213511678E-03
    93  9.856616774E-05
    94 -1.714628078E-04
    95  8.941784520E-04
    96  5.002503568E-03
    97  1.745847697E-04
    98  2.993078590E-03
    99 -8.223373609E-04
   100 -2.207755739E-02
   101  2.641053107E-03
   102  4.243373795E-04
   103  9.021735478E-04
   104  4.544906364E-03
   105  1.316645124E-03
   106  2.901850438E-03
   107  1.711143478E-02
   108  5.636119265E-01
   109  2.066338157E+00
   110  3.375041721E-01
   111  2.343790767E-05
   112  3.820750832E-05
   113 -8.436109657E-03
   114  8.715044580E-03
   115 -6.521863317E-03
   116  3.643201003E-05
   117 -1.241136080E-02
   118  1.289831214E-02
   119 -9.500037936E-03
   120 -5.819523455E-03
   121 -1.364183702E-02
   122  1.332713213E-02
   123 -1.413999971E-02
   124  2.792480156E-04
   125 -2.214586999E-04
   126 -5.484010515E-04
   127 -8.994995568E-04
   128  1.825227696E-04
   129  8.426640298E-01
   130 -2.465672061E+00
   131  2.322382662E+00
   132 -1.820497692E+00
   133 -5.855050767E-05
   134 -9.570903342E-05
   135  1.199470378E-02
   136 -1.254945529E-02
   137  9.403108991E-03
   138  2.414148595E-04
   139  1.414016288E-02
   140 -1.498005151E-02
   141  1.112172193E-02
   142  2.937494041E-03
   143  6.748597589E-02
   144 -6.555549591E-02
   145  5.309229483E-02
   146 -3.986585598E-04
   147  3.546945115E-04
   148  7.911690743E-04
   149  1.409768987E-03
   150 -2.737894060E-04
   151  1.466473322E-03
   152  7.545487589E-01
   153 -7.370110463E-01
   154  5.598426253E-01
   155  1.307117375E-05
   156  2.423182529E-05
   157  7.869520855E-04
   158 -6.821031986E-04
   159  5.130107360E-04
   160 -2.512002987E-04
   161  3.056640280E-03
   162 -3.038889199E-03
   163  2.413363208E-03
   164  4.825723787E-03
   165 -1.579673950E-02
   166  1.630024761E-02
   167 -1.598480209E-02
   168 -2.631399233E-04
   169 -2.078707227E-03
   170 -1.692619659E-03
   171 -5.010400067E-03
   172  1.107390769E-04
   173  5.493879549E-01
   174  1.282039884E+00
   175 -1.545977570E+00
   176  8.939580684E-01
   177 -4.920506913E-05
   178 -6.783465369E-05
   179  1.071830504E-02
   180  4.907553239E-03
   181  6.940394323E-03
   182 -1.818635330E-04
   183  1.573469573E-02
   184  7.262836804E-03
   185  1.017679593E-02
   186  9.190630259E-03
   187  1.710898741E-02
   188  1.109972447E-02
   189  1.356590822E-02
   190 -4.306696217E-04
   191  5.374617526E-05
   192 -5.922065359E-04
   193  7.120280012E-04
   194 -4.041982420E-04
   195  7.006399866E-02
   196  2.899434646E+00
   197  1.369981033E+00
   198  1.974533081E+00
   199  1.058746064E-04
   200  1.669002787E-04
   201 -2.257071315E-03
   202 -1.337495124E-02
   203 -4.658789798E-04
   204 -4.338241826E-04
   205 -3.318130046E-03
   206 -1.978483667E-02
   207 -7.160768034E-04
   208 -6.215406061E-04
   209 -2.924131697E-03
   210 -1.754631235E-02
   211 -8.228265570E-04
   212  1.558421113E-04
   213  1.348089760E-04
   214  1.085042083E-03
   215  1.500395053E-04
   216  1.526856577E-04
   217 -7.409437201E-01
   218 -6.579790655E-01
   219 -3.650942988E+00
   220 -3.419730636E-01
   221 -1.229687520E-05
   222 -2.855756735E-05
   223  7.162342014E-03
   224  4.311417582E-02
   225  2.198293793E-03
   226  4.056055669E-04
   227  1.046219213E-02
   228  6.346639999E-02
   229  3.086860160E-03
   230 -4.578475346E-03
   231  2.423235379E-02
   232  1.279237468E-01
   233  7.888437725E-03
   234 -3.232562200E-04
   235 -6.902772302E-04
   236 -3.396145952E-03
   237 -1.079997466E-03
   238 -2.532876396E-03
   239 -3.255448915E-01
   240  4.149732031E-01
   241  2.089082802E+00
   242  1.126583097E-01
   243 -7.481253860E-05
   244 -1.335496590E-04
   245  2.662335770E-02
   246 -2.754256546E-02
   247  2.055796249E-02
   248  7.855911044E-04
   249  3.914926997E-02
   250 -4.056351912E-02
   251  3.041400841E-02
   252 -5.247336822E-03
   253  7.973508167E-02
   254 -8.447191745E-02
   255  5.901429083E-02
   256  4.310234596E-04
   257  1.726685295E-03
   258  1.191970851E-03
   259  3.926385594E-03
   260  6.360820028E-05
   261 -3.853116363E-01
   262  1.261340514E+00
   263 -1.390583049E+00
   264  9.376037522E-01
   265  2.098337915E-05
   266  3.912551985E-05
   267 -3.382711740E-02
   268 -1.525727574E-02
   269 -2.281489580E-02
   270 -3.223265606E-04
   271 -4.952385991E-02
   272 -2.232624324E-02
   273 -3.339207119E-02
   274  5.133061909E-03
   275 -1.044113477E-01
   276 -5.085059426E-02
   277 -6.948389700E-02
   278 -7.359090769E-05
   279 -1.081548073E-03
   280  2.107604749E-03
   281 -2.790026446E-03
   282  2.506322249E-03
   283  3.814838561E-01
   284 -1.623783603E+00
   285 -7.879642256E-01
   286 -1.058768628E+00
   287  4.783427937E-04
   288  7.990094254E-03
   289 -2.741218285E-01
   290  2.834546190E-03
   291 -1.992589015E-03
   292  1.845798466E-03
   293 -1.210908000E+00
   294 -5.072880880E-04
   295 -7.920778391E-03
   296  2.687811917E-01
   297  9.197880797E-04
   298  3.786395620E-03
   299  8.386495237E-04
   300  1.249192086E+00
   301 -2.622782999E-05
   302  7.029157829E-04
   303 -4.619241823E-03
   304  1.537510570E-05
   305 -4.511851813E-05
   306 -6.925095800E-05
   307  9.530688293E-03
   308  4.638620270E-04
   309  8.598933697E-03
   310 -2.577022920E-01
   311 -2.738070080E-03
   312 -1.983502057E-03
   313 -2.227158436E-03
   314 -1.230402550E+00
   315 -3.911261905E-04
   316 -8.816445920E-03
   317  2.735168492E-01
   318  1.934282550E-03
   319 -2.941958694E-03
   320  1.862708702E-03
   321  1.170673288E+00
   322 -4.109350200E-05
   323  5.325293051E-04
   324 -1.828421131E-02
   325 -8.173586650E-04
   326  9.084967339E-04
   327 -6.913270993E-04
   328 -1.436502663E-02
   329 -5.907420279E-05
   330  1.465383661E-03
   331 -1.430224346E-02
   332 -2.725365221E-03
   333  2.786012338E-03
   334 -2.147759538E-03
   335  3.731201920E-02
   336 -5.743753986E-04
   337 -7.853694021E-03
   338  2.644817283E-01
   339 -3.249381145E-03
   340 -8.213356665E-04
   341 -2.000761320E-03
   342  1.251540780E+00
   343  6.075274136E-04
   344  8.287127806E-03
   345 -2.734074152E-01
   346  3.022108757E-04
   347  3.883455042E-03
   348 -3.870483444E-04
   349 -1.214773919E+00
   350 -3.732314351E-05
   351  2.499051202E-04
   352 -1.713665525E-03
   353  9.697969782E-04
   354  5.236894198E-04
   355  7.599254261E-04
   356 -1.754072541E-02
   357  4.144060830E-05
   358  1.012848004E-04
   359  2.454810935E-03
   360  3.445674891E-03
   361  1.513330093E-03
   362  2.401817076E-03
   363  3.053137755E-02
   364  6.234184774E-07
   365 -1.839506969E-04
   366  1.073810702E-02
   367 -7.395070357E-04
   368 -4.392551817E-03
   369 -2.336307836E-04
   370 -1.507972937E-02
   371  8.299995818E-05
   372 -9.784965490E-04
   373  1.942436918E-02
   374 -1.769274396E-04
   375 -1.343999319E-03
   376 -1.489611819E-04
   377  2.141885403E-02
   378  3.641919757E-03
   379  2.000623010E-02
   380 -3.311042374E-01
   381 -3.539583665E-03
   382 -5.139575612E-03
   383 -6.152675438E-03
   384 -3.097443111E+00
   385 -2.703800038E-05
   386 -9.285108914E-05
   387  2.433505613E-04
   388  2.878566082E-04
   389  1.929522174E-03
   390  1.583233414E-04
   391  1.776930508E-03
   392 -3.652851266E-03
   393 -1.991087817E-02
   394  3.290730588E-01
   395  1.601517027E-03
   396 -6.615555607E-03
   397  5.458832173E-03
   398  3.112739197E+00
   399  1.712828931E-05
   400 -2.388314557E-04
   401 -4.512096382E-03
   402  1.102120113E-03
   403 -1.159604912E-03
   404  9.596894868E-04
   405 -3.072520107E-02
   406 -3.650389318E-03
   407 -2.015678834E-02
   408  3.289152286E-01
   409 -8.382396969E-03
   410 -3.528504582E-04
   411 -2.157387680E-03
   412  3.084720112E+00
   413  3.681855275E-03
   414  2.026982614E-02
   415 -3.311702386E-01
   416  1.189366961E-03
   417  7.896804734E-03
   418 -3.534237215E-03
   419 -3.066307891E+00
   420  4.116905304E-05
   421 -5.444683784E-05
   422  4.546833660E-03
   423 -1.388737624E-03
   424 -6.850015839E-04
   425 -1.091064453E-03
   426  2.615732830E-02
   427 -3.572845121E-03
   428 -1.926026960E-02
   429  3.357938954E-01
   430  1.288385341E-03
   431  7.361446739E-03
   432  4.339181016E-03
   433  3.058497125E+00
   434  3.622389295E-03
   435  1.993740331E-02
   436 -3.377646610E-01
   437  7.815670460E-03
   438 -3.240907288E-03
   439  1.992616370E-03
   440 -3.124473722E+00
Ene=    5.3281337543E-02
Spin= Alpha
Occup=   0.0000000
     1  1.032456108E-03
     2  1.453830880E-03
     3  4.922917095E-03
     4  1.288588086E-02
     5 -1.611932696E-02
     6  2.740592681E-03
     7  1.044690269E-02
     8  8.499514253E-03
     9 -2.617482211E-02
    10 -3.731168168E-02
    11  2.916739191E-03
    12  2.249218438E-01
    13 -1.154074620E-01
    14  1.255783050E-03
    15 -4.683368405E-03
    16 -1.623791519E-03
    17  6.375444505E-04
    18  3.460274203E-06
    19 -5.818803586E+00
    20 -1.006489857E+00
    21  6.667848572E+00
    22 -4.896468306E+00
    23 -1.280596136E-02
    24 -2.038915056E-02
    25 -5.034734857E-03
    26  9.779826387E-03
    27  6.536339707E-04
    28  5.022577265E-02
    29 -1.097845621E-02
    30  1.366870911E-02
    31  4.923652502E-03
    32  3.561697612E-01
    33  4.638282183E-02
    34 -6.399312233E-02
    35 -3.217360652E-02
    36 -3.196975324E-04
    37  9.218004918E-04
    38 -6.155132257E-04
    39 -1.937348717E-03
    40  1.014639609E-03
    41  1.346045517E+01
    42  1.255055991E+00
    43 -9.369714518E-01
    44 -4.961949643E-01
    45  4.083838031E-04
    46  6.581154881E-04
    47  2.301934278E-04
    48 -5.655129912E-03
    49 -6.902451973E-04
    50 -1.852851414E-03
    51  5.148298029E-04
    52 -4.729887040E-03
    53 -4.923698607E-04
    54 -8.592853178E-03
    55 -7.670578070E-03
    56 -1.285009901E-01
    57  2.645618192E-03
    58 -1.787604492E-04
    59 -1.011627506E-03
    60 -1.483235531E-03
    61 -8.206205889E-04
    62 -1.663810713E-03
    63 -3.265602839E+00
    64 -5.001481278E-01
    65 -1.776516213E+00
    66  2.645884474E-01
    67  1.637686102E-03
    68  2.621622927E-03
    69 -1.039832366E-03
    70 -1.395207659E-03
    71 -1.379705155E-03
    72 -6.570655668E-03
    73 -1.139767805E-03
    74 -5.039961214E-03
    75 -3.185207584E-03
    76 -4.719267509E-02
    77 -8.570759361E-03
    78 -8.258644287E-03
    79  1.894025184E-02
    80  4.614056490E-04
    81  7.298042584E-04
    82  3.215315464E-03
    83  5.574741506E-04
    84  1.581546241E-03
    85 -3.119599792E-01
    86 -1.921492292E-01
    87  8.691473119E-01
    88  1.643895614E-01
    89 -1.683834882E-04
    90 -2.271104447E-04
    91 -3.061186297E-03
    92 -8.477752320E-05
    93  1.365352127E-04
    94 -8.928216726E-04
    95 -4.388831886E-03
    96 -7.137207326E-03
    97  6.951478407E-04
    98  1.140876731E-02
    99 -3.753695802E-02
   100  5.951202751E-02
   101 -7.576344805E-03
   102 -3.263073234E-04
   103  7.714362423E-05
   104 -2.481248872E-03
   105  4.123333027E-04
   106  2.982536809E-03
   107  7.118039972E-01
   108 -2.020525874E+00
   109 -1.234699974E+00
   110 -7.698973203E-01
   111 -4.744603933E-03
   112 -7.603739101E-03
   113  1.582859896E-02
   114 -8.163128844E-03
   115 -2.055600279E-02
   116  2.091683441E-02
   117  2.018240035E-02
   118 -9.461576446E-03
   119 -2.518986472E-02
   120  9.281675175E-02
   121  9.630262900E-03
   122 -5.991033051E-02
   123 -1.593564476E-01
   124 -5.978892100E-04
   125  3.908882495E-03
   126  4.857807788E-04
   127 -8.293875939E-04
   128 -9.279452706E-05
   129  1.068130915E+01
   130 -4.577331213E-01
   131 -2.631516628E+00
   132 -9.494773749E-01
   133  1.069865291E-02
   134  1.713445799E-02
   135  7.729562180E-03
   136  5.370700199E-03
   137  1.568304677E-03
   138 -4.492982482E-02
   139  1.528923808E-02
   140  6.174404340E-03
   141 -1.324110210E-03
   142 -2.662934448E-01
   143 -5.292040369E-02
   144 -3.966806917E-02
   145  3.277011779E-02
   146 -3.397088254E-05
   147 -5.039095810E-04
   148 -4.231392698E-05
   149  2.994758450E-03
   150 -2.095240779E-04
   151 -9.256305984E+00
   152 -1.022509225E+00
   153 -5.405071419E-02
   154  4.706490955E-01
   155 -1.055022145E-03
   156 -1.503404582E-03
   157 -6.324450230E-04
   158  9.892325727E-03
   159  1.480167065E-02
   160 -1.491064155E-03
   161 -4.359424868E-03
   162  6.044049142E-03
   163  2.404966586E-02
   164  4.080116998E-02
   165  4.328479306E-02
   166  1.802355056E-01
   167  1.158486718E-01
   168 -5.967170647E-04
   169  3.815261636E-03
   170 -2.880837441E-03
   171 -8.032454500E-04
   172  8.317282809E-04
   173  2.740891323E+00
   174  2.229499501E+00
   175  4.970189920E+00
   176  4.854615484E+00
   177  5.901183341E-03
   178  9.435550669E-03
   179 -1.833566716E-02
   180 -4.198636654E-03
   181  2.364304095E-02
   182 -2.536707836E-02
   183 -2.269179436E-02
   184 -3.404753332E-03
   185  2.961709950E-02
   186 -1.241468873E-01
   187 -4.914233738E-02
   188 -1.021450745E-01
   189  1.481681723E-01
   190  1.083122257E-03
   191 -3.849370105E-03
   192  1.303946937E-03
   193  1.185090788E-03
   194 -6.997268327E-04
   195 -1.190751156E+01
   196 -6.698111450E-01
   197 -3.285017724E+00
   198  6.198414718E-01
   199 -8.534168997E-04
   200 -1.327862370E-03
   201  2.327685383E-03
   202 -8.758422507E-03
   203 -3.851920854E-03
   204  2.346389896E-03
   205  2.753099540E-03
   206 -1.018390758E-02
   207 -4.548844615E-03
   208  3.609575646E-02
   209  3.679661642E-02
   210  3.155654678E-02
   211 -9.509774750E-03
   212 -5.574318700E-04
   213  6.557158261E-04
   214  1.323472928E-04
   215  5.206328605E-04
   216  1.645474374E-03
   217  1.331619018E+00
   218  2.178294573E-01
   219 -2.354376472E+00
   220 -1.402132732E-01
   221 -3.240003722E-04
   222 -4.765946652E-04
   223 -2.893072774E-03
   224 -1.235673817E-02
   225  3.076296226E-03
   226  3.104172792E-05
   227 -2.297084257E-03
   228 -1.223436955E-02
   229  5.354846379E-03
   230  2.967187293E-02
   231 -4.551397465E-02
   232 -1.257368162E-01
   233 -2.446079838E-03
   234  5.054059496E-04
   235 -1.849584354E-04
   236  2.806912359E-03
   237 -1.141704772E-04
   238 -6.731843519E-04
   239  2.883917217E+00
   240 -8.530223960E-01
   241 -9.353327783E-01
   242 -6.883481741E-02
   243 -1.596811674E-03
   244 -2.355281184E-03
   245 -1.533049045E-02
   246 -1.194829002E-02
   247  2.089459368E-02
   248  7.789595262E-05
   249 -2.644165957E-02
   250 -1.963664988E-02
   251  2.573548120E-02
   252  1.576993427E-01
   253  1.563144036E-02
   254  2.120612402E-02
   255  1.779572656E-01
   256  1.712487350E-03
   257 -3.806348448E-03
   258  7.093517020E-04
   259  2.492923245E-03
   260 -2.140755110E-03
   261  9.095774804E+00
   262 -5.924243669E-02
   263  4.825635632E-01
   264  2.100615795E+00
   265  2.081281746E-03
   266  3.183872988E-03
   267  1.553911199E-02
   268 -1.497635686E-02
   269 -2.280776921E-02
   270 -3.894295105E-03
   271  2.499714098E-02
   272 -2.588345332E-02
   273 -2.915550643E-02
   274 -1.592218969E-01
   275  3.078062412E-02
   276  5.032718727E-02
   277 -1.788253182E-01
   278 -2.520249411E-03
   279  4.084343457E-03
   280 -5.306503723E-04
   281 -3.509057014E-03
   282 -5.596484562E-04
   283 -1.010101506E+01
   284  4.881855366E-01
   285  8.074349839E-01
   286 -2.071249925E+00
   287 -5.600604726E-04
   288  1.670568818E-02
   289 -3.262209174E-01
   290  4.946743251E-03
   291 -1.923026073E-03
   292  1.999884990E-04
   293 -1.825539691E+00
   294  3.176200344E-03
   295  2.947554712E-02
   296 -3.532488090E-01
   297 -7.190013582E-05
   298 -2.614728769E-03
   299 -4.481579814E-03
   300 -1.983210268E+00
   301  3.147979850E-04
   302 -5.086167455E-03
   303  7.504732974E-02
   304 -7.129314506E-04
   305 -5.122736633E-03
   306  5.198275046E-04
   307  1.231755354E-01
   308  4.708944018E-03
   309  1.558481261E-02
   310 -1.620673560E-02
   311  2.502151480E-03
   312  1.447540879E-05
   313  1.170263595E-03
   314 -1.461621561E-02
   315 -5.116705580E-03
   316 -1.897232681E-02
   317  7.039627087E-02
   318 -2.580759629E-03
   319  6.705013297E-05
   320 -1.147049836E-04
   321  3.565068921E-01
   322 -1.824078622E-03
   323  8.012463095E-03
   324 -6.062144142E-01
   325 -3.373348860E-03
   326 -2.282252579E-03
   327  5.710931988E-03
   328 -3.202363988E+00
   329  7.045395729E-04
   330  1.809147088E-02
   331  4.324403152E-02
   332  6.891492897E-04
   333  4.187109372E-04
   334  7.450770458E-04
   335  1.355104553E+00
   336  1.828232554E-03
   337 -8.482473096E-03
   338  2.439753416E-01
   339 -5.105148584E-03
   340 -4.291760108E-04
   341 -6.443968538E-04
   342  1.469781028E+00
   343 -4.283282500E-03
   344 -2.918208083E-02
   345  2.798556619E-01
   346 -3.440824150E-04
   347 -1.696439501E-03
   348  4.040832923E-03
   349  1.528972380E+00
   350  1.947242867E-03
   351 -1.176589499E-02
   352  6.964542747E-01
   353  3.802281809E-03
   354 -2.823844466E-03
   355 -6.257912686E-03
   356  3.639095648E+00
   357 -8.230096157E-04
   358 -2.373656317E-02
   359 -2.964949758E-02
   360 -1.291927572E-04
   361  5.959463299E-04
   362 -6.530507793E-04
   363 -1.520007906E+00
   364  2.081863207E-04
   365  1.656337244E-03
   366  2.364928378E-02
   367 -4.566203152E-04
   368 -7.901336266E-04
   369 -1.128190755E-04
   370  3.074211665E-01
   371 -4.211045790E-04
   372  5.174900330E-04
   373 -1.074648035E-01
   374 -9.661326632E-04
   375 -3.468926109E-03
   376  8.791851143E-04
   377 -7.251078992E-01
   378  3.312156492E-03
   379  1.636409725E-02
   380  1.655429438E-01
   381 -9.978131580E-04
   382  7.460482675E-04
   383  2.161335739E-03
   384  1.108950973E+00
   385  2.383598403E-04
   386  2.581773255E-03
   387 -6.375675691E-03
   388 -1.676797618E-04
   389 -4.067758292E-03
   390 -9.416950180E-04
   391  2.248505083E-01
   392 -2.823718885E-03
   393 -1.083032271E-02
   394 -2.569445451E-01
   395  6.157141756E-04
   396  1.589840980E-03
   397 -2.047752146E-03
   398 -1.525256751E+00
   399  3.154343548E-03
   400  1.229394782E-02
   401  1.955897758E-01
   402  5.326499102E-03
   403 -1.715656527E-03
   404 -3.493272492E-03
   405  1.584923725E+00
   406  3.065978005E-03
   407  2.044223820E-02
   408 -5.927321456E-02
   409  8.041209179E-04
   410  3.592377069E-05
   411  4.341744485E-03
   412 -1.002800347E+00
   413 -6.635893035E-04
   414  1.350952684E-03
   415 -2.994144285E-01
   416 -9.987718617E-04
   417  4.739589673E-03
   418 -7.489722109E-04
   419 -2.621756985E+00
   420 -4.259997503E-03
   421 -2.086116341E-02
   422 -1.860216403E-01
   423 -5.026071820E-03
   424  3.644675772E-04
   425  4.299851987E-03
   426 -1.671604537E+00
   427 -1.707802796E-04
   428 -8.001941914E-03
   429  3.249514170E-01
   430  3.390256283E-03
   431  4.388863355E-03
   432  6.523033395E-04
   433  2.638431455E+00
   434 -2.317428580E-03
   435 -1.601029412E-02
   436  1.351976575E-01
   437 -1.626067474E-03
   438  9.445722670E-04
   439 -4.715473782E-03
   440  1.514455699E+00
Ene=    5.3314864175E-02
Spin= Alpha
Occup=   0.0000000
     1  3.282483867E-04
     2  4.492440673E-04
     3  2.341597248E-03
     4  5.764123604E-03
     5 -6.220324865E-03
     6  1.137192970E-03
     7  1.056061357E-02
     8  6.813267111E-03
     9 -6.009079691E-03
    10 -3.070017145E-03
    11 -4.907513867E-02
    12  7.570909078E-02
    13 -8.360125301E-02
    14  3.689305899E-03
    15 -2.151999091E-04
    16  2.790397235E-04
    17 -1.274242563E-03
    18 -1.286764861E-03
    19 -1.458311561E+00
    20  3.990272372E-01
    21  3.543668532E+00
    22 -1.544076401E+00
    23 -5.309508340E-03
    24 -8.458504334E-03
    25 -4.247411527E-04
    26  4.977569454E-03
    27  1.889302391E-03
    28  2.087999830E-02
    29 -6.391692267E-05
    30  8.244380647E-03
    31  5.519792073E-03
    32  1.485297491E-01
    33  3.115460589E-02
    34 -2.545371597E-02
    35  1.139931704E-04
    36 -7.562139471E-04
    37  8.837695774E-04
    38 -2.439629462E-03
    39  2.082049100E-03
    40 -1.601004312E-03
    41  5.063542188E+00
    42 -4.868331416E-02
    43 -5.930283830E-01
    44 -5.701023296E-01
    45  1.283098738E-04
    46  1.968271454E-04
    47  4.885918563E-03
    48 -1.827788898E-04
    49  3.190206641E-03
    50 -1.507988378E-04
    51  3.704105813E-03
    52 -9.065053457E-04
    53  2.159544420E-03
    54 -8.010897822E-03
    55  1.100016962E-01
    56 -1.356585881E-03
    57  8.210337557E-02
    58 -7.879222964E-04
    59 -1.314579166E-03
    60  5.866268035E-04
    61 -1.952368092E-03
    62  8.614077211E-04
    63 -9.930158708E-01
    64  1.335774897E+00
    65  7.515973494E-02
    66  1.165196041E+00
    67  1.368362711E-02
    68  2.185312535E-02
    69 -6.448436425E-03
    70  1.451151456E-03
    71 -1.019170642E-02
    72 -5.570695927E-02
    73 -4.977469151E-03
    74  1.558982375E-03
    75 -1.966878945E-02
    76 -3.578415108E-01
    77  9.641487194E-03
    78 -1.456243518E-03
    79  9.195958174E-02
    80  1.686656935E-03
    81 -9.770190228E-04
    82 -2.061794266E-04
    83 -9.415962317E-04
    84  2.168681382E-04
    85 -1.356625766E+01
    86 -1.727775873E-01
    87 -1.211013630E-01
    88  1.747209690E+00
    89 -1.105099522E-03
    90 -1.534916146E-03
    91 -2.223709216E-02
    92  3.384954778E-03
    93  3.900274312E-03
    94 -3.344238798E-03
    95 -2.680721261E-02
    96  4.394932659E-03
    97  1.490697457E-02
    98  4.684149687E-02
    99 -2.656550614E-01
   100  3.522502825E-02
   101 -6.670092413E-02
   102 -1.718762715E-03
   103  3.481839651E-03
   104  7.818204129E-05
   105 -3.291541237E-03
   106  7.149652882E-04
   107  5.153102696E+00
   108 -8.678248871E+00
   109  1.656170565E+00
   110 -1.895637441E+00
   111  3.761735992E-03
   112  6.028967670E-03
   113 -5.494237961E-03
   114 -5.162301725E-04
   115  2.028501899E-02
   116 -1.649874016E-02
   117 -7.665712859E-03
   118 -8.809802852E-04
   119  2.490108740E-02
   120 -7.511389063E-02
   121 -3.738523274E-02
   122  8.114344003E-02
   123  9.137947635E-02
   124  1.596806945E-03
   125 -1.738736016E-03
   126 -5.330532881E-04
   127  1.936380796E-03
   128  7.584492536E-04
   129 -6.409624610E+00
   130  1.404796064E+00
   131  4.099722042E-01
   132  1.752221468E+00
   133 -8.464711390E-03
   134 -1.351310612E-02
   135 -3.483685161E-03
   136 -7.050489378E-03
   137  1.215436398E-03
   138  3.436961102E-02
   139 -5.691311705E-03
   140 -1.104942427E-02
   141  6.429491257E-03
   142  2.177050636E-01
   143  5.124551759E-02
   144  2.260402946E-02
   145 -1.259309594E-02
   146 -3.076379092E-04
   147  1.952107799E-03
   148  2.136391893E-03
   149  2.276369364E-03
   150 -1.731763412E-04
   151  9.607627148E+00
   152  7.430386466E-01
   153  8.236652294E-01
   154 -8.157199240E-01
   155  7.519767477E-04
   156  1.054247698E-03
   157  1.079750955E-03
   158 -8.366543965E-03
   159 -1.114035307E-02
   160  1.868385668E-03
   161  9.915647209E-03
   162 -1.143686735E-02
   163 -1.411910486E-02
   164 -3.693572825E-02
   165 -7.172763613E-02
   166 -9.188960376E-02
   167 -1.188148398E-01
   168  4.041584149E-03
   169 -1.251693816E-03
   170 -2.231187259E-04
   171  1.949392458E-05
   172  1.690078328E-03
   173 -3.008330683E+00
   174 -7.188116042E-01
   175 -3.890890297E+00
   176 -3.069415459E+00
   177  2.622432636E-03
   178  4.175234691E-03
   179 -6.851120823E-04
   180  1.592925595E-03
   181  1.479334291E-02
   182 -1.060245217E-02
   183 -1.712534454E-03
   184  2.225620240E-03
   185  1.816491178E-02
   186 -6.524467433E-02
   187 -4.730723354E-02
   188 -5.563449202E-02
   189  3.867406764E-02
   190  1.624171356E-03
   191 -8.222361023E-04
   192  2.706635214E-04
   193  9.506637372E-04
   194 -1.482484094E-03
   195 -4.851554722E+00
   196  1.475212857E+00
   197 -5.480611634E-01
   198  1.510119985E+00
   199 -6.371061884E-03
   200 -1.022317994E-02
   201  2.341054991E-02
   202 -1.613637591E-03
   203 -2.311120310E-02
   204  2.836507605E-02
   205  2.792692027E-02
   206 -2.102377457E-03
   207 -2.960920893E-02
   208  1.279418651E-01
   209  1.933151824E-01
   210 -3.458489072E-02
   211 -6.473664609E-02
   212 -3.575919319E-03
   213  3.118076526E-03
   214 -1.049199857E-04
   215 -7.371978564E-04
   216 -1.773956108E-04
   217  1.031271715E+01
   218  2.973990476E+00
   219 -1.837409499E-01
   220  6.890614453E-01
   221 -2.209879439E-03
   222 -3.336131333E-03
   223 -6.829630352E-03
   224  1.396581921E-03
   225  3.185624136E-02
   226  2.858038758E-03
   227 -3.755202850E-03
   228  3.909273662E-04
   229  4.813877067E-02
   230  1.826612617E-01
   231 -1.747676438E-01
   232  4.074401655E-02
   233  8.329384840E-02
   234  2.153580718E-03
   235 -5.763819672E-03
   236  3.317570566E-04
   237  2.036084792E-04
   238  2.563015173E-04
   239  1.162193226E+01
   240 -2.376415613E+00
   241  4.866535120E-01
   242  8.837627529E-01
   243  1.337013417E-03
   244  2.019967225E-03
   245  2.159736142E-02
   246 -1.365071780E-03
   247 -7.466401362E-03
   248 -1.907371409E-03
   249  2.986359879E-02
   250  3.662999436E-03
   251 -1.035030376E-02
   252 -1.066201422E-01
   253  9.712977484E-02
   254 -1.129573525E-01
   255 -5.723995139E-02
   256 -3.266104398E-03
   257  2.695036301E-03
   258  1.556080102E-03
   259  2.174235386E-04
   260  4.353426671E-04
   261 -6.371158749E+00
   262  8.658745466E-01
   263 -1.190366954E+00
   264 -8.359743372E-01
   265  7.569351314E-04
   266  1.121631403E-03
   267  1.661277127E-02
   268 -8.151964755E-04
   269 -1.638608783E-03
   270 -3.131877374E-04
   271  2.049212317E-02
   272 -5.143235370E-03
   273 -3.771480112E-03
   274 -7.583829232E-02
   275  1.191130639E-01
   276  7.778936860E-02
   277 -2.283543557E-03
   278 -2.870826407E-03
   279  1.016694086E-03
   280 -1.688771626E-03
   281  6.637887889E-04
   282 -4.857847794E-04
   283 -5.078032964E+00
   284  1.088364109E+00
   285  9.542445045E-01
   286 -3.259687426E-01
   287  5.242565978E-03
   288  2.482470510E-02
   289 -1.563500070E-01
   290  1.845209332E-03
   291  1.623741575E-03
   292 -1.463986148E-03
   293 -7.720893487E-01
   294 -4.157849335E-03
   295 -7.037349593E-03
   296 -1.061730921E-01
   297 -5.612020761E-05
   298 -3.705613149E-03
   299 -4.165149636E-04
   300 -7.552986506E-01
   301  4.056865742E-05
   302 -9.096761793E-04
   303  1.679900730E-02
   304  4.086400647E-03
   305  1.050067083E-05
   306  3.071356123E-03
   307 -1.007959863E-02
   308 -1.881841011E-03
   309 -2.726412604E-02
   310  3.790589213E-01
   311  1.354740403E-04
   312  3.583968908E-03
   313  4.461313424E-03
   314  1.902022818E+00
   315 -7.683602431E-04
   316 -2.253242981E-02
   317  3.742813219E-01
   318 -3.194646508E-04
   319 -3.856355273E-03
   320  4.034965203E-03
   321  1.928221837E+00
   322  1.195016625E-03
   323 -4.959648789E-03
   324  4.257960398E-01
   325  5.231288115E-03
   326 -8.988129201E-04
   327 -2.204168141E-03
   328  2.423992495E+00
   329 -5.939097964E-04
   330 -1.461839516E-02
   331 -4.108559606E-02
   332  2.891525259E-04
   333 -9.264018698E-04
   334 -6.730192004E-05
   335 -9.081791443E-01
   336  4.894803919E-03
   337  3.014732603E-02
   338 -2.791384837E-01
   339  2.428941087E-03
   340 -1.986269731E-03
   341 -1.440907303E-03
   342 -1.175396066E+00
   343 -3.342718527E-03
   344  3.460509557E-03
   345 -2.386800059E-01
   346  1.218752751E-03
   347  4.339382507E-03
   348 -1.278392488E-03
   349 -1.180916800E+00
   350  9.030252767E-04
   351 -4.745265069E-03
   352  2.851836007E-01
   353  4.535543825E-03
   354  6.993182484E-05
   355 -6.706285687E-04
   356  1.558840115E+00
   357 -4.496335014E-04
   358 -9.775927231E-03
   359 -7.672487034E-03
   360  7.226387221E-04
   361  6.076076718E-04
   362  2.096339220E-04
   363 -5.936618127E-01
   364  1.082696820E-03
   365  2.369877258E-02
   366  7.573029255E-02
   367 -8.571544580E-04
   368  2.366031210E-04
   369 -8.865880403E-05
   370  1.577268111E+00
   371 -2.079298725E-03
   372  9.060530063E-03
   373 -7.125606336E-01
   374 -2.877640010E-03
   375  5.075855032E-04
   376  7.952288245E-03
   377 -4.049684422E+00
   378  1.078324207E-03
   379  1.315454326E-02
   380 -2.828091562E-01
   381 -4.217526691E-03
   382 -3.586629533E-03
   383 -5.529934903E-04
   384 -2.355586349E+00
   385  4.262622182E-03
   386  2.130674663E-02
   387  1.916062017E-01
   388  3.537703054E-03
   389  2.464996965E-04
   390 -5.903574569E-03
   391  1.796605918E+00
   392  1.700567793E-03
   393  1.545062018E-02
   394 -2.262486607E-01
   395 -3.022143542E-03
   396  4.336838425E-03
   397  4.910797800E-04
   398 -2.012059821E+00
   399 -2.710242059E-03
   400 -1.345392713E-02
   401 -1.303029086E-01
   402 -5.253151391E-04
   403 -2.264487725E-03
   404  4.967379438E-03
   405 -1.152965969E+00
   406  1.746118276E-03
   407  3.689767676E-03
   408  3.165508970E-01
   409 -3.751765680E-03
   410  3.256755207E-04
   411 -1.980516732E-03
   412  2.409840537E+00
   413 -3.301840830E-03
   414 -2.060910731E-02
   415  1.903262792E-03
   416  2.116776972E-03
   417 -2.165263843E-03
   418 -2.259832591E-03
   419  3.243368440E-01
   420 -1.704932354E-03
   421 -9.939814017E-03
   422 -6.267282174E-02
   423  1.489591399E-03
   424  1.812249130E-03
   425  4.056035600E-03
   426 -6.313323530E-01
   427 -3.430090526E-03
   428 -1.883304454E-02
   429 -8.844269649E-02
   430  1.938248543E-03
   431  4.248477548E-04
   432 -2.313727214E-03
   433 -3.525583162E-01
   434  2.404952679E-03
   435  7.428047015E-03
   436  2.820200551E-01
   437 -3.128764994E-03
   438  7.646015112E-04
   439 -7.556839855E-04
   440  2.004401936E+00
Ene=    5.4252359211E-02
Spin= Alpha
Occup=   0.0000000
     1  2.407367013E-03
     2  4.098631577E-03
     3  2.053827658E-03
     4 -1.033649395E-02
     5 -2.948327539E-03
     6 -1.753979021E-02
     7 -2.185129547E-03
     8 -1.471265781E-02
     9 -8.684415297E-03
    10  8.747581313E-03
    11  1.109941380E-01
    12 -6.670349580E-02
    13  4.650918218E-02
    14 -1.596076165E-03
    15 -3.728342895E-03
    16 -2.990419115E-03
    17  2.382308981E-03
    18  2.760115626E-03
    19  6.790192297E+00
    20  2.312297325E+00
    21  1.073422460E-01
    22 -2.323868059E-02
    23  8.687041258E-04
    24  1.455518777E-03
    25 -1.768490158E-02
    26 -1.240395743E-02
    27 -2.259922320E-02
    28 -7.506650379E-03
    29 -2.363525621E-02
    30 -1.696048296E-02
    31 -3.140776921E-02
    32  8.321429712E-02
    33 -1.607122784E-01
    34 -1.197925016E-01
    35 -1.134789501E-01
    36 -4.225810706E-04
    37  2.909963411E-03
    38  4.018981231E-03
    39 -5.743350077E-03
    40  1.552769149E-03
    41 -1.969325036E-02
    42 -1.980871846E+00
    43 -1.106381280E+00
    44 -1.202511280E+00
    45 -2.346158411E-04
    46 -3.682280994E-04
    47 -1.174184036E-03
    48  3.566701534E-04
    49 -3.541549277E-04
    50  6.246934297E-04
    51 -9.148442261E-03
    52  4.610796931E-03
    53 -6.314478457E-03
    54  1.305197152E-02
    55  1.207916602E-01
    56 -6.585731717E-02
    57  9.093328157E-02
    58  6.849670315E-03
    59  5.090219840E-03
    60 -1.770785430E-03
    61  3.007290551E-03
    62  6.199186507E-04
    63  1.169299532E+00
    64  1.540745090E+00
    65 -5.982373276E-01
    66  9.498703099E-01
    67 -1.215430252E-03
    68 -2.052519284E-03
    69 -4.239550961E-03
    70  8.251191440E-03
    71  1.211489977E-02
    72  1.077835997E-02
    73 -7.084945890E-03
    74  1.141432512E-02
    75  1.750526475E-02
    76 -1.168685047E-01
    77  7.294197176E-02
    78  5.037931628E-02
    79  3.999418074E-02
    80  7.357955418E-04
    81 -6.226300772E-03
    82 -8.942673982E-04
    83  2.208404151E-03
    84 -7.939630820E-04
    85 -9.630153591E-01
    86  7.886694365E-01
    87  4.920042727E-01
    88  1.211094586E-01
    89 -3.502142917E-03
    90 -5.983539455E-03
    91  8.223111739E-03
    92 -9.929605720E-04
    93  1.308773582E-02
    94  2.647258393E-02
    95  7.918077876E-03
    96  1.063175139E-03
    97  1.823158767E-02
    98 -2.416343920E-02
    99  1.016479903E-01
   100 -4.596155910E-02
   101  1.087531405E-01
   102  1.479457631E-03
   103  4.494576658E-03
   104  2.410334219E-04
   105 -3.237588758E-03
   106 -2.062799835E-04
   107 -1.124779523E+01
   108 -6.206428359E-01
   109  4.910033841E-02
   110  2.265733847E+00
   111 -2.820286321E-03
   112 -4.573943387E-03
   113  2.091410615E-03
   114  2.153152015E-03
   115  3.698059809E-05
   116  1.450181493E-02
   117  3.193712679E-03
   118  3.254801252E-03
   119 -1.248834891E-03
   120  9.292201587E-04
   121  8.023593855E-02
   122 -7.963988583E-02
   123  4.422908323E-02
   124  1.359944637E-03
   125  7.313912139E-04
   126 -1.253720495E-03
   127 -1.453205576E-03
   128  3.683243710E-04
   129  1.643032635E+00
   130  3.149956927E+00
   131 -3.348937575E+00
   132  2.505212635E+00
   133  6.498570618E-04
   134  1.061487229E-03
   135 -2.036364878E-02
   136  2.462643696E-02
   137 -2.136242862E-02
   138 -4.181366919E-03
   139 -2.742899139E-02
   140  3.363656545E-02
   141 -2.954448027E-02
   142  3.114533470E-02
   143 -1.665771974E-01
   144  1.950544099E-01
   145 -1.352169170E-01
   146  6.786633840E-04
   147 -2.776246234E-04
   148 -4.234951132E-03
   149 -7.034134490E-03
   150  1.881531853E-03
   151 -6.367669180E-01
   152 -2.049211319E+00
   153  2.070196962E+00
   154 -1.268851919E+00
   155  1.106534073E-03
   156  1.897479489E-03
   157  5.721185652E-04
   158  6.372129167E-03
   159 -2.069177704E-03
   160 -8.492612336E-03
   161 -4.629623829E-03
   162  1.327433045E-02
   163 -7.345544796E-03
   164  7.095634380E-03
   165  1.002719143E-01
   166 -3.175973735E-02
   167  5.798164163E-02
   168 -3.258182743E-03
   169 -2.489003777E-03
   170  3.744655161E-03
   171  1.016482423E-03
   172 -3.375323776E-03
   173  2.945325440E+00
   174  1.410085446E+00
   175 -1.065044956E+00
   176  4.105296426E-01
   177 -5.919530018E-03
   178 -9.611761817E-03
   179  2.649640729E-03
   180 -6.079637227E-03
   181 -1.964685722E-04
   182  3.132362878E-02
   183  4.844783448E-03
   184 -8.745741614E-03
   185 -2.855974600E-03
   186 -1.596251778E-02
   187  9.099029717E-02
   188  3.963159094E-02
   189  2.224277166E-02
   190  1.060909366E-03
   191  1.664514610E-03
   192  6.012750486E-04
   193 -9.019633894E-04
   194  9.316237697E-04
   195  6.733271558E+00
   196  2.874490070E+00
   197  2.045699753E+00
   198  2.659887969E+00
   199  8.545421889E-03
   200  1.389790229E-02
   201  4.386019780E-03
   202 -1.185684096E-03
   203  8.225573148E-03
   204 -4.559596768E-02
   205  4.116298483E-03
   206 -1.384703417E-03
   207  1.438487696E-02
   208  1.858984297E-02
   209 -5.725199359E-02
   210 -1.656887712E-02
   211  3.747532286E-02
   212  1.917082684E-03
   213 -5.990282881E-04
   214 -6.137651546E-04
   215  1.073162304E-03
   216 -1.063497941E-04
   217 -6.531312212E+00
   218 -2.042675017E-01
   219 -8.185204429E-01
   220 -5.402683994E-01
   221  2.643421125E-03
   222  4.243263555E-03
   223 -9.954620279E-03
   224 -1.749294409E-03
   225  3.375458533E-02
   226 -1.438936164E-02
   227 -1.860846608E-02
   228 -3.481932154E-03
   229  5.060287504E-02
   230 -1.825149666E-02
   231  2.924884013E-02
   232  1.465906963E-02
   233  9.625786993E-02
   234 -1.827729998E-03
   235 -2.488420095E-03
   236 -3.359485921E-05
   237  5.287270858E-03
   238 -1.572461127E-03
   239 -4.900739320E+00
   240  1.131103516E+00
   241 -3.769743699E-01
   242  1.865318940E+00
   243 -7.758336280E-04
   244 -1.234281936E-03
   245  1.177181940E-02
   246 -1.443229044E-03
   247 -4.393283664E-03
   248  4.146293345E-03
   249  2.070874908E-02
   250 -5.830713637E-03
   251 -5.439459489E-03
   252  6.015799106E-03
   253 -4.121742650E-02
   254  7.980287692E-02
   255 -5.076782111E-02
   256 -8.343814382E-05
   257  5.655860502E-04
   258 -2.390231745E-03
   259 -4.582129724E-04
   260  5.426732847E-04
   261  1.815451800E+00
   262  7.737009051E-01
   263  3.399804970E-01
   264  2.116926926E-01
   265 -1.638670413E-03
   266 -2.613168537E-03
   267  1.911937468E-02
   268 -7.320433254E-03
   269 -1.393044615E-02
   270  8.441997281E-03
   271  3.165169015E-02
   272 -7.994434385E-03
   273 -2.093361859E-02
   274  1.627135739E-02
   275 -2.185590793E-02
   276 -7.928313226E-02
   277 -5.667710859E-02
   278 -7.587050365E-04
   279  2.250832959E-03
   280  3.601727802E-03
   281  2.366334620E-04
   282 -7.504552271E-04
   283  3.234902417E+00
   284  9.229357129E-01
   285 -1.193266806E+00
   286 -1.832076867E-02
   287 -1.127583822E-03
   288 -1.847131003E-02
   289 -2.530486042E-01
   290  4.443072477E-03
   291  1.147602173E-03
   292 -3.203268951E-03
   293 -2.389707663E+00
   294  4.585401600E-03
   295  1.664617592E-02
   296  4.072448287E-01
   297  1.041381895E-03
   298  6.266416199E-03
   299  2.436281555E-03
   300  3.447548661E+00
   301 -4.967517050E-05
   302  6.519437746E-04
   303 -2.412841113E-02
   304  8.363610866E-04
   305 -3.712235322E-04
   306  4.194780074E-04
   307 -4.641578657E-02
   308 -3.301672417E-03
   309 -4.816901988E-03
   310 -2.067137814E-01
   311 -4.977232453E-03
   312 -1.523087884E-03
   313 -1.552167154E-03
   314 -1.494331324E+00
   315 -1.793065269E-03
   316  4.939759205E-03
   317 -2.011205275E-02
   318 -4.755760833E-03
   319  1.439434962E-03
   320  7.463353270E-04
   321  7.406706914E-02
   322 -2.604078962E-04
   323 -1.737840198E-03
   324 -7.686129547E-02
   325 -2.671618319E-04
   326 -9.915360535E-04
   327  1.007908997E-03
   328 -5.569643080E-01
   329  7.350673434E-04
   330  1.606649577E-02
   331 -1.496929274E-01
   332 -2.214278729E-03
   333 -2.785303178E-04
   334 -1.265343624E-03
   335 -5.433649162E-01
   336 -2.803807214E-03
   337 -2.341830915E-02
   338 -3.640818933E-01
   339  5.867305214E-03
   340 -1.470066583E-03
   341 -2.040245828E-03
   342 -3.445780076E+00
   343  4.404690753E-03
   344  2.111423551E-02
   345  4.822142638E-01
   346 -1.444486542E-03
   347 -5.882034468E-03
   348  3.777837380E-03
   349  3.939362333E+00
   350 -7.755008678E-04
   351 -7.943078788E-04
   352 -2.125993110E-01
   353 -8.432775210E-04
   354  1.350769458E-03
   355  1.759372212E-03
   356 -1.037518825E+00
   357  1.416806332E-03
   358  3.710124209E-02
   359 -3.667610637E-01
   360 -2.335554803E-03
   361  3.250489177E-03
   362 -1.481310400E-03
   363 -1.147491874E+00
   364 -2.250039605E-03
   365 -5.283514295E-02
   366  4.668541006E-01
   367 -4.231428582E-03
   368  1.264440373E-03
   369 -3.676495528E-03
   370  1.476051044E+00
   371  1.059695128E-03
   372  5.073013722E-03
   373  2.868480299E-01
   374  5.754586805E-04
   375 -1.084350531E-04
   376 -3.325066029E-03
   377  1.685992700E+00
   378 -1.629827719E-03
   379 -2.549258903E-02
   380  1.998595439E-01
   381 -3.489064036E-04
   382 -2.683117455E-03
   383 -8.870152018E-04
   384 -1.044007136E+00
   385 -2.504538600E-03
   386 -3.579384995E-02
   387  6.080164583E-01
   388  8.434033773E-03
   389 -6.051456088E-04
   390 -5.017093784E-03
   391  3.353580327E+00
   392  1.094460557E-03
   393 -1.218538748E-02
   394  2.373927785E-01
   395 -2.246813722E-04
   396  3.764794131E-03
   397 -4.316110807E-04
   398 -1.335836281E+00
   399  1.012449499E-03
   400  1.373791699E-02
   401 -1.943220742E-01
   402 -2.691112306E-03
   403  2.889325521E-03
   404  1.448141793E-03
   405 -1.056440166E+00
   406 -6.171764023E-03
   407 -2.614057901E-02
   408 -1.292526394E-01
   409 -1.792864501E-03
   410  5.016822161E-04
   411 -3.217766877E-03
   412  1.123776660E+00
   413  6.020239499E-03
   414  3.837315464E-02
   415 -3.627566771E-02
   416 -1.060077788E-03
   417  1.586588804E-03
   418  1.485854205E-03
   419 -3.395747601E-01
   420  1.983872463E-03
   421  2.483850560E-02
   422 -3.926903082E-01
   423 -4.600850520E-03
   424 -3.015861772E-03
   425  4.463247833E-03
   426 -2.324666400E+00
   427  4.844406315E-03
   428  3.743531898E-02
   429 -1.102437444E-01
   430 -3.070890442E-04
   431 -1.677900442E-04
   432  1.875876559E-03
   433  2.050827195E-01
   434 -4.697045925E-03
   435 -1.385750013E-02
   436 -1.622552434E-01
   437 -2.709254782E-03
   438  1.836696854E-04
   439 -3.277752622E-03
   440  1.429490697E+00
Ene=    5.4311486298E-02
Spin= Alpha
Occup=   0.0000000
     1  2.634760509E-03
     2  4.512826353E-03
     3  7.769051920E-03
     4 -9.640445530E-03
     5  1.314703540E-03
     6 -1.987575072E-02
     7  1.569005335E-02
     8 -9.412819877E-03
     9  2.998696472E-03
    10  1.600886417E-02
    11 -2.349764983E-02
    12 -1.398027121E-01
    13 -2.411213799E-02
    14  5.978597359E-03
    15 -4.722141006E-04
    16 -1.007837008E-03
    17 -1.217287211E-03
    18  3.288729070E-04
    19  7.307934410E+00
    20  5.866295949E-02
    21 -1.092892427E+00
    22 -1.669961721E+00
    23  1.295357292E-03
    24  2.182402455E-03
    25  2.693926860E-02
    26  6.855908538E-03
    27  6.604959296E-03
    28 -1.049350297E-02
    29  3.770183287E-02
    30  9.432324500E-03
    31  8.065563000E-03
    32  8.642790981E-02
    33  1.685834482E-01
    34  2.596490924E-02
    35  1.230673484E-01
    36 -4.855525347E-03
    37  3.637946291E-03
    38 -2.015849740E-03
    39  2.775011731E-03
    40 -3.134370598E-03
    41  4.661729016E-01
    42  1.570962559E+00
    43  3.719066116E-01
    44  1.532602759E+00
    45  3.727225473E-04
    46  5.920245183E-04
    47  9.143084025E-04
    48  1.491631526E-03
    49 -3.744024949E-04
    50 -1.375843653E-03
    51  4.411136533E-03
    52  1.099080741E-02
    53  1.670710615E-03
    54 -1.412632600E-02
    55 -5.285837499E-02
    56 -1.408699595E-01
    57 -3.288052554E-02
    58 -1.393040620E-03
    59 -8.284100289E-04
    60 -6.860502434E-04
    61  2.318538049E-03
    62  8.894683419E-03
    63 -1.590750176E+00
    64 -7.174995614E-01
    65 -1.694788864E+00
    66 -2.387746001E-01
    67  2.401040888E-04
    68  4.306207789E-04
    69  7.505296295E-03
    70  3.888573571E-02
    71 -3.250754603E-04
    72 -2.839959042E-03
    73  1.038183283E-02
    74  5.308723787E-02
    75 -8.283728418E-04
    76  3.097612436E-02
    77  3.168429251E-02
    78  2.976858020E-01
    79  8.746479830E-03
    80 -8.717482017E-04
    81 -2.514916994E-04
    82 -8.447498548E-03
    83 -1.493270089E-03
    84 -1.589229518E-03
    85  1.376225203E+00
    86  2.722710188E-01
    87  3.340482066E+00
    88 -7.196066414E-02
    89  6.780278802E-04
    90  1.171990884E-03
    91 -1.164925373E-03
    92  5.259228966E-03
    93 -2.580683632E-03
    94 -5.438328474E-03
    95  4.851708003E-04
    96  1.562764444E-02
    97 -3.299844475E-03
    98  1.178927002E-02
    99 -4.317844889E-02
   100 -1.093662198E-01
   101 -2.886909833E-02
   102  2.119578152E-04
   103 -2.474886610E-04
   104  4.791986425E-03
   105 -5.587165740E-04
   106 -4.705244824E-03
   107  2.388107260E+00
   108 -4.795281365E-02
   109 -2.240133567E+00
   110 -7.799538296E-01
   111  8.768611015E-03
   112  1.429063765E-02
   113 -7.383871777E-03
   114 -6.307640692E-03
   115  6.127368972E-04
   116 -4.771956265E-02
   117 -1.246616364E-02
   118 -8.799231069E-03
   119  3.698186465E-03
   120  3.132926056E-02
   121 -5.355770302E-03
   122 -6.206975002E-03
   123  7.056062880E-02
   124  5.785446088E-04
   125 -1.689994418E-03
   126 -1.906610691E-04
   127  2.860219400E-04
   128  1.698164967E-03
   129 -7.003614871E+00
   130  1.509699916E+00
   131 -7.711468617E-01
   132  6.482892020E-01
   133 -2.107591659E-03
   134 -3.494193516E-03
   135 -1.668091531E-02
   136  6.340084450E-03
   137  3.466727385E-03
   138  1.515364600E-02
   139 -2.381433631E-02
   140  8.959260891E-03
   141  5.870300384E-03
   142 -1.093485434E-01
   143 -9.165051431E-02
   144  9.231566696E-03
   145 -5.857687217E-02
   146  4.622814845E-03
   147 -4.605828058E-03
   148  4.863489494E-04
   149 -1.433492970E-03
   150 -1.137351519E-03
   151  5.664162311E-01
   152 -6.218588933E-01
   153  3.158765514E-01
   154 -9.100155815E-01
   155 -3.412125163E-03
   156 -5.834900062E-03
   157 -1.146624416E-02
   158 -9.811524067E-03
   159 -1.647310867E-03
   160  2.567096815E-02
   161 -1.649310412E-02
   162 -9.470100758E-03
   163 -1.766947580E-03
   164 -1.871237338E-02
   165 -8.145076943E-02
   166 -1.369175739E-01
   167 -4.412733933E-03
   168 -5.042367137E-03
   169  1.171162305E-03
   170 -1.732312716E-03
   171  7.924356670E-04
   172  1.125193276E-03
   173 -9.857918881E+00
   174 -8.649013350E-01
   175 -7.582226472E-01
   176  1.856559469E+00
   177 -6.626025588E-03
   178 -1.078326235E-02
   179  4.410152398E-03
   180 -5.804442524E-03
   181 -1.838934910E-03
   182  3.535252846E-02
   183  7.834039889E-03
   184 -8.043962510E-03
   185 -4.656487296E-03
   186 -8.070104878E-03
   187 -3.669890504E-02
   188 -1.570497299E-02
   189 -9.448602119E-02
   190 -1.287927013E-03
   191  1.190834076E-03
   192 -1.031455337E-03
   193  9.904123737E-04
   194  9.557987062E-04
   195  3.931899514E+00
   196 -2.935870132E+00
   197 -1.209029774E+00
   198 -1.918518608E+00
   199 -1.753777128E-03
   200 -2.854993699E-03
   201 -1.205022224E-05
   202  6.301212334E-04
   203 -2.268839930E-03
   204  9.409500488E-03
   205  2.331289208E-04
   206  1.042902155E-03
   207 -3.518351892E-03
   208 -6.814450992E-03
   209  2.551522268E-03
   210 -1.187345460E-01
   211 -2.155452216E-02
   212 -6.932215173E-04
   213 -7.728228841E-05
   214 -2.132322958E-03
   215 -9.273602129E-05
   216  8.350628427E-04
   217  2.055289016E+00
   218 -6.976262940E-01
   219 -5.243823274E+00
   220 -7.335600289E-02
   221 -6.254698991E-04
   222 -9.947493313E-04
   223  9.156400279E-04
   224 -5.514019944E-03
   225 -6.858760361E-03
   226  3.039182389E-03
   227  1.445428770E-03
   228 -1.306114358E-02
   229 -1.005871631E-02
   230  7.187627029E-03
   231  1.063404794E-02
   232  1.054404325E-01
   233 -1.909059373E-02
   234  2.316246641E-04
   235  1.935897693E-04
   236 -1.757128019E-03
   237 -1.000096368E-03
   238  1.002738255E-03
   239  9.194393762E-01
   240 -2.846260286E-01
   241 -2.476290833E-01
   242 -3.591211400E-01
   243  2.503712488E-03
   244  3.998079097E-03
   245 -2.289942275E-02
   246 -8.224075371E-03
   247  2.231505719E-02
   248 -1.321530675E-02
   249 -3.357212156E-02
   250 -1.079721911E-02
   251  3.730972857E-02
   252 -2.348301460E-02
   253 -8.377408239E-02
   254 -3.785283591E-02
   255 -4.636839487E-03
   256  3.410922950E-03
   257 -9.861760523E-04
   258  4.454321952E-03
   259 -1.740734737E-03
   260  4.421478508E-04
   261 -4.625188333E+00
   262 -1.439848091E+00
   263 -1.477522204E+00
   264  2.973073814E-02
   265 -1.972533161E-03
   266 -3.127872154E-03
   267  1.328913375E-02
   268 -1.107364832E-02
   269 -1.964726707E-02
   270  9.651149906E-03
   271  1.771429324E-02
   272 -1.561312154E-02
   273 -3.357481906E-02
   274  2.784097084E-02
   275  9.782724058E-02
   276 -3.851402797E-02
   277  2.326774992E-02
   278 -2.636246080E-03
   279  1.899204542E-03
   280  3.041476898E-03
   281  1.976081931E-03
   282 -8.201447523E-04
   283  4.124841857E+00
   284  5.695242417E-01
   285 -1.617345323E+00
   286 -1.764398136E-01
   287  4.551425085E-03
   288  1.652342949E-02
   289  3.884792897E-01
   290 -5.261149619E-03
   291  3.388423403E-03
   292 -2.446995351E-03
   293  3.079065563E+00
   294 -8.015346575E-04
   295 -1.784234383E-02
   296 -1.882649978E-01
   297  1.340298534E-03
   298  3.570943787E-04
   299 -5.002096695E-03
   300 -2.031434993E+00
   301  1.006806263E-04
   302 -1.805064192E-03
   303  3.909857597E-02
   304 -3.679446743E-04
   305 -7.316210938E-04
   306  1.951665653E-04
   307  1.553736000E-01
   308 -3.564423094E-03
   309 -2.271602638E-02
   310 -4.345811841E-01
   311  5.457486843E-04
   312 -3.746176221E-03
   313 -5.423636515E-03
   314 -3.702718657E+00
   315  4.434673211E-03
   316  2.485447282E-02
   317  4.365724895E-01
   318 -6.590544158E-05
   319 -4.903319883E-03
   320  5.187043602E-03
   321  4.010864729E+00
   322  9.646690608E-04
   323  3.351302832E-03
   324  2.986578528E-01
   325  2.971038034E-03
   326  8.553287911E-04
   327 -1.968042057E-03
   328  1.703471736E+00
   329 -2.220551934E-03
   330 -5.273794305E-02
   331  4.761702485E-01
   332  3.042863133E-03
   333  4.861676482E-03
   334  1.252087249E-03
   335  1.511625832E+00
   336 -3.666616728E-03
   337 -4.364996435E-03
   338 -2.818969937E-01
   339  4.288193723E-03
   340  2.041688330E-03
   341  3.939291271E-03
   342 -2.038899065E+00
   343 -1.117948759E-03
   344  1.005771619E-02
   345 -1.881082270E-02
   346 -6.548032246E-04
   347  3.005886344E-03
   348  3.847900203E-03
   349  3.223375362E-01
   350 -8.319253392E-04
   351 -6.342587437E-03
   352 -2.100241899E-01
   353 -2.215203627E-03
   354  1.051970259E-03
   355  1.520968093E-03
   356 -1.431276892E+00
   357  1.853367181E-03
   358  3.983321605E-02
   359 -3.269744369E-01
   360 -2.983370304E-04
   361  4.436403617E-03
   362 -6.974101712E-05
   363 -1.077325033E+00
   364  4.709435674E-04
   365  1.171437884E-02
   366 -9.572504500E-02
   367  1.129887310E-03
   368  1.711090261E-03
   369  7.450457505E-04
   370 -1.473380904E-01
   371 -3.448885122E-04
   372 -2.064892976E-03
   373 -9.211605837E-02
   374 -3.756250554E-04
   375 -8.587363957E-04
   376  7.056607992E-04
   377 -4.723300869E-01
   378 -6.179121351E-03
   379 -2.951507151E-02
   380 -9.251830780E-02
   381  2.686458404E-03
   382  2.185775730E-03
   383 -4.923526888E-04
   384  9.593093837E-01
   385  3.256870877E-04
   386  6.158761181E-03
   387 -1.319719343E-01
   388 -1.113236611E-03
   389  3.238255460E-03
   390  1.092074303E-03
   391 -6.543615872E-01
   392  6.547270003E-03
   393  3.847095535E-02
   394  2.281702991E-03
   395 -2.022920453E-03
   396  1.628160336E-03
   397  8.596135167E-04
   398 -5.260408987E-01
   399 -3.155466021E-03
   400 -3.799459828E-02
   401  5.561962624E-01
   402  2.203632411E-03
   403 -2.881090921E-03
   404 -8.728527593E-03
   405  3.198582158E+00
   406 -2.132919551E-03
   407 -2.833491405E-02
   408  2.088909192E-01
   409  2.187863825E-03
   410 -1.435117052E-03
   411  1.882592353E-04
   412 -8.250356870E-01
   413  1.963366719E-03
   414 -8.084034704E-03
   415  2.353652832E-01
   416 -1.629545872E-03
   417  3.043229453E-03
   418 -1.280382636E-03
   419 -1.280099975E+00
   420  1.923806132E-03
   421  2.712112118E-02
   422 -4.451541551E-01
   423 -1.477743903E-03
   424 -1.751511736E-03
   425  7.184392287E-03
   426 -2.464964199E+00
   427 -4.107192506E-03
   428 -8.005177914E-03
   429 -2.059756379E-01
   430  3.101843567E-03
   431  2.606872482E-03
   432  9.164835135E-04
   433  1.326570653E+00
   434  4.677639103E-03
   435  3.815230943E-02
   436 -1.283669703E-01
   437 -1.596038983E-03
   438 -8.610178608E-04
   439  8.526592022E-04
   440  3.292887336E-01
Ene=    5.6061575917E-02
Spin= Alpha
Occup=   0.0000000
     1  1.321570066E-03
     2  2.132480646E-03
     3 -2.714576258E-03
     4  5.062644765E-03
     5  1.112329604E-03
     6 -6.196052844E-03
     7 -1.085638868E-02
     8  1.105991855E-02
     9  9.448910101E-03
    10 -9.889397182E-02
    11  1.244570758E-01
    12 -2.176421161E-02
    13 -1.597204755E-01
    14  3.297497274E-04
    15  4.169330406E-03
    16  1.055305067E-03
    17  2.363489455E-03
    18  3.553278504E-03
    19 -5.203615059E+00
    20 -3.023255316E-01
    21 -2.044748577E-01
    22 -5.840830420E-01
    23  7.796815020E-03
    24  1.272310911E-02
    25  5.180318154E-03
    26 -4.386111967E-03
    27 -1.869974956E-03
    28 -4.392177356E-02
    29  9.628651980E-03
    30 -7.358381290E-03
    31 -4.259867155E-03
    32  7.953334588E-02
    33  6.438519233E-02
    34  2.370764736E-02
    35 -1.152249310E-01
    36 -4.002372600E-04
    37  1.443708403E-03
    38 -8.362112326E-04
    39  1.641285453E-04
    40  6.884436376E-04
    41 -8.993551262E+00
    42  2.330802838E-01
    43  2.034843145E+00
    44 -1.477924944E+00
    45 -1.222113145E-02
    46 -1.928944255E-02
    47 -1.274009168E-02
    48  1.074295532E-03
    49  1.829765041E-02
    50  4.262984966E-02
    51 -1.103694516E-02
    52  1.421748563E-03
    53  1.542192920E-02
    54  5.051125961E-01
    55 -7.700398688E-02
    56  3.278264785E-03
    57  1.287868303E-01
    58 -2.495023175E-05
    59 -6.965374786E-04
    60  3.512777997E-05
    61  2.291901343E-04
    62  2.328952259E-04
    63  2.352436212E+01
    64 -5.652778417E-01
    65  1.099962717E-01
    66  8.680465601E-01
    67  8.444709490E-03
    68  1.376253671E-02
    69 -1.220011935E-03
    70  1.652414062E-03
    71 -7.515839502E-03
    72 -4.652196960E-02
    73 -7.414680461E-04
    74  3.024994413E-03
    75 -1.373490860E-02
    76  5.949785275E-02
    77  1.060975901E-01
    78 -1.604966624E-02
    79 -8.097546497E-02
    80 -1.520952667E-03
    81  6.701804799E-04
    82 -1.823341289E-04
    83 -6.092035410E-04
    84  1.044172912E-04
    85 -1.052231813E+01
    86  2.392587632E+00
    87 -4.953712400E-01
    88  7.072143135E-01
    89  1.359631180E-03
    90  2.198325037E-03
    91  1.572941767E-03
    92 -2.881128625E-04
    93  5.438951392E-03
    94 -6.430809951E-03
    95 -8.557890564E-04
    96 -4.912902868E-04
    97  1.827144955E-02
    98 -1.061533393E-01
    99  9.514600140E-02
   100 -1.383689256E-03
   101 -1.643919071E-01
   102 -4.105818599E-03
   103 -7.254105812E-04
   104  8.287089467E-04
   105 -4.343732094E-03
   106  1.408885495E-03
   107 -5.913145577E+00
   108 -2.281812417E-01
   109  3.267217898E-02
   110  1.131530615E-01
   111 -4.196450248E-03
   112 -6.988153181E-03
   113 -4.456850359E-03
   114  1.143519983E-02
   115  2.135902247E-02
   116  3.077446954E-02
   117 -2.584339350E-03
   118  1.883368444E-02
   119  2.872512622E-02
   120 -1.879484933E-01
   121 -4.191408081E-02
   122  1.301588513E-01
   123  2.324065287E-01
   124  3.036694963E-03
   125 -2.476902171E-03
   126 -2.970533782E-04
   127  9.478969133E-04
   128 -3.245240709E-03
   129  9.064193410E+00
   130 -1.637726268E+00
   131  9.608714767E-02
   132  1.932591700E+00
   133  8.352605315E-03
   134  1.360481142E-02
   135  5.652335445E-03
   136  3.684198566E-03
   137 -1.449438811E-03
   138 -4.589222807E-02
   139  1.080336456E-02
   140  5.759485224E-03
   141 -4.376854494E-03
   142  6.613264312E-02
   143  5.059291780E-02
   144 -2.732741572E-02
   145 -1.086395722E-01
   146 -9.816384167E-05
   147  1.265478514E-03
   148  3.078572548E-04
   149 -4.007790505E-04
   150 -7.653685510E-04
   151 -9.481286051E+00
   152 -5.146718043E-01
   153 -1.678576394E+00
   154 -1.495318672E+00
   155  1.006962048E-03
   156  1.659425466E-03
   157 -4.887490239E-03
   158 -3.678654198E-03
   159  1.450377038E-03
   160 -6.273491282E-03
   161 -1.526713061E-02
   162 -7.364831858E-03
   163  1.001679509E-02
   164 -6.667264150E-02
   165  1.235738355E-01
   166 -1.358050615E-03
   167 -1.595931414E-01
   168 -3.847232442E-04
   169  3.397358467E-03
   170 -2.418951535E-03
   171 -6.945333273E-04
   172 -4.438013648E-03
   173 -3.816845471E+00
   174 -3.350532514E-01
   175 -1.092302500E-01
   176 -6.724889850E-01
   177 -4.403672009E-03
   178 -7.321027340E-03
   179 -8.727803667E-03
   180 -1.211114318E-02
   181  2.115385518E-02
   182  3.160326286E-02
   183 -9.581684234E-03
   184 -2.065304273E-02
   185  2.767258420E-02
   186 -1.778151291E-01
   187 -8.374666443E-02
   188 -1.332805443E-01
   189  2.334584681E-01
   190  3.001221243E-03
   191 -2.145290696E-03
   192  1.989564161E-04
   193  2.730878843E-03
   194  2.189411959E-03
   195  8.514870576E+00
   196 -1.479720896E+00
   197  1.437337673E-01
   198  2.035801891E+00
   199 -4.699384505E-03
   200 -7.802823330E-03
   201 -2.309067561E-02
   202  3.253841169E-03
   203  8.575223647E-03
   204  3.291915772E-02
   205 -3.274992103E-02
   206  4.679513297E-03
   207  7.089306748E-03
   208 -1.602222916E-01
   209 -2.615924678E-01
   210  4.624530917E-02
   211  9.539438257E-02
   212 -4.001585353E-04
   213 -4.938661390E-03
   214  8.586981962E-04
   215 -1.275340457E-04
   216  4.158281086E-04
   217  5.356978023E+00
   218 -1.693502182E+00
   219  2.050671225E-01
   220  1.405773538E+00
   221  1.839153013E-03
   222  2.915070307E-03
   223  1.851733402E-03
   224 -3.708704673E-04
   225 -4.050897955E-03
   226 -6.211072568E-03
   227  4.474254081E-03
   228 -4.048608941E-04
   229 -1.519675619E-02
   230 -5.018146995E-02
   231 -3.652795905E-02
   232 -5.612777611E-03
   233  1.724339056E-01
   234  1.684878800E-03
   235 -1.974279989E-03
   236  1.690253391E-05
   237  1.980839258E-03
   238 -5.272176628E-04
   239  5.749483020E-01
   240  5.585532288E-03
   241  1.146388978E-02
   242 -1.352615914E-01
   243  1.623159254E-03
   244  2.518039757E-03
   245  1.510317992E-03
   246 -6.987073473E-04
   247 -1.853658515E-03
   248 -3.763737625E-03
   249  9.046392071E-03
   250  1.263805957E-03
   251 -7.451993697E-03
   252 -7.207806950E-02
   253 -1.404671953E-01
   254 -5.804702065E-02
   255  9.497659502E-02
   256  1.693006386E-03
   257 -2.864422971E-03
   258  1.363867798E-03
   259  7.660327220E-04
   260  5.828966065E-04
   261 -1.095816359E+00
   262 -5.657542576E-02
   263 -2.956391395E-01
   264 -2.034203587E-01
   265  1.867841469E-03
   266  2.950676154E-03
   267  3.156047063E-03
   268 -1.257897353E-03
   269 -3.834067900E-03
   270 -6.146648185E-03
   271  1.062948023E-02
   272 -5.817167834E-03
   273 -1.086732743E-02
   274 -5.791006825E-02
   275 -1.121880202E-01
   276  7.698580848E-02
   277  1.012709758E-01
   278  1.167128664E-03
   279 -2.957604307E-03
   280 -6.382455528E-04
   281  2.749430793E-05
   282 -6.565627445E-04
   283 -3.418846474E-01
   284  1.025935590E-01
   285  1.368351457E-01
   286 -1.720412902E-01
   287 -1.683723417E-04
   288 -2.224603728E-02
   289  3.151232378E-01
   290 -4.111397630E-03
   291  1.972742323E-03
   292 -2.352676481E-03
   293  1.669166958E+00
   294 -6.239070617E-04
   295 -2.097178760E-02
   296  3.019001312E-01
   297  1.602348322E-03
   298  4.000833925E-03
   299  1.167366507E-03
   300  1.461950233E+00
   301  4.764375358E-04
   302  1.927750692E-02
   303 -8.135860218E-01
   304  4.333581729E-03
   305 -6.743684208E-04
   306 -6.419693437E-03
   307 -5.387219591E+00
   308 -3.789143498E-04
   309 -2.296189748E-02
   310  3.580244077E-01
   311  3.023107405E-03
   312  2.954869534E-03
   313  2.372591106E-03
   314  1.558809279E+00
   315 -3.608502783E-04
   316 -2.319147796E-02
   317  3.525816154E-01
   318  1.772798246E-03
   319 -4.312406924E-03
   320  2.399575769E-03
   321  1.536362280E+00
   322  2.741953631E-03
   323  6.302977409E-02
   324 -6.747197470E-02
   325 -6.634943046E-04
   326 -1.884712477E-03
   327 -1.671355612E-03
   328  1.861383730E+00
   329 -7.572087369E-04
   330 -3.675550536E-03
   331 -5.513193724E-01
   332 -4.277017210E-03
   333 -4.363589678E-03
   334 -2.047706880E-04
   335 -3.616491345E+00
   336 -4.595931329E-04
   337 -2.222344117E-02
   338  3.203386186E-01
   339 -4.391699128E-03
   340 -2.160551366E-04
   341 -2.359548788E-03
   342  1.651043486E+00
   343 -7.885963098E-04
   344 -2.214303236E-02
   345  3.275130543E-01
   346  1.694415317E-04
   347 -4.500205858E-03
   348  1.161402996E-03
   349  1.632249023E+00
   350  2.654021669E-03
   351  6.383583316E-02
   352 -4.130165550E-02
   353 -5.453570386E-05
   354  2.143514252E-03
   355 -1.612917773E-03
   356  1.944637045E+00
   357 -5.092422748E-04
   358 -4.401918910E-03
   359 -5.524004448E-01
   360 -2.719837707E-03
   361  5.711347833E-03
   362  3.444603046E-04
   363 -3.731260212E+00
   364 -3.290569886E-04
   365 -5.278786938E-03
   366 -5.093908762E-01
   367  3.455476926E-03
   368 -8.478951137E-04
   369  5.291229879E-03
   370 -3.868887208E+00
   371  2.829492470E-03
   372  6.044769221E-02
   373  1.938384821E-02
   374  2.560361548E-03
   375 -6.070251898E-04
   376  8.679165443E-04
   377  1.835048188E+00
   378 -4.774455811E-03
   379 -2.016932825E-02
   380 -5.527765978E-02
   381 -3.662026379E-05
   382 -1.004753471E-03
   383  3.366233149E-03
   384  3.473985884E-01
   385  1.133168763E-02
   386  5.225727896E-02
   387  2.473782538E-01
   388 -2.679444838E-03
   389  4.453595719E-04
   390 -3.451506842E-06
   391 -6.854899596E-01
   392 -4.576270929E-03
   393 -2.047341962E-02
   394 -5.657488860E-02
   395  1.325159682E-04
   396  6.801056308E-04
   397  3.468340696E-03
   398  3.197845907E-01
   399  1.126460233E-02
   400  4.916210991E-02
   401  2.619983049E-01
   402  5.371117046E-04
   403  1.432092073E-03
   404  1.625972155E-03
   405 -5.115371457E-01
   406 -4.618527249E-03
   407 -2.184423533E-02
   408 -5.994754767E-02
   409 -1.993763928E-03
   410 -2.165870606E-03
   411  2.179251290E-03
   412  3.016027294E-01
   413 -4.746084840E-03
   414 -2.167135856E-02
   415 -5.027877739E-02
   416 -3.314387601E-03
   417 -4.590148583E-04
   418  7.798202923E-04
   419  2.480007956E-01
   420  1.114407291E-02
   421  4.954401200E-02
   422  2.485942165E-01
   423 -2.495500876E-04
   424 -1.857846476E-03
   425  1.928038684E-03
   426 -7.390281921E-01
   427 -4.834128400E-03
   428 -2.211833667E-02
   429 -2.629939873E-02
   430 -2.651482315E-03
   431  1.893144575E-03
   432  1.057982702E-03
   433  4.154821764E-01
   434 -4.543634021E-03
   435 -2.120440467E-02
   436 -4.673174822E-02
   437 -1.550425536E-03
   438  2.439191471E-03
   439  2.183092696E-03
   440  3.573026832E-01
Ene=    7.7062866897E-02
Spin= Alpha
Occup=   0.0000000
     1  1.240929023E-02
     2  1.996962571E-02
     3  7.307712811E-03
     4 -6.761790378E-03
     5  7.578689803E-04
     6 -4.877970239E-02
     7  1.371617122E-02
     8 -1.381996161E-02
     9 -2.193017555E-03
    10 -5.880451725E-01
    11  1.750240663E-02
    12  3.328102641E-03
    13  5.499509797E-02
    14  1.231250422E-03
    15 -1.234979473E-03
    16  1.549692537E-03
    17  1.434510386E-03
    18  4.962193300E-04
    19 -2.920701424E+01
    20 -1.259924744E+00
    21 -6.669532513E+00
    22  7.504024054E+00
    23 -1.519371926E-03
    24 -2.478906118E-03
    25  9.673106432E-03
    26 -1.550183723E-02
    27 -7.287417254E-03
    28  9.605923133E-03
    29  5.888413965E-03
    30 -2.019765804E-02
    31  3.636363151E-04
    32 -1.330904077E-01
    33  9.754217665E-02
    34 -7.749287881E-02
    35 -1.325924935E-01
    36 -1.959754745E-03
    37  4.542964898E-03
    38 -1.464878867E-03
    39  2.502879811E-04
    40  1.467704050E-03
    41  5.833064398E+00
    42  1.382884188E+00
    43 -2.255899926E-01
    44 -2.274328891E+00
    45 -4.968902899E-05
    46 -8.015802161E-05
    47  5.202470385E-05
    48  1.454215181E-03
    49  3.188428231E-04
    50  1.924692226E-04
    51 -1.852813599E-03
    52  8.530103550E-03
    53 -7.406270792E-04
    54 -4.728914125E-03
    55  2.241486322E-02
    56 -4.783437045E-02
    57  5.268248485E-03
    58  2.206009158E-04
    59  9.645754017E-05
    60 -3.454204740E-03
    61 -7.210284453E-04
    62  1.633963438E-03
    63  2.518605853E+00
    64  2.845970348E-01
    65  3.290797872E-01
    66 -4.527891210E-01
    67  5.913120287E-04
    68  9.653273060E-04
    69 -7.223653235E-05
    70 -1.194659282E-02
    71  5.654686852E-03
    72 -3.357044211E-03
    73  2.042169012E-03
    74 -1.487000122E-02
    75  4.613283123E-03
    76  3.871765920E-02
    77 -2.695222700E-02
    78 -1.348974705E-01
    79  5.164347774E-02
    80  9.330338953E-04
    81 -2.044048051E-03
    82 -5.547804816E-03
    83 -4.087789379E-06
    84 -7.844257788E-04
    85 -3.231790788E+00
    86 -5.863455978E-01
    87 -2.024312743E+00
    88  8.587405359E-01
    89 -4.079083915E-03
    90 -6.528227263E-03
    91  4.332353871E-03
    92  1.825524876E-02
    93  3.891562981E-03
    94  1.520907284E-02
    95  5.720164246E-03
    96  2.382273967E-02
    97  7.284440517E-03
    98  2.058020866E-01
    99  5.795336578E-02
   100  2.427018732E-01
   101  2.169368243E-02
   102 -3.887802256E-04
   103  9.704490611E-04
   104  1.440831748E-03
   105  6.929387786E-04
   106 -3.072512475E-04
   107  9.515277784E+00
   108  6.089900939E+00
   109  7.140853407E+00
   110  6.794777771E-01
   111  7.127125826E-03
   112  1.145425401E-02
   113 -1.434128119E-02
   114 -1.387709595E-02
   115 -9.868307525E-03
   116 -3.048292159E-02
   117 -2.225714858E-02
   118 -1.850919478E-02
   119 -7.130196910E-03
   120 -2.242945188E-01
   121 -1.146899206E-01
   122  2.773348452E-02
   123 -2.367132605E-01
   124  3.491385084E-03
   125 -2.531832805E-03
   126 -2.436724599E-03
   127 -2.938981552E-03
   128  2.862731714E-05
   129 -6.141270036E+00
   130 -4.531351913E+00
   131  3.517707760E+00
   132 -6.996560744E+00
   133  5.804003132E-04
   134  8.621817573E-04
   135 -5.110210483E-03
   136 -1.363915245E-02
   137  7.818758780E-03
   138 -1.482807979E-03
   139 -3.396717513E-03
   140 -1.831170367E-02
   141  4.161685459E-03
   142  5.222825476E-02
   143 -2.617275267E-02
   144 -1.013289822E-01
   145  1.237379240E-01
   146  2.672871565E-03
   147 -3.890189469E-03
   148 -1.844268684E-03
   149 -2.447228920E-03
   150  1.752676356E-03
   151 -4.562346409E+00
   152 -5.081642885E-02
   153 -1.186533731E+00
   154  1.894458227E+00
   155 -8.241718767E-03
   156 -1.329414530E-02
   157 -1.352317748E-02
   158  5.708014733E-03
   159 -7.114150683E-03
   160  3.295753097E-02
   161 -2.231068174E-02
   162  4.693132083E-03
   163 -7.763608557E-03
   164  3.845088029E-01
   165 -1.136377311E-01
   166  1.222512102E-01
   167 -1.205577499E-01
   168 -1.102142741E-03
   169  1.150667883E-03
   170  1.517721061E-03
   171  1.040818027E-04
   172  5.271103731E-04
   173  2.179106229E+01
   174 -4.145412627E+00
   175  6.134470995E-01
   176 -8.808413609E+00
   177 -1.064932016E-02
   178 -1.696482451E-02
   179  8.817100363E-03
   180 -2.992763832E-02
   181  9.518143888E-03
   182  4.116525865E-02
   183  1.686433222E-02
   184 -4.076440088E-02
   185  3.969728525E-03
   186  3.889578469E-01
   187 -3.052925988E-02
   188 -1.093980975E-01
   189  2.289118970E-01
   190 -3.347926847E-03
   191  2.876218784E-03
   192 -7.003559260E-04
   193 -1.404586145E-03
   194 -1.534606852E-03
   195  1.404859637E+01
   196 -9.460853630E-01
   197 -1.163313833E+00
   198  5.720429227E+00
   199  3.708071927E-03
   200  5.899584550E-03
   201  1.018602536E-02
   202  4.121227905E-03
   203  6.696358887E-03
   204 -1.452274906E-02
   205  1.137566047E-02
   206  3.754186567E-03
   207  1.129691058E-02
   208 -1.246226811E-01
   209  1.288802603E-01
   210  2.413599213E-01
   211 -7.605788695E-03
   212 -2.039874791E-04
   213 -2.564394379E-03
   214 -5.757257292E-03
   215 -7.452760740E-05
   216 -8.235148970E-05
   217 -8.475518671E+00
   218  2.939377593E+00
   219  9.675274346E+00
   220 -1.066306715E+00
   221 -3.538046273E-03
   222 -5.866346888E-03
   223  9.610143321E-03
   224  2.371103148E-02
   225  4.646545436E-03
   226  2.136000228E-02
   227  1.271903737E-02
   228  4.014217429E-02
   229  4.653793833E-03
   230 -7.573970726E-03
   231  7.105994676E-02
   232 -3.253117257E-02
   233  6.568186720E-02
   234 -7.832955290E-04
   235 -5.765401358E-05
   236 -3.442716960E-03
   237  1.399362587E-03
   238 -4.327832635E-03
   239 -6.185305375E+00
   240  1.434197687E+00
   241  1.673779835E+00
   242  3.393261495E-01
   243 -7.180830223E-03
   244 -1.192022225E-02
   245 -1.863624712E-02
   246  2.844765866E-03
   247 -1.545313158E-02
   248  4.238839673E-02
   249 -2.611099478E-02
   250  1.102663350E-02
   251 -2.246167399E-02
   252 -1.570039396E-04
   253 -1.028134929E-01
   254 -1.479217030E-01
   255 -5.223643719E-02
   256  2.923758315E-04
   257 -1.632813556E-03
   258  4.345464047E-03
   259 -5.136384786E-03
   260  2.549466453E-03
   261 -9.391959536E+00
   262 -1.365720570E+00
   263 -3.215255775E-01
   264 -1.774382688E+00
   265  1.050446480E-02
   266  1.736014753E-02
   267  7.586020109E-03
   268 -1.609243416E-02
   269  8.917015213E-03
   270 -6.013669875E-02
   271  9.428649917E-03
   272 -1.494997945E-02
   273  1.325330927E-02
   274 -1.478825552E-02
   275  7.962859247E-02
   276 -2.626475534E-01
   277  3.835682157E-02
   278 -3.411757068E-04
   279  3.146841638E-03
   280  6.844276387E-03
   281  6.206882944E-03
   282  8.279319711E-04
   283  1.321086349E+01
   284  3.124708280E-01
   285 -1.776790760E+00
   286  1.413754327E+00
   287  5.425660580E-03
   288  4.004831767E-02
   289 -2.763933103E-01
   290 -3.630523668E-04
   291 -5.519875012E-04
   292 -4.142444111E-03
   293 -6.525546775E-01
   294  1.684101712E-03
   295  3.782581439E-02
   296 -2.883652759E-01
   297  4.351368236E-03
   298  1.178865567E-03
   299 -1.083607197E-03
   300 -2.912049836E-01
   301 -3.511263594E-04
   302  4.276539167E-03
   303 -4.029106969E-02
   304  9.162435507E-04
   305 -6.064387378E-03
   306  6.373847736E-04
   307  1.591505740E-01
   308 -1.030852441E-02
   309 -1.464605494E-02
   310  1.136942224E-01
   311 -6.450158286E-04
   312  6.050183151E-04
   313 -2.305559839E-05
   314  1.737713999E+00
   315  7.864934684E-03
   316 -1.207802982E-02
   317  1.238197149E-01
   318 -1.920955322E-04
   319  2.394528701E-03
   320  1.618944393E-03
   321 -1.481616930E+00
   322  4.114546522E-03
   323 -2.747569429E-03
   324 -1.084094189E-01
   325 -8.990105400E-04
   326  2.459544522E-03
   327 -5.442490015E-03
   328 -2.155980830E+00
   329 -4.725341143E-03
   330  5.806544957E-03
   331  3.230837151E-01
   332 -3.378499783E-03
   333  6.331420232E-03
   334  2.288291983E-03
   335  4.283044165E+00
   336 -9.576883065E-03
   337 -2.466435606E-02
   338  1.380440610E-01
   339  1.707764632E-04
   340 -8.861258232E-05
   341  2.078898759E-03
   342  1.628998848E+00
   343  4.914572341E-03
   344 -2.502218592E-02
   345  1.670181363E-01
   346 -3.604312789E-03
   347  2.382147835E-03
   348  4.532353620E-04
   349 -8.947161738E-01
   350 -6.668187841E-03
   351  9.135755397E-03
   352  7.529208136E-02
   353 -2.122553064E-03
   354  9.509932218E-05
   355  5.081413330E-03
   356  3.396451496E+00
   357  6.910756296E-03
   358 -1.821044979E-03
   359 -5.540057344E-01
   360  3.208453125E-03
   361  5.312641441E-03
   362 -5.729357643E-03
   363 -6.286971554E+00
   364 -2.109334566E-03
   365  8.063219095E-04
   366  2.396030844E-01
   367 -1.707781636E-03
   368  6.639671663E-03
   369  9.274163289E-04
   370  2.125546667E+00
   371  2.419989444E-03
   372 -8.212173870E-03
   373  4.119205678E-02
   374  2.262977771E-03
   375  5.582825828E-03
   376 -1.122139232E-03
   377 -1.116105482E+00
   378 -3.803334677E-03
   379  2.738190482E-03
   380 -3.176104892E-01
   381 -3.674933090E-03
   382 -5.113000737E-03
   383 -4.297473740E-03
   384 -3.968933442E+00
   385  8.118253959E-04
   386  5.584300204E-03
   387 -6.618184652E-02
   388  5.826593404E-04
   389  3.897159303E-04
   390  2.398420477E-03
   391  1.350033263E-01
   392 -3.395281300E-03
   393 -4.191754061E-02
   394  1.244871801E-01
   395  5.141696926E-03
   396 -1.876702242E-03
   397  4.154206693E-03
   398  4.556723381E+00
   399  1.466651641E-03
   400  4.522793723E-03
   401 -1.245825207E-01
   402 -4.000588737E-03
   403 -2.413365292E-03
   404  9.164034950E-04
   405  2.384621176E-01
   406 -7.109283054E-03
   407 -2.320379254E-02
   408 -3.572004870E-01
   409  7.117825422E-03
   410 -3.323460371E-03
   411  2.614208164E-03
   412 -2.828560913E+00
   413 -6.758619990E-03
   414 -5.663456728E-02
   415  1.135723826E-02
   416 -4.873263414E-03
   417 -4.016661263E-03
   418 -4.135516934E-03
   419  4.102831711E+00
   420 -2.468283970E-03
   421 -8.237301836E-03
   422  1.610774309E-01
   423  4.021312276E-03
   424 -5.397258810E-03
   425 -1.966548214E-03
   426 -4.916929120E-01
   427  1.094671670E-02
   428  6.253565474E-02
   429  2.629820144E-01
   430  5.402644494E-03
   431 -2.082685223E-03
   432  6.308408866E-03
   433 -1.690381100E+00
   434  1.072158618E-02
   435  5.429205574E-02
   436  3.108159167E-01
   437 -6.961315811E-03
   438 -5.285142632E-03
   439 -1.703477929E-03
   440 -2.340602337E-01
Ene=    7.7293924186E-02
Spin= Alpha
Occup=   0.0000000
     1  2.531633030E-03
     2  4.102841014E-03
     3 -1.463503076E-02
     4 -8.260496979E-03
     5 -1.046454144E-02
     6 -1.070145708E-02
     7 -1.799825557E-02
     8 -1.194754334E-02
     9 -1.501689348E-02
    10 -1.155677987E-01
    11 -1.931316451E-01
    12 -8.586884368E-02
    13 -1.117377119E-01
    14 -2.907651195E-04
    15 -1.147945414E-04
    16 -8.027190188E-04
    17  1.683972764E-03
    18 -3.977405465E-04
    19 -6.943923484E+00
    20 -5.953185077E+00
    21 -4.206145714E+00
    22 -2.998903420E+00
    23  2.419954605E-04
    24  4.628717501E-04
    25  1.214349301E-02
    26  6.902978442E-04
    27  5.017245867E-03
    28 -2.496864587E-03
    29  1.491142598E-02
    30  3.333995829E-05
    31  7.972347538E-03
    32 -1.452858240E-02
    33  1.156902611E-01
    34  3.088271812E-02
    35  4.259492655E-02
    36  1.826902395E-03
    37  1.197210773E-03
    38  2.847685017E-03
    39 -4.102554951E-03
    40  1.923989402E-03
    41  3.456237448E+00
    42  1.959630665E+00
    43  3.987141903E-01
    44  7.070357646E-01
    45  2.449717254E-04
    46  4.124113568E-04
    47 -1.118046516E-03
    48  6.406254456E-05
    49 -1.428955231E-03
    50 -1.384508134E-03
    51 -4.759657729E-03
    52 -7.725871995E-04
    53 -4.329117740E-03
    54 -3.389353872E-03
    55  2.479781966E-02
    56  2.062795767E-02
    57  2.208774216E-02
    58  3.108367971E-03
    59  4.459235494E-04
    60  8.959337362E-04
    61 -2.324208973E-03
    62  4.567634431E-04
    63 -3.221431798E+00
    64 -9.296174029E-01
    65 -4.520960485E-01
    66  2.373419256E-01
    67  1.254865205E-03
    68  1.992250026E-03
    69  5.505625855E-03
    70  2.513208035E-03
    71  1.883788206E-02
    72 -6.098938384E-03
    73  1.355677926E-02
    74  2.614265579E-03
    75  1.609253112E-02
    76  8.617583945E-02
    77 -3.768171607E-02
    78  3.046221585E-02
    79  1.788547520E-01
    80  3.734081541E-03
    81 -2.679216010E-03
    82  1.664803523E-03
    83  2.149179438E-03
    84 -5.350512238E-04
    85 -2.347817467E+00
    86 -1.059749403E+00
    87  9.558482155E-01
    88  1.319506109E+00
    89 -1.193445939E-02
    90 -1.926388875E-02
    91  3.413668484E-03
    92 -7.815505104E-03
    93  7.113482921E-03
    94  4.835442761E-02
    95  7.126565925E-03
    96 -1.158726364E-02
    97  1.695108900E-02
    98  5.338042909E-01
    99 -2.951317883E-04
   100 -7.276513766E-02
   101 -3.668380114E-02
   102 -1.038819513E-03
   103  2.021674856E-03
   104 -9.552822493E-04
   105  5.525347772E-04
   106 -5.551965227E-04
   107  3.004137426E+01
   108  7.196217045E+00
   109 -4.389467436E+00
   110 -3.013156910E+00
   111 -8.311156027E-03
   112 -1.336857216E-02
   113  1.068126930E-02
   114  2.252609227E-02
   115  7.482191051E-03
   116  3.651676318E-02
   117  1.980852887E-02
   118  2.934841914E-02
   119  5.728225001E-03
   120  2.360136726E-01
   121 -1.147921777E-01
   122  2.227461567E-01
   123  5.844727084E-02
   124 -3.646808715E-04
   125  1.838951891E-03
   126 -1.883675605E-03
   127 -4.036942757E-03
   128  2.223260189E-03
   129  7.057397169E+00
   130 -4.582349920E+00
   131  6.289044541E+00
   132  3.675475699E-01
   133 -7.743554284E-04
   134 -1.092356169E-03
   135  1.728616674E-02
   136  4.270040293E-03
   137 -9.583197590E-05
   138 -4.136841068E-05
   139  1.795288745E-02
   140  5.977712411E-03
   141  6.125041597E-03
   142 -2.806056458E-02
   143  1.698466491E-01
   144 -3.935952835E-03
   145 -3.876586462E-02
   146 -4.301132269E-04
   147  3.049756717E-03
   148 -2.387261956E-03
   149 -4.452725787E-03
   150 -1.599796544E-04
   151  6.053973621E+00
   152  2.064480465E+00
   153 -7.285902638E-01
   154 -1.202152638E+00
   155  9.588578166E-03
   156  1.550829738E-02
   157 -2.716343274E-03
   158  1.295738731E-02
   159 -6.473698215E-03
   160 -3.971050118E-02
   161  2.131554181E-03
   162  2.086435450E-02
   163 -1.007833601E-02
   164 -4.151261341E-01
   165 -1.166981991E-01
   166  9.937751946E-02
   167 -6.105989799E-02
   168  4.129195451E-04
   169 -9.968084067E-04
   170 -4.505864653E-05
   171  1.569278562E-03
   172 -1.028524919E-03
   173 -2.341970235E+01
   174 -2.693954518E+00
   175  6.261566785E+00
   176  2.714169453E+00
   177 -1.825709665E-03
   178 -2.926958162E-03
   179 -3.522864118E-03
   180 -7.882965083E-03
   181 -1.290916684E-03
   182  7.122415516E-03
   183 -1.456458480E-03
   184 -9.495121095E-03
   185 -1.679615900E-03
   186  7.746602932E-02
   187 -2.210838445E-01
   188 -1.252164872E-01
   189 -1.007845804E-01
   190  2.459597954E-03
   191  7.843877621E-04
   192  2.831363138E-03
   193 -4.702760595E-03
   194  1.409273546E-03
   195 -2.379713041E+00
   196 -7.827191075E+00
   197 -4.727283335E+00
   198 -4.637564074E+00
   199  1.038610063E-02
   200  1.669827247E-02
   201  2.515464595E-02
   202 -7.108560985E-03
   203  1.784432349E-02
   204 -4.468870081E-02
   205  2.853736957E-02
   206 -7.996701672E-03
   207  3.155020757E-02
   208 -3.210632822E-01
   209  2.103744569E-01
   210 -1.194133141E-01
   211 -4.640874096E-02
   212  9.607992162E-04
   213 -3.940250269E-03
   214  2.600528072E-03
   215  5.478435323E-04
   216  3.086257679E-05
   217 -8.266961642E+00
   218  4.055988068E+00
   219 -4.223022594E+00
   220 -1.589728494E+00
   221 -1.011554746E-02
   222 -1.674453244E-02
   223  1.435116715E-02
   224 -1.207553891E-02
   225  8.849111450E-03
   226  5.786645625E-02
   227  1.421334199E-02
   228 -1.774949271E-02
   229  8.114019492E-03
   230  2.608386719E-02
   231  1.931721185E-01
   232 -4.335290271E-02
   233  1.611115661E-01
   234 -1.315299738E-03
   235  2.167404280E-03
   236  6.720567884E-04
   237  9.338690227E-03
   238 -1.589780038E-03
   239 -1.099934523E+01
   240  1.702179233E+00
   241 -9.613675288E-01
   242  4.945547490E-01
   243  8.101120158E-03
   244  1.340737865E-02
   245 -2.776677621E-03
   246  2.285556071E-02
   247 -2.340599556E-03
   248 -4.637270015E-02
   249 -1.083873391E-02
   250  3.097462694E-02
   251 -7.383916141E-03
   252 -2.347283398E-02
   253  1.339752618E-01
   254  1.447596635E-01
   255  6.315259668E-02
   256 -2.226084449E-03
   257 -1.287021849E-03
   258 -7.173640057E-03
   259 -6.494678732E-04
   260 -3.794310792E-03
   261  8.336729986E+00
   262 -4.125138450E-01
   263  1.873727521E+00
   264  2.263469108E-01
   265  2.121611352E-03
   266  3.514889721E-03
   267 -1.966424769E-02
   268 -1.303643165E-02
   269 -1.256471899E-02
   270 -1.228662325E-02
   271 -3.371296189E-02
   272 -1.969705926E-02
   273 -2.203362072E-02
   274 -4.431069896E-05
   275  2.807033235E-02
   276 -4.502351241E-02
   277  2.255845075E-02
   278 -9.095822542E-04
   279 -1.071882307E-03
   280  3.897556021E-03
   281 -2.067995277E-03
   282  3.479306247E-03
   283  3.049182584E+00
   284 -1.572507197E+00
   285 -1.185481542E+00
   286 -6.574789718E-01
   287 -8.813373349E-03
   288  5.264558036E-03
   289 -6.962712152E-02
   290 -1.392174498E-03
   291 -1.334531831E-03
   292 -2.125779691E-03
   293  1.382404796E+00
   294  9.857464938E-03
   295  1.426962305E-02
   296 -5.658648794E-02
   297 -7.388981097E-04
   298  3.166187880E-04
   299 -6.677842144E-04
   300 -1.765712483E+00
   301  3.608309198E-04
   302 -2.392117486E-03
   303  3.872805948E-02
   304  4.495667419E-03
   305  8.215794329E-04
   306  3.680177258E-03
   307 -3.110689756E-02
   308 -7.013418532E-04
   309 -2.977495246E-02
   310  1.508311553E-01
   311 -2.886224418E-03
   312 -3.500158138E-03
   313  2.305157427E-03
   314 -2.759714627E-02
   315 -6.556017886E-03
   316 -3.604100671E-02
   317  1.523315902E-01
   318 -1.907844921E-03
   319  2.605994364E-03
   320  2.401260526E-03
   321  1.108894802E+00
   322 -4.829801161E-03
   323  6.412467975E-03
   324  5.150327369E-02
   325 -4.599765764E-03
   326  3.133082627E-03
   327  1.755751573E-03
   328  2.228589587E+00
   329  5.669936330E-03
   330 -3.767185691E-03
   331 -3.652368008E-01
   332 -2.550438484E-03
   333 -1.107612389E-03
   334 -7.656945203E-03
   335 -4.901529557E+00
   336 -3.481380236E-03
   337  2.819890970E-02
   338 -1.816333118E-01
   339 -6.643888435E-04
   340  2.335442331E-03
   341 -4.286284524E-03
   342  4.607391816E-01
   343  9.297231467E-03
   344  3.120572405E-02
   345 -1.604073833E-01
   346  2.000462247E-03
   347 -1.976063960E-03
   348 -1.211327651E-03
   349 -1.454346398E+00
   350 -1.008932222E-03
   351 -1.317408690E-03
   352  8.271119578E-02
   353 -5.129257819E-03
   354 -2.060343992E-03
   355 -2.456857231E-03
   356  7.135111530E-01
   357  1.548137257E-03
   358 -5.457156445E-03
   359 -3.956033435E-02
   360 -4.905634714E-03
   361 -1.517607202E-03
   362 -4.613573236E-03
   363 -1.301025414E+00
   364 -6.926073852E-03
   365  4.472280991E-03
   366  4.453035431E-01
   367 -8.548848821E-03
   368 -9.632207204E-04
   369  1.611247158E-03
   370  6.026330670E+00
   371  6.118095330E-03
   372 -1.002511568E-03
   373 -1.582217822E-01
   374  3.438969003E-03
   375 -2.413280566E-03
   376 -4.058061346E-03
   377 -2.944856559E+00
   378 -9.907892855E-03
   379 -6.606163413E-02
   380 -1.406716056E-01
   381  4.738439376E-03
   382 -7.099730881E-03
   383  1.794679174E-03
   384  2.455410276E+00
   385  2.292368521E-03
   386  5.486111815E-03
   387 -1.713340201E-01
   388  2.128048491E-03
   389 -9.025651249E-04
   390  6.282286826E-03
   391  4.423624847E-01
   392 -1.062673133E-02
   393 -5.048906336E-02
   394 -3.389038919E-01
   395  4.167552290E-03
   396  8.018230375E-03
   397 -3.758958332E-04
   398 -6.272025938E-01
   399 -2.021115381E-03
   400 -4.134421008E-03
   401  1.146227594E-01
   402  3.857464792E-03
   403  3.622092091E-03
   404 -1.059047737E-03
   405 -4.861662747E-01
   406  8.442535768E-03
   407  5.998738369E-02
   408  9.029310623E-02
   409  9.802854275E-04
   410  7.732344711E-03
   411  1.321957990E-03
   412 -3.492292845E+00
   413  8.403679706E-03
   414  2.938968324E-02
   415  3.512963796E-01
   416  3.217084045E-03
   417 -5.853640702E-03
   418  5.563349036E-03
   419  2.184456402E+00
   420 -2.188201576E-04
   421  8.378410847E-05
   422  2.962022671E-02
   423  2.722301502E-04
   424 -1.316018743E-03
   425 -7.544834806E-04
   426  1.631796863E-02
   427  2.307059530E-03
   428 -1.236306258E-02
   429  2.848505518E-01
   430  1.577438601E-03
   431  6.801438046E-03
   432  2.631889751E-03
   433  4.224300449E+00
   434  1.690606191E-03
   435  3.382517783E-02
   436 -1.736819536E-01
   437  3.596306807E-03
   438 -5.588125449E-03
   439  2.377557295E-03
   440 -4.565252518E+00
Ene=    8.4187194726E-02
Spin= Alpha
Occup=   0.0000000
     1  3.756443484E-04
     2  6.418037716E-04
     3  6.143872380E-03
     4 -1.018824351E-02
     5 -1.878848117E-03
     6 -2.497214155E-03
     7  6.139590709E-03
     8 -1.581210994E-02
     9  2.135374733E-03
    10  2.756202858E-02
    11  5.834098389E-02
    12 -6.759604508E-02
    13 -3.604392368E-02
    14  1.387606493E-03
    15  1.207988358E-03
    16 -4.149657427E-03
    17 -7.856288029E-04
    18  3.169696525E-03
    19 -4.313743386E+00
    20  4.223605535E+00
    21 -3.209983226E+00
    22 -4.088846764E+00
    23 -6.720486302E-03
    24 -1.098448951E-02
    25 -1.269729043E-02
    26  1.295058649E-02
    27  9.127054302E-03
    28  3.635914148E-02
    29 -1.537351340E-02
    30  1.312790141E-02
    31  1.320627047E-02
    32  7.807619995E-02
    33 -7.907025194E-02
    34  1.589630898E-01
    35 -1.532583944E-03
    36 -2.897908462E-04
    37 -2.853788854E-03
    38  6.942130877E-04
    39 -1.053548824E-03
    40 -2.806655766E-03
    41  1.212794747E+01
    42  1.005744940E+00
    43  1.336842948E+00
    44 -2.595799806E+00
    45  3.238500980E-03
    46  5.153787927E-03
    47  6.326807336E-03
    48 -7.481280866E-04
    49 -9.212367891E-03
    50 -1.466447533E-02
    51  3.459612596E-03
    52 -4.906950838E-04
    53 -5.228753260E-03
    54 -6.585138701E-02
    55  9.723671339E-02
    56 -1.183049183E-02
    57 -1.348015476E-01
    58  4.508719441E-04
    59 -7.370048676E-04
    60  1.363180286E-04
    61  2.693659319E-04
    62 -1.582828775E-04
    63 -2.893144650E-01
    64  1.094088682E+00
    65 -9.080555636E-02
    66 -1.367969971E+00
    67 -6.877699206E-03
    68 -1.124830585E-02
    69  1.537360786E-03
    70 -1.354785862E-03
    71  2.017491192E-02
    72  3.754081493E-02
    73 -1.507342054E-03
    74 -1.457041329E-03
    75  2.419463083E-02
    76  7.209916765E-02
    77  1.089738846E-01
    78 -2.177914193E-02
    79  1.413898718E-01
    80  3.610245799E-03
    81  3.573312067E-04
    82 -3.968118447E-04
    83  1.781263196E-03
    84 -5.996929354E-04
    85  1.250640064E+01
    86  3.028175048E+00
    87 -3.558396048E-01
    88 -1.240458750E+00
    89  5.334674123E-04
    90  8.883434774E-04
    91 -5.144794708E-03
    92  1.346136310E-03
    93 -1.103367171E-02
    94 -2.983828378E-03
    95 -1.156411259E-02
    96  2.609039804E-03
    97 -1.242377091E-02
    98  1.530508712E-02
    99 -1.953768121E-02
   100  6.473460905E-03
   101 -9.871423375E-02
   102 -4.994629552E-03
   103 -1.059255007E-03
   104  4.880922191E-04
   105  2.084172286E-03
   106 -6.001390410E-04
   107 -4.862222326E+00
   108  6.948144014E-01
   109  3.676599548E-01
   110 -7.069350547E+00
   111  6.357535079E-03
   112  1.034425858E-02
   113 -1.480509172E-02
   114  3.514553146E-03
   115  2.367200225E-02
   116 -3.114383842E-02
   117 -2.291920529E-02
   118  7.297771395E-03
   119  3.940872217E-02
   120 -1.387547944E-01
   121 -2.850038364E-02
   122  1.990342793E-02
   123  6.327015700E-02
   124 -1.342647578E-03
   125 -2.810435052E-04
   126 -6.045974923E-04
   127  5.061131574E-04
   128  1.915537159E-03
   129 -1.023120865E+01
   130  1.930922645E-01
   131  1.766678665E+00
   132  1.968355915E+00
   133 -6.742791547E-03
   134 -1.100598186E-02
   135 -1.581296344E-02
   136 -9.195119690E-03
   137  7.987651626E-03
   138  3.596680658E-02
   139 -1.824603972E-02
   140 -8.908922905E-03
   141  1.227249063E-02
   142  8.438558257E-02
   143 -1.226476381E-01
   144 -1.269022644E-01
   145 -2.166950176E-02
   146 -4.488175251E-04
   147 -2.429515569E-03
   148  3.104903492E-04
   149  1.009110247E-03
   150  3.122200791E-03
   151  1.241506843E+01
   152  6.667044844E-01
   153 -1.344045725E+00
   154 -2.721422575E+00
   155  6.872654705E-04
   156  1.151717992E-03
   157  9.099710958E-03
   158  7.662089107E-03
   159 -1.017044541E-03
   160 -3.812651362E-03
   161  1.089262703E-02
   162  1.253423147E-02
   163  3.589176506E-03
   164  1.521054023E-02
   165  7.695556602E-02
   166  4.803644789E-02
   167 -3.170755649E-02
   168  2.175502873E-03
   169  2.141144117E-03
   170  3.340903238E-03
   171 -2.223676766E-03
   172 -2.386461933E-03
   173 -5.346287028E+00
   174  4.913179819E+00
   175  2.172474479E+00
   176 -4.031047807E+00
   177  6.338515824E-03
   178  1.032538975E-02
   179 -1.566591589E-02
   180 -1.065787568E-03
   181  2.341790621E-02
   182 -3.128705938E-02
   183 -2.468174120E-02
   184 -3.620029115E-03
   185  3.859785352E-02
   186 -1.392687754E-01
   187 -3.991826910E-02
   188 -1.681277575E-02
   189  6.092690058E-02
   190 -1.126857338E-03
   191 -3.024758113E-04
   192  1.009726957E-03
   193 -6.761204992E-04
   194 -1.743242547E-03
   195 -9.002688316E+00
   196 -6.467666264E-01
   197 -1.821044979E+00
   198  1.864503311E+00
   199  6.135443890E-03
   200  1.001356492E-02
   201 -1.819620443E-02
   202  1.686146443E-03
   203  2.083672875E-02
   204 -3.096234474E-02
   205 -3.197401099E-02
   206  3.408775418E-03
   207  3.272087831E-02
   208 -1.233695036E-01
   209 -5.238175730E-02
   210  2.383094008E-03
   211  4.842474839E-02
   212  1.858403025E-03
   213  1.609020153E-03
   214 -3.552385987E-04
   215  2.655440767E-05
   216 -7.472285314E-05
   217 -9.817812817E+00
   218 -2.337194771E+00
   219  4.309272355E-01
   220  4.782127202E-02
   221  1.899918197E-03
   222  3.204178696E-03
   223 -3.479584149E-03
   224  1.805319458E-03
   225 -2.039999684E-02
   226 -1.106291232E-02
   227 -4.514151228E-04
   228  2.061801045E-03
   229 -3.544799986E-02
   230 -4.415303522E-03
   231 -6.785021440E-02
   232  1.526464561E-02
   233 -2.186126743E-02
   234  1.322046331E-03
   235  4.482326214E-03
   236 -6.166124652E-04
   237 -5.748133095E-03
   238  1.672413428E-03
   239  3.201703274E+00
   240 -4.009480008E-01
   241  1.321845371E-01
   242 -1.404721405E+00
   243  2.004118460E-03
   244  3.382482115E-03
   245  1.635457521E-02
   246  1.059889009E-02
   247 -6.185808948E-03
   248 -1.165703368E-02
   249  2.813779048E-02
   250  1.461466914E-02
   251 -1.520297569E-02
   252 -6.053099747E-03
   253  2.272519179E-02
   254  5.486936247E-02
   255  4.367343770E-02
   256 -4.515509675E-03
   257  2.676702227E-03
   258 -5.106247533E-03
   259  8.987989373E-04
   260  5.357664588E-04
   261  2.669745554E+00
   262  1.077625365E+00
   263  7.400897521E-01
   264 -3.638555971E-01
   265  1.745003752E-03
   266  2.942920840E-03
   267  1.226228671E-02
   268 -1.423588048E-02
   269 -7.722835921E-03
   270 -1.001236711E-02
   271  2.203008848E-02
   272 -2.073498349E-02
   273 -1.721451475E-02
   274 -6.743078814E-03
   275  5.876998497E-03
   276 -5.981996429E-02
   277  3.350725033E-02
   278 -3.637641245E-03
   279  4.195507847E-03
   280  4.498898145E-03
   281  8.099030901E-04
   282 -1.512556817E-03
   283  2.512856541E+00
   284  8.235059733E-01
   285 -9.667346295E-01
   286 -4.841279361E-01
   287 -2.470066626E-03
   288  4.940842119E-04
   289 -4.055359619E-01
   290  5.449304748E-03
   291  3.226967890E-03
   292  2.509676912E-03
   293 -1.846983456E+00
   294 -2.325710229E-03
   295  6.739599750E-04
   296 -3.785297891E-01
   297 -4.839730266E-03
   298 -1.418862282E-03
   299 -4.453127278E-03
   300 -1.560531983E+00
   301  2.381580926E-03
   302 -1.068250698E-03
   303  3.568867621E-01
   304 -2.641657364E-03
   305  3.440130176E-04
   306  3.544412218E-03
   307  5.136451308E+00
   308 -2.250458420E-03
   309  1.903798750E-03
   310 -4.100339306E-01
   311  2.483202876E-04
   312 -6.786845010E-03
   313 -5.383754501E-04
   314 -1.840357374E+00
   315 -2.397665247E-03
   316  1.011738064E-03
   317 -3.911723136E-01
   318  2.429753758E-03
   319  6.398382924E-03
   320  5.359288339E-05
   321 -1.697098648E+00
   322 -5.681482825E-03
   323 -5.530614045E-03
   324  2.076824949E-01
   325  3.803468063E-03
   326 -1.312699381E-03
   327 -6.579866564E-03
   328  3.103802569E+00
   329  5.903341747E-03
   330 -3.759881064E-03
   331  2.051592794E-01
   332  1.531826119E-03
   333  3.710892070E-04
   334 -1.335177977E-03
   335 -1.178581575E+00
   336 -2.338924470E-03
   337  3.163113029E-04
   338 -3.951579361E-01
   339  3.953789347E-03
   340 -5.038216960E-03
   341  1.962512605E-03
   342 -1.761248619E+00
   343 -2.403507756E-03
   344  2.405530520E-04
   345 -3.778812246E-01
   346 -3.970400664E-03
   347  3.304700815E-03
   348 -4.292760101E-03
   349 -1.642900382E+00
   350 -5.526872953E-03
   351 -4.245891084E-03
   352  1.973264798E-01
   353  4.075122854E-03
   354  7.414707234E-04
   355 -6.526673999E-03
   356  3.152535410E+00
   357  5.775465697E-03
   358 -2.328082352E-03
   359  1.785355788E-01
   360  1.284182114E-03
   361 -6.966493251E-04
   362 -1.416016971E-03
   363 -1.259081624E+00
   364  6.068876580E-03
   365 -4.168572239E-03
   366  2.196592231E-01
   367  5.898992300E-04
   368 -6.339120035E-05
   369 -1.896575608E-03
   370 -1.039107497E+00
   371 -5.590615556E-03
   372 -3.375812278E-03
   373  1.855938014E-01
   374  5.339042207E-03
   375 -6.606196767E-04
   376 -5.363826773E-03
   377  2.869449236E+00
   378  2.684739970E-03
   379  6.880738432E-03
   380  1.169432047E-01
   381  2.049959204E-03
   382  3.258405284E-03
   383  1.394217722E-03
   384  2.048161404E+00
   385 -2.852195282E-03
   386  2.705026234E-02
   387 -2.788634581E-01
   388 -7.801018419E-03
   389  1.355877545E-03
   390 -2.232075878E-04
   391 -4.591152984E+00
   392  2.932747695E-03
   393  8.028023284E-03
   394  1.243820743E-01
   395  8.904003059E-04
   396 -3.871054053E-03
   397  1.099507925E-03
   398  2.076735783E+00
   399 -2.584836248E-03
   400  2.704395620E-02
   401 -2.636703532E-01
   402  1.129422971E-03
   403  5.244081388E-03
   404  5.705014870E-03
   405 -4.467292467E+00
   406  2.682710078E-03
   407  9.264099289E-03
   408  1.055002519E-01
   409 -3.340635932E-03
   410  8.116722961E-04
   411 -2.126908320E-03
   412  1.990502804E+00
   413  2.625166288E-03
   414  7.605067410E-03
   415  1.168091130E-01
   416  1.057634974E-03
   417 -3.622132668E-03
   418  1.218615973E-03
   419  1.984949789E+00
   420 -2.652522924E-03
   421  2.567496546E-02
   422 -2.670607709E-01
   423 -7.555788416E-04
   424 -5.769711331E-03
   425  5.176846139E-03
   426 -4.485922609E+00
   427  2.470019918E-03
   428  6.847868840E-03
   429  1.133176562E-01
   430  2.121035005E-03
   431  2.867032235E-03
   432  1.457086950E-03
   433  1.936037701E+00
   434  2.807444809E-03
   435  8.045377309E-03
   436  1.164954373E-01
   437 -3.299404407E-03
   438  6.170276213E-04
   439 -2.181831589E-03
   440  2.075579483E+00
Ene=    8.6494719617E-02
Spin= Alpha
Occup=   0.0000000
     1  1.033197355E-02
     2  1.689382119E-02
     3 -1.390302199E-03
     4  5.028054167E-03
     5  3.583364710E-03
     6 -4.941014131E-02
     7  2.178643396E-03
     8  7.105164069E-03
     9  7.030170047E-03
    10 -3.207222970E-01
    11 -7.041635012E-02
    12  6.022323219E-02
    13  2.586051258E-02
    14 -3.259487667E-03
    15 -2.081207598E-03
    16  8.914190786E-04
    17  2.574586761E-03
    18  2.650400927E-03
    19 -1.595827100E+01
    20 -5.250883030E-01
    21  1.813879386E+00
    22  2.019247678E+00
    23  3.629268161E-03
    24  6.032446637E-03
    25 -3.513651531E-03
    26 -1.623378031E-02
    27 -1.536201210E-02
    28 -2.280902845E-02
    29 -6.552371243E-03
    30 -2.951693437E-02
    31 -2.253703853E-02
    32  1.298812966E-02
    33  1.738603542E-02
    34 -7.890099397E-03
    35 -5.560712022E-02
    36 -1.618348193E-03
    37  3.547347535E-03
    38  2.804161255E-03
    39 -8.281356289E-03
    40  3.430170112E-03
    41  3.103024002E+00
    42 -8.449555685E-01
    43 -2.115874356E+00
    44  2.208568303E-01
    45  5.284176052E-04
    46  8.760900398E-04
    47 -1.702467220E-02
    48  8.622422978E-03
    49 -1.343052313E-02
    50 -2.543391860E-03
    51 -2.775107324E-02
    52  1.388796892E-02
    53 -2.218701159E-02
    54 -1.559364231E-02
    55 -8.322728527E-02
    56  3.605964732E-02
    57 -4.905856648E-02
    58  8.772360542E-03
    59  4.683076142E-03
    60 -2.531693687E-03
    61  1.068565059E-03
    62  1.486277240E-03
    63 -4.232282443E+00
    64  1.804298190E+00
    65 -1.445142549E+00
    66  2.555573335E+00
    67 -4.025146693E-03
    68 -6.593269643E-03
    69  1.709899345E-03
    70  3.447763772E-03
    71  1.966644366E-02
    72  2.318367211E-02
    73  1.035020441E-02
    74  2.905623461E-03
    75  3.162755605E-02
    76  3.485614532E-03
    77 -9.933218653E-02
    78  3.215633371E-02
    79  5.817063457E-02
    80  3.709787259E-03
    81 -7.798032851E-03
    82 -1.158528213E-03
    83 -3.958447743E-04
    84 -4.440102369E-04
    85  2.709020932E-01
    86  1.919873336E+00
    87  4.201608126E-01
    88  2.237711610E-01
    89 -1.483428576E-02
    90 -2.418014524E-02
    91 -1.647062500E-03
    92 -1.935290076E-04
    93 -7.334336703E-03
    94  6.797937347E-02
    95  8.611509353E-05
    96 -2.076402397E-03
    97 -9.558756416E-03
    98  4.916897766E-01
    99 -3.623035937E-02
   100  1.581351187E-02
   101 -1.152627428E-01
   102 -8.017420915E-04
   103  2.044239536E-03
   104  1.610979108E-04
   105  2.120911423E-03
   106 -2.004226821E-03
   107  2.569889664E+01
   108  1.912085593E-01
   109  2.509562708E-02
   110 -4.361773205E+00
   111  1.798841429E-03
   112  2.811000021E-03
   113 -9.163790228E-03
   114  8.147863477E-03
   115 -5.247473837E-03
   116 -6.373730006E-03
   117 -1.324474765E-02
   118  6.790237564E-03
   119 -7.482208452E-03
   120 -1.795343442E-02
   121 -1.028721987E-01
   122  1.700254995E-01
   123 -7.848122911E-02
   124  8.282192370E-04
   125 -7.928217591E-04
   126 -3.961726447E-03
   127 -7.113129442E-03
   128  1.536895706E-03
   129 -9.163803008E+00
   130 -5.638956337E-01
   131  3.007261296E+00
   132 -7.072469782E-01
   133  1.568025503E-03
   134  2.678129025E-03
   135 -7.688407893E-03
   136  1.699576849E-02
   137 -1.277082180E-02
   138 -1.198652376E-02
   139 -1.167180818E-02
   140  2.812101701E-02
   141 -1.865268191E-02
   142  2.783235329E-02
   143 -3.182707498E-03
   144  2.346489935E-02
   145 -4.748360187E-02
   146 -2.589839689E-04
   147 -7.647847932E-04
   148 -3.675458187E-03
   149 -9.884083586E-03
   150  1.518829088E-03
   151  4.102120423E+00
   152 -5.430269209E-01
   153  1.994418774E+00
   154 -1.096338531E+00
   155  4.653248460E-03
   156  7.590975848E-03
   157 -7.358732115E-06
   158 -4.107248213E-03
   159  1.878826553E-03
   160 -2.126406511E-02
   161  4.035304533E-03
   162 -8.902878887E-03
   163  5.154432821E-03
   164 -1.619206493E-01
   165 -4.153580077E-02
   166 -7.145258543E-03
   167 -4.836407075E-03
   168 -4.328870173E-03
   169 -2.626267304E-03
   170  1.517529984E-03
   171 -7.087295973E-05
   172 -3.351520522E-03
   173 -8.611202484E+00
   174  1.073342786E+00
   175 -9.784087041E-01
   176  8.489866156E-01
   177  3.896521908E-03
   178  6.128490356E-03
   179 -1.085064254E-02
   180 -5.267559228E-03
   181 -5.308718552E-04
   182 -1.547491188E-02
   183 -1.481311465E-02
   184  3.263208483E-03
   185 -3.730409102E-03
   186 -1.825733440E-02
   187 -1.175067290E-01
   188 -1.837051298E-01
   189 -2.618919501E-02
   190 -1.094329633E-04
   191  2.202682608E-03
   192  4.291606526E-03
   193 -4.950672963E-03
   194  1.850222210E-03
   195 -1.825709488E+01
   196 -9.255980107E-01
   197 -4.788912107E+00
   198  9.721109737E-01
   199 -5.590776856E-03
   200 -8.825294825E-03
   201  5.425671297E-03
   202  2.163985976E-03
   203 -4.384313797E-03
   204  2.323356042E-02
   205 -6.426357826E-03
   206  5.484590409E-03
   207 -1.279654828E-02
   208  1.400672732E-02
   209  1.804137217E-01
   210  5.913196984E-03
   211  6.935032236E-02
   212  1.382514122E-04
   213 -5.391300902E-03
   214 -1.168783022E-03
   215  2.589240139E-03
   216 -1.145979138E-03
   217  2.336182922E+01
   218  5.209649583E+00
   219 -4.668512347E-01
   220  2.187419240E+00
   221 -9.756370677E-03
   222 -1.604811188E-02
   223  1.876524002E-02
   224 -6.374223426E-03
   225 -1.549719821E-02
   226  4.974936168E-02
   227  2.316448422E-02
   228 -6.736145827E-03
   229 -2.126720124E-02
   230  1.273221813E-01
   231  1.522989831E-01
   232 -7.257459783E-02
   233 -5.321762751E-02
   234 -6.414460923E-03
   235  8.015413212E-03
   236  1.672333804E-03
   237  2.138150095E-03
   238 -5.502041682E-04
   239 -6.566092692E+00
   240  2.353855706E+00
   241 -7.279318337E-01
   242 -1.041202559E+00
   243  3.061166276E-03
   244  5.047218439E-03
   245  8.582711639E-03
   246 -9.761261265E-03
   247  1.568906302E-02
   248 -1.615201271E-02
   249  8.100904430E-03
   250 -1.033515747E-02
   251  1.831849580E-02
   252 -3.136289034E-02
   253  1.229904886E-01
   254 -1.060671602E-01
   255  1.471519593E-01
   256 -1.702949846E-03
   257  2.109684155E-04
   258  3.850844107E-03
   259  1.082195649E-02
   260 -1.947337318E-03
   261  2.405646056E+00
   262  8.707184619E-01
   263 -7.330226486E-01
   264  1.638488700E+00
   265  6.507290175E-03
   266  1.066804279E-02
   267  2.898338120E-03
   268  1.716212126E-03
   269  2.276797653E-02
   270 -3.198961746E-02
   271  8.529514814E-04
   272  2.323908026E-03
   273  2.850488415E-02
   274 -1.005679608E-01
   275  9.245385680E-02
   276  2.968420668E-03
   277  1.688645826E-01
   278 -5.733810378E-05
   279 -4.027240272E-03
   280 -9.783773498E-04
   281  9.901942526E-03
   282 -4.096826405E-03
   283  4.287133896E+00
   284  3.023214146E-01
   285 -2.762560566E-01
   286  2.284299656E+00
   287 -8.746409500E-03
   288 -1.667969728E-02
   289 -6.312507257E-02
   290  1.825128573E-03
   291  1.578187288E-03
   292 -4.696301085E-03
   293 -9.366687561E-01
   294  5.935713925E-03
   295  4.310793662E-03
   296  2.676415246E-01
   297  1.937067486E-03
   298  6.645460587E-03
   299  3.265650167E-03
   300  2.751840093E+00
   301  2.794833631E-04
   302 -2.017252154E-03
   303  4.151327626E-02
   304  2.756549729E-03
   305 -1.277194831E-03
   306  2.625807138E-03
   307 -1.838576733E-01
   308 -3.038441414E-05
   309  1.340165003E-02
   310 -2.644767229E-01
   311 -5.866480068E-03
   312 -2.857320698E-03
   313 -2.314450495E-03
   314 -2.181087084E+00
   315  4.528609524E-03
   316  1.781095169E-02
   317 -9.328132503E-02
   318 -5.313991129E-03
   319  3.453763461E-03
   320 -9.592658699E-05
   321 -5.054452802E-01
   322 -2.353776966E-03
   323 -1.884094358E-02
   324  2.426314650E-01
   325 -3.923055503E-03
   326  5.164099822E-03
   327 -3.794619325E-03
   328  1.503021458E+00
   329 -2.264725580E-04
   330 -1.496144678E-02
   331  1.255853071E-01
   332 -1.907854180E-03
   333  3.486498487E-03
   334 -1.961800992E-03
   335 -2.398732081E-01
   336 -1.027536941E-02
   337 -1.358180853E-02
   338 -2.486126138E-01
   339  3.984442689E-03
   340 -1.227635545E-03
   341 -2.996978933E-03
   342 -2.412087318E+00
   343  8.927354035E-03
   344  1.161856665E-02
   345  2.634271401E-01
   346 -1.087283882E-03
   347 -5.328221903E-03
   348  4.111326875E-03
   349  3.120126020E+00
   350 -5.589479754E-03
   351 -4.924263335E-02
   352  6.547012526E-01
   353 -3.075328832E-03
   354 -3.527301467E-03
   355 -3.982968067E-03
   356  4.622301591E+00
   357 -7.865905391E-04
   358 -2.939545874E-02
   359  1.397366979E-01
   360 -1.235706698E-03
   361 -3.017178110E-03
   362 -2.348114562E-03
   363 -1.880706275E+00
   364  9.519026133E-04
   365  3.969384992E-02
   366 -2.159411123E-01
   367  1.473818810E-03
   368  6.050798316E-04
   369  3.893137049E-03
   370  2.033444917E+00
   371  8.987615523E-03
   372  7.316930712E-02
   373 -9.158245839E-01
   374  1.030292736E-03
   375  1.418858473E-03
   376  3.166897639E-03
   377 -6.234284730E+00
   378  3.195764925E-03
   379 -2.402739776E-02
   380  2.466240478E-01
   381  6.321448849E-03
   382 -8.676567672E-04
   383 -2.235677657E-03
   384  2.657345561E+00
   385 -1.131961591E-02
   386 -4.773253930E-02
   387 -2.963318005E-01
   388 -2.855825677E-03
   389 -1.878085159E-03
   390  8.948789339E-03
   391 -3.694966764E+00
   392 -3.908593963E-03
   393 -4.589496654E-02
   394  7.710414127E-02
   395  5.728775454E-03
   396 -1.082860246E-04
   397 -4.307090555E-03
   398  1.263597916E+00
   399  3.344670915E-03
   400  1.546474228E-02
   401  8.400507416E-02
   402  6.896323088E-03
   403 -4.235769107E-03
   404  1.909414330E-03
   405  1.039285098E+00
   406  1.553631114E-02
   407  5.325523032E-02
   408  3.597055674E-01
   409 -5.821719566E-03
   410 -1.747241517E-03
   411  1.817928621E-03
   412  2.884606973E+00
   413 -1.540752536E-02
   414 -3.582732404E-02
   415 -4.165879627E-01
   416  2.473471886E-03
   417  4.921934047E-03
   418  3.554895830E-04
   419 -3.947356504E+00
   420  7.711504671E-03
   421  3.107382607E-02
   422  1.837972816E-01
   423  8.791709857E-03
   424 -1.559348123E-04
   425 -1.337473910E-03
   426  2.728013312E+00
   427 -1.153835776E-02
   428 -1.042004525E-02
   429 -4.110546174E-01
   430 -4.958652774E-04
   431 -5.726508200E-03
   432  2.519588526E-03
   433 -4.050640321E+00
   434  1.226828577E-02
   435  5.860748494E-02
   436  1.779114486E-01
   437 -5.139844698E-03
   438  1.291143439E-03
   439  4.229549279E-03
   440  1.295357117E+00
Ene=    8.6646188804E-02
Spin= Alpha
Occup=   0.0000000
     1 -1.129812781E-02
     2 -1.844373714E-02
     3  4.835312293E-03
     4 -3.430244974E-03
     5 -2.255624980E-04
     6  5.245617853E-02
     7  1.013319943E-02
     8 -1.678710700E-03
     9  5.874186098E-05
    10  3.612179437E-01
    11  2.759452794E-02
    12 -7.574149022E-02
    13 -1.267327280E-02
    14 -3.687226578E-03
    15 -1.856559663E-03
    16 -2.148148252E-03
    17 -7.069709229E-04
    18  1.449716258E-03
    19  1.915558352E+01
    20  3.429999544E+00
    21 -1.277521029E+00
    22  5.454447056E-01
    23 -3.041924846E-03
    24 -5.049847178E-03
    25 -2.142162425E-02
    26  3.895399753E-03
    27 -1.689245179E-03
    28  1.989609332E-02
    29 -3.260773619E-02
    30  1.129049597E-02
    31 -6.229959674E-03
    32 -3.212458280E-02
    33 -7.112682103E-02
    34 -2.629574690E-02
    35  5.436167590E-02
    36  4.419996971E-03
    37 -5.264661336E-03
    38  5.581775912E-03
    39 -2.051570349E-03
    40  3.554069687E-03
    41 -3.777042398E+00
    42 -2.054275517E+00
    43  1.149351180E+00
    44 -1.420475168E+00
    45  1.018096468E-05
    46  1.207077993E-05
    47 -7.926237631E-03
    48 -2.139494547E-02
    49 -4.290262649E-03
    50  2.799332050E-04
    51 -1.180055825E-02
    52 -3.687455773E-02
    53 -6.515003576E-03
    54 -3.227353237E-03
    55 -5.145113121E-02
    56 -6.193860223E-02
    57 -2.315387861E-02
    58  2.631909285E-03
    59  1.157956024E-03
    60  3.227926118E-03
    61 -2.922189349E-03
    62 -8.866504719E-03
    63 -1.585826922E+00
    64  9.411592130E-01
    65  3.224032245E+00
    66  1.046330782E+00
    67 -1.054996242E-03
    68 -1.689879848E-03
    69 -3.024025964E-03
    70 -2.084714579E-02
    71  3.807413085E-03
    72  4.366465472E-03
    73 -3.838434012E-03
    74 -3.447950476E-02
    75  5.950377708E-03
    76  2.424490840E-02
    77 -2.799175941E-02
    78 -3.246766308E-02
    79  3.361467132E-03
    80  1.902219825E-03
    81 -1.375984302E-04
    82  9.381529462E-03
    83  2.234786645E-03
    84  3.752258848E-03
    85  2.672677496E+00
    86  4.075039081E-01
    87 -1.475067304E+00
    88 -8.476499403E-01
    89 -3.616131559E-03
    90 -5.940167749E-03
    91  3.096071430E-04
    92  3.400351938E-03
    93 -1.490176371E-03
    94  1.831693520E-02
    95  1.919214240E-03
    96  1.059587567E-02
    97 -1.274210511E-03
    98  1.050026006E-01
    99 -7.983538152E-03
   100 -2.427436683E-02
   101 -3.994980527E-02
   102 -4.494488372E-04
   103  4.587105870E-04
   104 -3.262852147E-03
   105  2.127445113E-03
   106  5.166301103E-03
   107  6.749738275E+00
   108  3.888198591E-01
   109  2.967453350E-01
   110 -1.995965913E+00
   111  5.175100536E-03
   112  8.112006847E-03
   113  1.101654502E-05
   114 -5.695355543E-04
   115  7.754425345E-03
   116 -2.003932612E-02
   117 -7.023325592E-03
   118 -1.144541700E-02
   119  3.635574610E-03
   120 -2.760318448E-02
   121  1.173367562E-01
   122  9.922124588E-02
   123  1.244954827E-01
   124 -4.209325791E-03
   125  3.884737226E-03
   126 -1.225954198E-03
   127  1.572687645E-03
   128  6.170874115E-04
   129 -2.470330198E+01
   130  3.387196029E+00
   131  3.487804620E+00
   132  3.579479888E+00
   133  4.258473727E-03
   134  7.036582369E-03
   135  2.057197406E-02
   136  4.603771043E-03
   137 -4.381546809E-03
   138 -2.596181970E-02
   139  3.330366937E-02
   140  1.230861523E-02
   141 -2.392206517E-03
   142  1.181583547E-02
   143  6.413057514E-02
   144 -3.688796949E-02
   145 -6.253129997E-02
   146 -4.224976893E-03
   147  7.607030943E-03
   148  2.531258692E-03
   149 -2.872107795E-04
   150  1.889100250E-03
   151  4.493344253E+00
   152  1.512914392E+00
   153  1.407114110E+00
   154  1.379042192E+00
   155  1.471602329E-02
   156  2.401516847E-02
   157 -6.846142008E-03
   158 -3.267965088E-03
   159  1.691809159E-03
   160 -6.901014796E-02
   161 -9.098359660E-03
   162 -1.614244681E-03
   163  1.906515842E-03
   164 -4.663469888E-01
   165 -9.483922166E-02
   166 -7.270736838E-02
   167  3.022035454E-02
   168  1.883737370E-03
   169 -1.228363466E-04
   170 -3.191453093E-03
   171  1.414568711E-03
   172 -9.565886429E-04
   173 -2.206736710E+01
   174 -1.682055287E+00
   175 -1.749128326E+00
   176  1.261289978E+00
   177 -4.452627013E-03
   178 -7.051705396E-03
   179 -4.670321023E-03
   180 -3.106695682E-03
   181 -9.256829425E-03
   182  1.823471993E-02
   183 -3.551296426E-03
   184 -1.449215124E-02
   185 -8.231919394E-03
   186  4.282097491E-02
   187 -1.285221997E-01
   188  7.484427001E-02
   189 -1.288243354E-01
   190  4.426159973E-03
   191 -3.452193775E-03
   192  1.917005212E-03
   193 -3.605600893E-03
   194  3.106948820E-03
   195  1.064667038E+01
   196 -9.141324534E-01
   197  2.137241782E+00
   198 -2.761585924E+00
   199 -1.524409676E-03
   200 -2.492269444E-03
   201 -5.819779818E-04
   202 -1.387213017E-02
   203 -2.556639401E-03
   204  8.980260565E-03
   205 -3.869855874E-03
   206 -1.634215929E-02
   207 -5.197043508E-03
   208 -3.352485099E-02
   209  1.471427225E-02
   210 -2.071874694E-01
   211 -2.811943833E-03
   212  7.577355947E-04
   213  3.921687084E-04
   214  8.194923988E-03
   215  1.500393009E-03
   216  1.737744211E-03
   217  8.308936006E+00
   218  1.095612809E+00
   219 -2.062605018E+00
   220  1.128909375E+00
   221 -2.444866422E-03
   222 -4.006576273E-03
   223  7.956852157E-03
   224  1.874051263E-02
   225 -2.098989737E-03
   226  1.149547232E-02
   227  9.457475088E-03
   228  2.102835044E-02
   229 -2.562099354E-03
   230  4.450638369E-02
   231  6.667400692E-02
   232  2.023527068E-01
   233 -5.127446100E-03
   234 -2.435256485E-03
   235 -3.251374931E-04
   236 -1.137671205E-02
   237 -6.504733039E-04
   238 -2.801018631E-03
   239 -2.413097175E+00
   240  1.136688396E+00
   241  1.715326431E+00
   242  1.035134363E-01
   243  9.341785186E-03
   244  1.531542330E-02
   245 -1.462986671E-02
   246  1.037515781E-02
   247  1.824274720E-02
   248 -4.574501028E-02
   249 -2.141373840E-02
   250  1.265575487E-02
   251  2.432809337E-02
   252 -1.486116585E-01
   253 -4.991068391E-02
   254  1.024633904E-01
   255  1.035124757E-01
   256  3.445127776E-03
   257 -8.591614706E-03
   258 -5.551681151E-03
   259  1.270210867E-03
   260 -8.410761274E-04
   261  6.193845273E+00
   262 -1.035690432E+00
   263  1.634120720E+00
   264  1.980855580E+00
   265 -7.339146471E-03
   266 -1.206664694E-02
   267  1.937213401E-02
   268  8.555821593E-03
   269 -9.596787110E-03
   270  3.723211849E-02
   271  2.311432776E-02
   272  7.799123505E-03
   273 -1.550327899E-02
   274  1.036167015E-01
   275  1.556019599E-01
   276  1.197234720E-01
   277 -1.236053760E-02
   278 -5.223580516E-03
   279  5.471969104E-03
   280 -8.016281996E-03
   281  1.874436979E-03
   282 -2.409997841E-03
   283 -3.883264465E+00
   284  1.755938025E+00
   285  1.133247565E+00
   286 -8.282699373E-01
   287 -5.082570862E-03
   288 -7.664350994E-04
   289 -2.474150607E-01
   290  6.002827567E-03
   291 -3.223535194E-03
   292  2.822066401E-03
   293 -3.455495901E+00
   294  8.717930963E-03
   295  1.729645965E-02
   296  1.527565332E-01
   297 -2.310656227E-03
   298 -2.317356567E-03
   299  4.292492860E-03
   300  1.075718760E+00
   301  5.358739708E-05
   302 -1.457332988E-03
   303  1.023368871E-02
   304  1.395681279E-03
   305  3.521946987E-03
   306  8.812801209E-04
   307 -1.639326760E-01
   308  9.868470053E-03
   309  2.083976446E-02
   310  1.180433954E-01
   311 -2.218904336E-03
   312  2.389378549E-03
   313  4.533414888E-03
   314  2.158823964E+00
   315 -9.469698729E-03
   316 -1.294706364E-02
   317 -3.092183840E-01
   318  6.987053072E-04
   319  4.102979929E-03
   320 -4.270852843E-03
   321 -2.378469513E+00
   322 -8.452054874E-03
   323 -7.024530353E-02
   324  8.653804785E-01
   325  3.991149445E-03
   326  2.400840817E-04
   327  5.428635320E-04
   328  6.066563874E+00
   329 -1.137597224E-03
   330 -4.211007097E-02
   331  2.222716264E-01
   332  3.580011056E-03
   333  1.433975242E-03
   334 -3.936740486E-04
   335 -1.983173117E+00
   336  6.259789789E-04
   337 -4.964508495E-03
   338  2.395627453E-01
   339 -5.265408109E-03
   340 -1.380009435E-03
   341 -4.620910035E-03
   342  2.460115955E+00
   343 -5.085319396E-03
   344 -1.615454675E-02
   345  3.107596670E-02
   346  1.100174490E-03
   347 -5.388360793E-03
   348 -3.341983179E-03
   349  3.274938605E-01
   350  7.067498326E-03
   351  4.863656282E-02
   352 -5.392645856E-01
   353 -5.643306523E-03
   354 -2.154498528E-04
   355 -1.955218270E-03
   356 -4.581394876E+00
   357  1.082005057E-03
   358  2.430848146E-02
   359 -5.194327551E-02
   360 -4.195516936E-03
   361  1.389083602E-03
   362 -1.042632209E-03
   363  1.262252889E+00
   364 -9.825750287E-05
   365  9.794195789E-03
   366 -7.954285299E-02
   367 -2.228530927E-04
   368 -4.349635243E-03
   369  5.564586056E-04
   370  8.475464725E-01
   371  2.007038297E-03
   372  1.886308762E-02
   373 -2.876219685E-01
   374 -1.482581701E-03
   375 -7.771952971E-03
   376  4.693096617E-04
   377 -1.406681924E+00
   378 -1.620897751E-02
   379 -5.837178237E-02
   380 -3.046681009E-01
   381 -7.159294419E-04
   382 -1.457328424E-03
   383 -5.991660045E-03
   384 -3.048425753E+00
   385 -2.261921402E-03
   386 -1.339741786E-02
   387 -4.110579603E-02
   388  8.427691871E-04
   389  8.109866254E-03
   390  2.401765451E-03
   391 -8.690047300E-01
   392  1.566124328E-02
   393  3.676259489E-02
   394  4.398642597E-01
   395  3.097475985E-03
   396 -2.000528745E-03
   397  4.584948437E-03
   398  3.774689841E+00
   399  1.075230266E-02
   400  4.984112191E-02
   401  2.069193166E-01
   402  5.117893066E-03
   403  3.528973408E-03
   404 -7.219259154E-03
   405  3.645948007E+00
   406 -4.171501478E-03
   407  2.278565838E-02
   408 -2.726624754E-01
   409 -1.611059564E-05
   410  3.481095202E-03
   411  6.024807426E-03
   412 -3.081155733E+00
   413  5.117897091E-03
   414  4.589489084E-02
   415 -8.016191192E-02
   416 -3.042354930E-03
   417  8.765542674E-04
   418  6.515741712E-03
   419 -6.619416760E-01
   420 -8.494154877E-03
   421 -3.578328350E-02
   422 -2.066994102E-01
   423 -5.476337848E-04
   424  4.667228648E-03
   425  7.804602827E-03
   426 -2.704991406E+00
   427 -1.140399229E-02
   428 -5.537624982E-02
   429 -1.900572582E-01
   430  3.299881950E-03
   431 -1.643551209E-03
   432 -5.722492082E-03
   433 -1.098322430E+00
   434  1.086659835E-02
   435  3.555195562E-03
   436  4.231625490E-01
   437 -5.301747347E-04
   438  4.474041107E-03
   439 -4.214804056E-03
   440  3.963644658E+00
Ene=    9.0475716028E-02
Spin= Alpha
Occup=   0.0000000
     1  3.361023238E-03
     2  6.134495828E-03
     3  1.671661435E-03
     4  1.125717347E-02
     5 -8.650759926E-03
     6 -3.038018515E-02
     7  2.249722189E-03
     8  1.508415989E-02
     9 -1.355628562E-02
    10 -2.330558021E-02
    11  2.472302886E-02
    12  1.068760702E-01
    13 -8.801645129E-02
    14  4.501560938E-04
    15  3.197358127E-04
    16 -2.644065341E-03
    17 -1.021853763E-03
    18  1.479798365E-03
    19 -2.210667505E+01
    20  2.072868217E+00
    21  5.638212890E+00
    22 -7.059149166E+00
    23  8.806413192E-03
    24  1.557895957E-02
    25  1.101940676E-02
    26 -2.392906927E-02
    27 -6.256739632E-03
    28 -7.733545563E-02
    29  1.710393862E-02
    30 -3.378440033E-02
    31 -9.194253255E-03
    32  2.769147320E-01
    33  9.278216964E-02
    34 -2.107498308E-01
    35 -3.532213123E-02
    36 -1.194979387E-03
    37  7.108431444E-03
    38  5.302574438E-03
    39  5.007888232E-03
    40  4.076060402E-03
    41  3.334056508E+01
    42  2.866506020E+00
    43 -4.519085861E+00
    44 -2.452357674E+00
    45  1.454803294E-02
    46  2.431180061E-02
    47  9.951629388E-03
    48 -1.205739145E-03
    49 -1.288002394E-02
    50 -8.281010554E-02
    51  1.435427762E-02
    52 -2.040335962E-03
    53 -1.942778937E-02
    54 -3.112969351E-01
    55 -3.195111605E-03
    56 -2.654443206E-02
    57  2.149705610E-02
    58  1.707975371E-03
    59 -3.679803751E-03
    60  6.809534797E-04
    61  1.356230244E-03
    62 -6.635949776E-04
    63 -3.758774999E+01
    64 -4.591040435E+00
    65 -4.795890382E-01
    66  5.724141250E+00
    67  8.792240236E-03
    68  1.540031205E-02
    69 -1.104184818E-02
    70  4.386312096E-03
    71 -2.502019155E-02
    72 -7.164256910E-02
    73 -1.499128360E-02
    74  2.982391297E-03
    75 -3.677725258E-02
    76  1.880267341E-01
    77 -9.596030360E-02
    78  8.003509640E-02
    79 -1.660154438E-01
    80 -4.106865052E-03
    81  8.136672997E-04
    82  1.109279450E-03
    83 -1.012121372E-02
    84  3.482591490E-03
    85  2.867872906E+01
    86 -5.890679198E-01
    87  1.508744579E+00
    88 -4.390326152E+00
    89  4.293059186E-03
    90  7.624474090E-03
    91  1.411852466E-02
    92 -2.728212918E-03
    93  1.393080673E-03
    94 -3.471417872E-02
    95  2.260221654E-02
    96 -4.743879838E-03
    97  7.642862057E-04
    98 -8.091176798E-02
    99  9.232458076E-02
   100 -4.545529244E-02
   101  1.451622712E-02
   102 -2.277988180E-03
   103 -9.430140997E-04
   104  3.922021427E-04
   105  1.349576979E-03
   106 -2.382701715E-04
   107 -2.251389310E+01
   108  4.785897899E+00
   109 -2.339700365E+00
   110 -1.960325697E+00
   111  9.064306306E-03
   112  1.563108899E-02
   113 -1.460775869E-02
   114 -1.016687085E-02
   115  5.683470187E-03
   116 -6.713718390E-02
   117 -1.984942917E-02
   118 -1.588896485E-02
   119  7.092188162E-03
   120  1.228996984E-01
   121 -1.166985248E-01
   122 -7.153471116E-02
   123  7.306184034E-02
   124  6.890932944E-03
   125 -2.623156970E-03
   126  7.106794305E-03
   127 -9.420810646E-04
   128 -3.364062208E-03
   129  1.710334759E+01
   130 -2.130374702E+00
   131 -1.779496293E+00
   132  2.211469021E+00
   133  8.593136316E-03
   134  1.501902997E-02
   135  2.170261805E-02
   136  1.442684488E-02
   137 -9.164619117E-04
   138 -6.936716164E-02
   139  3.072674079E-02
   140  2.039011491E-02
   141 -3.245730146E-03
   142  1.630479497E-01
   143  1.354323686E-01
   144  1.206774245E-01
   145  5.532687668E-03
   146 -2.420248014E-03
   147  5.103373961E-03
   148 -6.804500115E-03
   149  1.005949906E-03
   150 -7.125338398E-03
   151  2.589195110E+01
   152  3.962835288E+00
   153  1.100136289E+00
   154 -1.448658732E+00
   155  3.346165102E-03
   156  6.001388881E-03
   157 -2.915812187E-03
   158 -1.013905015E-02
   159 -1.052579382E-02
   160 -2.733764110E-02
   161 -3.913755940E-03
   162 -1.754101150E-02
   163 -1.755116687E-02
   164 -9.797984386E-02
   165 -1.896364211E-02
   166 -5.194666191E-02
   167 -5.314891885E-02
   168  1.553508608E-03
   169  7.744599517E-04
   170  1.480779117E-03
   171 -6.539383068E-04
   172 -1.189484918E-03
   173 -2.223600248E+01
   174  6.980007734E-02
   175  1.107906641E-01
   176 -3.888088131E+00
   177  8.557670992E-03
   178  1.458978161E-02
   179 -9.498915284E-03
   180  1.281284836E-02
   181  5.964194150E-03
   182 -5.748713956E-02
   183 -1.311943481E-02
   184  1.815014296E-02
   185  8.336434248E-03
   186  3.003957327E-03
   187 -7.319967062E-02
   188  7.160037254E-02
   189  2.323694764E-02
   190  6.074659638E-03
   191 -4.525058034E-03
   192 -6.668985848E-03
   193  8.306232480E-04
   194  4.559098854E-03
   195  1.575498500E+01
   196 -3.152814624E+00
   197  1.214622815E+00
   198  3.616396223E-01
   199  8.883440869E-03
   200  1.529089816E-02
   201  2.944651127E-03
   202 -1.814245499E-03
   203  1.734269519E-02
   204 -6.531403516E-02
   205  4.851612570E-03
   206 -2.619284783E-03
   207  2.469201094E-02
   208  1.126865496E-01
   209  7.281993743E-03
   210 -1.183543688E-02
   211  1.318029199E-01
   212 -4.183075036E-03
   213 -7.219243481E-03
   214  1.323870071E-03
   215  6.366995205E-03
   216 -1.689710254E-03
   217  1.150739351E+01
   218 -2.667935115E-01
   219 -4.675554808E-01
   220  2.191493549E+00
   221  3.486388135E-03
   222  5.664389826E-03
   223 -1.072919413E-02
   224  1.900270301E-03
   225 -6.278151553E-03
   226 -1.498967728E-02
   227 -1.711728272E-02
   228  2.819684210E-03
   229 -9.748231406E-03
   230 -9.364613013E-02
   231  2.587068583E-02
   232  1.549542943E-02
   233  9.042958585E-05
   234 -6.265729120E-04
   235  2.583005017E-03
   236 -3.945517441E-04
   237 -4.727015032E-04
   238  1.471170166E-04
   239 -2.692392357E+00
   240  6.043277867E-01
   241 -2.366696495E-01
   242  2.438990258E-01
   243  3.123518378E-03
   244  5.116859147E-03
   245  5.898300708E-03
   246  9.411975114E-03
   247  4.170637487E-03
   248 -1.609955295E-02
   249  9.595046711E-03
   250  1.470784137E-02
   251  7.009862315E-03
   252 -3.888071636E-02
   253  2.933505260E-03
   254  3.770547575E-03
   255 -1.262760249E-02
   256 -1.803635111E-03
   257  1.885292204E-03
   258  6.428195843E-04
   259 -1.420368786E-03
   260  1.086003918E-03
   261 -1.980566003E+00
   262 -3.356775370E-01
   263 -6.465163545E-01
   264 -4.493343342E-01
   265  2.720628941E-03
   266  4.428255391E-03
   267  3.150456710E-03
   268 -1.075226508E-02
   269  3.776067644E-03
   270 -1.073590818E-02
   271  5.437687861E-03
   272 -1.614690340E-02
   273  7.980513787E-03
   274 -1.009019442E-01
   275 -5.875308922E-03
   276  2.439998383E-02
   277 -3.904341190E-02
   278 -1.113904943E-03
   279  1.950128540E-03
   280 -2.201995908E-04
   281 -1.516078049E-03
   282 -5.667953908E-04
   283 -7.221863217E+00
   284 -8.418814622E-02
   285  1.480280612E+00
   286 -7.909447963E-01
   287  4.106194409E-03
   288  7.171325314E-02
   289 -6.018620297E-01
   290 -7.646169076E-03
   291 -6.697083662E-03
   292 -5.110055616E-03
   293 -2.356025053E+00
   294  3.506688495E-03
   295  6.628348072E-02
   296 -4.602711535E-01
   297  9.664839802E-03
   298  1.724481603E-03
   299  6.892620903E-03
   300 -6.399467188E-01
   301  4.508488944E-03
   302  2.291002643E-02
   303  2.071792951E-01
   304 -5.955720760E-03
   305  1.022138184E-03
   306  7.878025483E-03
   307  9.374419320E-01
   308  4.077890609E-03
   309  6.363222373E-02
   310 -5.559781672E-01
   311 -7.477293482E-05
   312  1.157134531E-02
   313 -1.170092500E-03
   314 -2.723911216E+00
   315  3.972268126E-03
   316  6.990017066E-02
   317 -3.943633674E-01
   318 -3.854629218E-03
   319 -1.045007852E-02
   320 -2.535626477E-03
   321 -7.520659359E-01
   322  4.510194522E-03
   323  5.967785624E-02
   324 -3.730359316E-01
   325  1.703421771E-04
   326 -6.787038993E-03
   327 -8.667996844E-03
   328 -4.532154312E-01
   329  1.809546388E-03
   330  4.464042703E-02
   331 -4.617841814E-01
   332 -3.751480649E-03
   333  3.048835987E-03
   334  9.625449581E-03
   335 -1.901600837E+00
   336  4.538119919E-03
   337  5.907722638E-02
   338 -4.105019264E-01
   339 -5.683734362E-03
   340  9.087546559E-03
   341 -4.428127860E-03
   342 -7.671553247E-01
   343  3.779294162E-03
   344  6.651143058E-02
   345 -5.521707358E-01
   346  8.224567561E-03
   347 -4.035561231E-03
   348  5.775965849E-03
   349 -2.613161688E+00
   350  4.650712140E-03
   351  5.481374884E-02
   352 -4.964527967E-01
   353  2.218448467E-03
   354  6.968129585E-03
   355 -7.552680152E-03
   356 -1.063551054E+00
   357  1.620962896E-03
   358  5.034002678E-02
   359 -5.254269240E-01
   360 -4.587186731E-03
   361 -2.130114846E-03
   362  8.505639696E-03
   363 -1.363799175E+00
   364  1.993933399E-03
   365  4.187271216E-02
   366 -4.186741057E-01
   367 -8.300711107E-03
   368  1.182676471E-03
   369  5.995526566E-03
   370 -1.784263590E+00
   371  4.229960300E-03
   372  5.269800548E-02
   373 -3.481074144E-01
   374  1.060906768E-02
   375 -1.331506147E-03
   376 -1.563711456E-03
   377 -6.776471225E-01
   378  1.030614727E-03
   379 -5.829442673E-03
   380  1.324730209E-01
   381  9.764954498E-04
   382  2.113480334E-03
   383  9.074918525E-04
   384  9.868425944E-01
   385 -3.123878973E-03
   386 -1.298126485E-03
   387 -8.434269386E-03
   388 -5.282378991E-04
   389  4.918724594E-04
   390 -1.141018899E-03
   391  1.162228230E-02
   392  1.998526186E-03
   393  7.715654465E-03
   394  1.110804638E-01
   395 -1.623670097E-04
   396 -1.887987663E-03
   397  7.370730760E-04
   398  4.267233578E-01
   399 -3.214032803E-03
   400 -1.021974515E-02
   401  8.099001895E-02
   402  9.213186845E-04
   403  3.725946256E-04
   404 -5.731372810E-05
   405 -8.036800598E-02
   406  1.220020497E-03
   407 -2.318759605E-03
   408  1.551024843E-01
   409 -1.947528514E-03
   410  5.219702562E-04
   411 -7.931058226E-04
   412  3.328166904E-01
   413  1.385988411E-03
   414 -7.696314889E-03
   415  2.293043302E-01
   416  6.548354940E-04
   417 -2.482714484E-03
   418  3.197778059E-04
   419  8.611564451E-01
   420 -3.448006032E-03
   421 -2.463228027E-03
   422 -3.464328860E-02
   423  9.359855016E-05
   424 -1.311319865E-03
   425 -5.263160942E-05
   426 -2.104990199E-01
   427  1.999143037E-03
   428  3.467875927E-03
   429  1.389136298E-01
   430  7.027973786E-04
   431  8.874854855E-04
   432  1.243692093E-03
   433  5.872295539E-01
   434  2.048498329E-04
   435 -2.539451307E-03
   436  8.314424524E-02
   437 -1.601922881E-03
   438  3.964081526E-04
   439 -1.349061201E-03
   440  9.541759381E-01
Ene=    9.1839881359E-02
Spin= Alpha
Occup=   0.0000000
     1 -8.753379606E-04
     2 -1.465622339E-03
     3  2.865273931E-03
     4  4.910293006E-04
     5  4.238277922E-03
     6  4.082453450E-03
     7 -3.703077174E-04
     8 -8.073151167E-04
     9  1.825128745E-03
    10  3.593235737E-02
    11  1.094411383E-01
    12  3.818073201E-02
    13  1.171382713E-01
    14 -1.738679396E-03
    15 -1.002938984E-03
    16  1.632449301E-04
    17  9.890852447E-05
    18  7.524975450E-04
    19  5.717190418E+00
    20  9.507406655E+00
    21  3.330113395E+00
    22  8.689802721E+00
    23 -1.187225567E-04
    24 -3.277886352E-04
    25 -2.533127410E-02
    26 -9.768279609E-03
    27 -1.625197151E-02
    28  4.413791070E-03
    29 -2.262753510E-02
    30 -7.796813510E-03
    31 -1.538809392E-02
    32 -4.970507913E-02
    33 -2.505570680E-01
    34 -9.323614082E-02
    35 -1.257425101E-01
    36  5.030770386E-04
    37 -7.772472201E-04
    38  6.019049768E-04
    39 -1.693962994E-03
    40  2.746714832E-04
    41 -4.835181542E+00
    42 -8.455924827E+00
    43 -3.118841604E+00
    44 -4.760386653E+00
    45 -9.375684956E-04
    46 -1.566444976E-03
    47 -4.426664546E-04
    48  1.260122720E-04
    49  7.623480354E-04
    50  5.538896192E-03
    51  5.634448746E-04
    52  6.828225263E-04
    53  1.246892635E-03
    54  2.181393642E-02
    55 -2.236860216E-02
    56 -7.234534754E-03
    57 -5.906988079E-03
    58  1.193792505E-04
    59  1.330218773E-05
    60  1.224618333E-04
    61 -8.651778160E-05
    62 -5.879909992E-05
    63  2.915704605E-01
    64 -2.278137512E-01
    65  2.768586157E-02
    66 -5.971873799E-04
    67 -7.586595968E-04
    68 -1.241941905E-03
    69  5.809969974E-03
    70  3.176989888E-02
    71  3.432202165E-03
    72  3.308310066E-03
    73  4.726498207E-03
    74  2.559086130E-02
    75  3.624973570E-03
    76  2.411862461E-02
    77  5.261903599E-02
    78  3.308787395E-01
    79  1.766107103E-02
    80  3.121556276E-04
    81 -1.292809920E-04
    82 -1.622558609E-03
    83  7.092929814E-04
    84 -9.295769658E-04
    85  1.820573860E+00
    86  1.672149827E+00
    87  1.063254210E+01
    88 -4.202711136E-02
    89 -1.292656304E-04
    90 -2.624750412E-04
    91 -2.045950260E-03
    92 -5.781683546E-03
    93 -5.469778769E-04
    94  1.859152991E-03
    95 -2.456365176E-03
    96 -1.875878096E-03
    97 -5.349964200E-04
    98  8.447826183E-03
    99 -2.555340843E-02
   100 -1.679594657E-01
   101 -2.020098910E-02
   102  8.819549442E-05
   103  1.992095507E-04
   104  1.809748067E-04
   105 -7.110647864E-04
   106 -1.939769959E-03
   107  2.398565427E+00
   108 -1.098427884E+00
   109 -9.643312747E+00
   110 -1.404548298E+00
   111 -1.171211193E-03
   112 -2.018694936E-03
   113  9.460752429E-04
   114  4.035646207E-04
   115 -3.598258310E-03
   116  8.236780112E-03
   117  3.455092038E-03
   118 -6.551113697E-04
   119 -2.536203656E-03
   120  2.668401919E-03
   121  7.494729824E-02
   122 -6.501250890E-02
   123  2.668353438E-02
   124 -8.236961357E-04
   125  6.314369291E-04
   126  4.528688267E-04
   127  1.252497176E-03
   128  2.475363241E-04
   129 -8.615525496E+00
   130  5.844762193E+00
   131 -4.001665734E+00
   132  2.246346853E+00
   133 -8.984847503E-04
   134 -1.484491776E-03
   135  1.728796436E-02
   136 -2.119098854E-02
   137  1.517382238E-02
   138  5.194070405E-03
   139  1.430793836E-02
   140 -1.994514374E-02
   141  1.377638858E-02
   142  8.535538941E-04
   143  1.822628619E-01
   144 -2.073494834E-01
   145  1.406541352E-01
   146 -2.610340734E-04
   147  2.080273936E-05
   148  1.269369929E-03
   149  1.473488219E-03
   150  4.169937365E-04
   151  5.745467319E-01
   152  6.009043290E+00
   153 -6.388914133E+00
   154  4.522311908E+00
   155 -1.134875440E-04
   156 -2.549319133E-04
   157 -2.490626914E-03
   158  3.564324621E-03
   159 -1.618072407E-03
   160  2.566508402E-03
   161  4.124408443E-04
   162  1.595846760E-03
   163 -1.480005961E-04
   164 -1.803020702E-02
   165 -9.868063677E-02
   166  1.126623066E-01
   167 -7.186073783E-02
   168  1.841317752E-03
   169  1.055323516E-03
   170 -1.049965725E-03
   171  4.257014763E-04
   172  5.307114334E-04
   173 -1.955132246E-01
   174 -6.410799347E+00
   175  8.050007238E+00
   176 -5.943382004E+00
   177 -5.565927655E-04
   178 -9.428399925E-04
   179  1.129565156E-03
   180 -2.623646682E-03
   181  3.234620574E-03
   182  3.561544534E-03
   183 -9.783708898E-04
   184 -4.292733925E-03
   185  1.651503208E-03
   186  2.520141039E-03
   187 -7.944192074E-02
   188 -5.605551300E-02
   189 -3.204566176E-02
   190 -1.626362012E-05
   191  2.749420168E-05
   192  1.760965451E-03
   193 -6.980979841E-04
   194  3.241052198E-04
   195  2.482148398E-01
   196 -5.942360060E+00
   197 -3.055773655E+00
   198 -2.837351673E+00
   199 -9.430475827E-04
   200 -1.680043335E-03
   201 -6.663779298E-04
   202 -2.892006776E-03
   203 -2.446961067E-03
   204  9.024886456E-03
   205 -1.159330312E-03
   206  4.702076441E-04
   207 -2.958561169E-03
   208 -4.968498215E-02
   209  1.881510495E-02
   210  7.343494795E-02
   211 -2.612668845E-02
   212  1.531451936E-04
   213  3.744488136E-04
   214 -1.364848539E-03
   215 -1.013711993E-03
   216 -1.830046375E-04
   217 -1.120009961E-01
   218  1.654959659E+00
   219  8.496143135E+00
   220  4.285292749E-01
   221 -3.080499287E-04
   222 -5.048759675E-04
   223 -3.333884960E-04
   224 -6.209925717E-03
   225  3.939046293E-04
   226  1.537257809E-03
   227 -1.879224384E-03
   228 -1.752148323E-02
   229  7.952432328E-04
   230  1.856485894E-03
   231  1.994241398E-02
   232  1.203467975E-01
   233  3.727281278E-03
   234  1.972527783E-04
   235 -3.642343583E-04
   236 -1.350531617E-03
   237  1.172906216E-03
   238  3.557730712E-03
   239 -5.595781126E-01
   240 -3.307644762E-03
   241 -4.711794717E-01
   242  1.093458157E-01
   243  1.843466364E-05
   244  5.524246922E-05
   245 -2.925187230E-03
   246  3.060367955E-03
   247 -3.711457133E-03
   248 -9.240343683E-04
   249 -8.641062051E-03
   250  9.630012084E-03
   251 -9.772099022E-03
   252  1.445962220E-02
   253  7.504466394E-02
   254 -7.450409542E-02
   255  6.776912324E-02
   256 -3.249823032E-03
   257 -1.591059032E-03
   258  1.074406891E-03
   259 -9.120032553E-04
   260 -1.495048860E-03
   261  1.457473360E+00
   262 -9.120720303E-02
   263  6.369423862E-01
   264 -1.593975710E-02
   265 -8.676396189E-04
   266 -1.453406133E-03
   267  2.371348768E-03
   268  3.402049945E-03
   269  2.403718701E-03
   270  4.692214310E-03
   271  8.120196154E-03
   272  7.495396366E-03
   273  7.441795296E-03
   274  1.261803190E-02
   275 -8.121314168E-02
   276 -3.902465471E-02
   277 -6.428856085E-02
   278  3.730462015E-03
   279  1.549430722E-03
   280  1.012507500E-04
   281 -3.897325751E-04
   282 -1.816268763E-03
   283  6.194009080E-01
   284  1.893897879E-01
   285  1.088529481E-01
   286  2.600425080E-01
   287 -2.130741185E-04
   288  2.809581336E-03
   289 -6.919463530E-01
   290  4.032165110E-03
   291 -7.657807447E-04
   292  1.853698670E-03
   293 -9.752773709E+00
   294 -4.671309171E-04
   295 -1.755253096E-02
   296  8.343753850E-01
   297  2.922531224E-04
   298  3.449824260E-03
   299  1.667998228E-03
   300  1.018471148E+01
   301 -2.689023004E-04
   302 -3.591036965E-03
   303  4.887380400E-03
   304  4.044162313E-04
   305  4.982022637E-04
   306 -3.360893440E-04
   307 -2.942969958E-01
   308 -4.457130301E-04
   309  9.752963167E-03
   310 -8.894726479E-01
   311 -1.486756447E-03
   312 -3.530791547E-03
   313 -2.221722174E-03
   314 -1.059508891E+01
   315 -6.259909250E-04
   316 -1.587447396E-02
   317  8.637192739E-01
   318  9.189614959E-04
   319 -2.602359469E-03
   320  2.497008595E-03
   321  1.115471802E+01
   322  1.084977818E-04
   323 -7.023551691E-03
   324  6.514044835E-02
   325  7.467731987E-04
   326 -7.855223934E-04
   327  2.136544415E-03
   328 -8.929245511E-01
   329  4.643356445E-04
   330 -1.094807587E-02
   331  1.995392716E-01
   332  1.055708009E-03
   333 -7.605425220E-04
   334 -1.866438536E-05
   335  8.966704792E-01
   336 -3.647634332E-04
   337 -8.560805855E-03
   338  7.875483003E-01
   339 -3.195444487E-03
   340 -5.279427346E-04
   341 -6.384517751E-04
   342  9.754700394E+00
   343 -2.597309271E-04
   344  3.405228190E-03
   345 -7.306997489E-01
   346 -5.612139206E-04
   347  3.952759465E-03
   348 -2.158681183E-03
   349 -9.911336684E+00
   350 -1.006535953E-04
   351 -3.986405138E-03
   352  1.009534414E-01
   353 -9.572867521E-04
   354 -1.386156244E-03
   355 -5.944635940E-04
   356  1.184882678E+00
   357 -8.325417300E-04
   358 -4.306130812E-03
   359 -4.110375139E-02
   360 -6.324114419E-04
   361  2.781771636E-04
   362 -1.578761137E-03
   363 -9.754680802E-01
   364 -4.298603423E-04
   365 -4.493630391E-03
   366  2.384065682E-02
   367  1.142377742E-03
   368  7.860210925E-04
   369 -5.349990601E-04
   370  4.992635594E-01
   371 -4.851908980E-04
   372 -3.168423279E-03
   373 -4.761791498E-02
   374 -9.713137755E-04
   375  1.890868416E-03
   376  2.931689288E-04
   377 -8.543869558E-02
   378 -5.495521521E-03
   379 -4.011061769E-02
   380 -1.939986248E-02
   381  4.881075100E-03
   382  9.525743258E-04
   383 -7.651614306E-04
   384  2.407968468E+00
   385  4.150136847E-04
   386  7.100552067E-04
   387 -1.151235915E-02
   388  5.002661114E-04
   389  3.418182323E-03
   390  5.603620986E-05
   391 -3.500855538E-02
   392  5.189450012E-03
   393  3.995767101E-02
   394  4.994718011E-03
   395 -4.420813996E-03
   396  3.090209485E-03
   397  1.108250509E-03
   398 -2.510248885E+00
   399 -1.405272781E-04
   400  4.447705957E-03
   401 -4.035266785E-02
   402  2.344003718E-03
   403 -2.284009019E-03
   404  2.301052653E-03
   405 -3.129676479E-01
   406  5.466400210E-03
   407  4.488750265E-02
   408 -3.400824182E-02
   409  8.953648190E-04
   410  1.571780412E-03
   411  4.805319715E-03
   412 -2.538546333E+00
   413 -5.513422604E-03
   414 -4.425487143E-02
   415  2.336066474E-03
   416  1.204588270E-03
   417 -4.379962968E-03
   418 -3.172899691E-03
   419  2.870104536E+00
   420  3.344701938E-04
   421 -5.562755339E-03
   422  2.499502016E-02
   423 -3.452947531E-03
   424 -8.467505598E-04
   425 -2.642171553E-03
   426  3.586021065E-01
   427  5.574176785E-03
   428  4.228915398E-02
   429 -3.710847649E-02
   430 -2.811262605E-03
   431 -3.908100683E-03
   432  2.720681503E-03
   433 -2.869037270E+00
   434 -5.777426717E-03
   435 -4.662718796E-02
   436  4.510513911E-02
   437  5.273737282E-04
   438  2.095986652E-03
   439 -4.726409037E-03
   440  2.342915808E+00
Ene=    9.5056234798E-02
Spin= Alpha
Occup=   0.0000000
     1  3.214392100E-03
     2  5.239590663E-03
     3  9.473857727E-03
     4  4.151170603E-03
     5  2.943765405E-03
     6 -1.425271829E-02
     7  1.261953468E-02
     8  5.175781192E-03
     9  6.472540421E-03
    10 -1.066218528E-01
    11  6.719272110E-02
    12  2.428411739E-02
    13 -3.788965372E-02
    14  5.434023616E-03
    15  1.935686624E-03
    16  2.986022598E-03
    17 -2.922658145E-03
    18 -2.824125236E-04
    19 -7.413876198E+00
    20 -4.616869017E+00
    21 -2.558777454E+00
    22 -6.933553337E+00
    23 -1.625729895E-03
    24 -2.601392483E-03
    25 -1.946039376E-03
    26 -9.493321795E-04
    27 -2.477460765E-03
    28  6.387149210E-03
    29  1.314654631E-02
    30  5.912198541E-03
    31  9.470209702E-03
    32  6.390939003E-02
    33 -9.565309621E-02
    34 -5.464820289E-02
    35 -1.383406412E-01
    36 -2.995220041E-03
    37  4.248430541E-04
    38 -3.036981432E-03
    39  1.932428285E-03
    40 -5.596990748E-04
    41  6.273458819E+00
    42 -3.436791326E+00
    43 -2.381267196E+00
    44 -4.637481889E+00
    45 -8.011982137E-04
    46 -1.286938874E-03
    47  3.598129367E-03
    48  3.608781537E-03
    49  2.865191697E-03
    50  2.676552338E-03
    51  5.921104864E-03
    52  7.288427285E-03
    53  5.141857571E-03
    54  3.538833320E-02
    55  1.444435765E-02
    56 -1.521860583E-02
    57 -5.830874644E-03
    58 -3.275497106E-03
    59 -1.380629851E-03
    60 -2.038534279E-03
    61  1.765717576E-03
    62  1.950412487E-03
    63  3.731632988E+00
    64  1.363105693E+00
    65  5.917225159E-01
    66 -1.889522609E-01
    67 -4.404780053E-03
    68 -6.954724921E-03
    69  1.458752050E-03
    70  2.988956159E-04
    71 -1.018323424E-03
    72  1.503852451E-02
    73  2.044538273E-03
    74  1.468048176E-02
    75  3.344384635E-03
    76  1.748058798E-01
    77  8.788591069E-02
    78 -9.522848309E-02
    79 -1.299923303E-01
    80 -2.995994736E-03
    81  2.714520181E-03
    82 -3.549201729E-03
    83  6.392179657E-04
    84 -6.201972149E-06
    85  1.994760950E+01
    86  2.073007313E+00
    87 -3.782027033E+00
    88 -4.747839013E+00
    89  8.487415651E-03
    90  1.375093870E-02
    91  7.469766904E-03
    92  5.755564346E-03
    93 -4.344931462E-03
    94 -3.482285689E-02
    95  6.977327833E-03
    96  9.426763949E-03
    97 -4.313965529E-03
    98 -3.383678209E-01
    99  1.231490252E-01
   100 -2.856288672E-03
   101 -1.037614383E-01
   102 -7.889631263E-04
   103 -2.311900689E-03
   104  5.151691376E-03
   105 -3.032581386E-03
   106 -1.783583570E-03
   107 -2.200923929E+01
   108  4.207653933E+00
   109 -5.979046828E+00
   110 -7.609392598E+00
   111  2.219289601E-03
   112  3.825036390E-03
   113 -3.386534618E-03
   114  1.655790641E-02
   115  3.652095337E-02
   116 -1.584161947E-02
   117 -4.039749926E-03
   118  1.830030298E-02
   119  4.207570891E-02
   120  6.579009011E-03
   121 -5.327929794E-02
   122  8.371675654E-02
   123  2.758170252E-01
   124  1.984581386E-03
   125 -3.847844601E-03
   126 -1.054522125E-03
   127  3.753844328E-03
   128 -2.804315831E-03
   129  2.205391446E+01
   130 -5.990902654E+00
   131  3.756333678E+00
   132  8.816478727E+00
   133  5.555957852E-03
   134  8.635983062E-03
   135 -1.548798569E-03
   136 -1.830276243E-03
   137  1.599998589E-03
   138 -1.471110683E-02
   139  5.397212817E-03
   140 -5.594440587E-03
   141  1.112536199E-03
   142 -2.727582679E-01
   143 -1.643493774E-01
   144  3.550611482E-03
   145  1.245386044E-01
   146  1.423647836E-03
   147 -4.580822098E-03
   148 -1.223598777E-03
   149  3.334833115E-03
   150 -1.388333253E-03
   151 -3.302748860E+01
   152 -6.281047854E+00
   153 -1.189562276E-01
   154  5.367948281E+00
   155 -1.165863092E-02
   156 -1.891184110E-02
   157 -1.703458019E-03
   158  1.561696451E-03
   159  1.029460932E-02
   160  4.950249770E-02
   161 -1.355686862E-03
   162  2.855011379E-04
   163  1.148700778E-02
   164  4.359779532E-01
   165 -8.644373823E-02
   166  4.366867372E-02
   167  1.851706764E-01
   168 -4.212002999E-04
   169  2.801412122E-04
   170  1.047497413E-03
   171 -1.385537780E-03
   172  5.723060103E-03
   173  2.369593245E+01
   174 -1.099519544E+01
   175  2.492717207E+00
   176  9.362429260E+00
   177 -3.398603826E-04
   178 -5.504825331E-04
   179  1.687837345E-02
   180  1.127246341E-02
   181  8.813394477E-04
   182  1.711787281E-03
   183  2.036730937E-02
   184  1.385965016E-02
   185  1.431853094E-03
   186 -5.897442761E-03
   187  1.236707593E-01
   188  6.615011320E-02
   189  1.268502881E-03
   190 -3.932566406E-03
   191  1.170637130E-03
   192 -3.920724085E-03
   193  3.812622990E-03
   194 -2.457720737E-03
   195  9.421875673E-01
   196 -4.681649090E+00
   197 -1.055143090E+00
   198 -5.807186881E+00
   199 -1.597702449E-03
   200 -2.663118342E-03
   201  3.204354616E-02
   202  7.659892246E-03
   203 -9.304818525E-03
   204  8.499012092E-03
   205  3.902928492E-02
   206  9.765344449E-03
   207 -1.135625271E-02
   208  3.332024911E-02
   209  1.964503965E-01
   210  5.761641161E-02
   211 -8.824335037E-02
   212 -2.339047156E-03
   213  3.755729433E-03
   214 -5.878444100E-03
   215  8.939928318E-04
   216 -1.137106305E-03
   217 -1.529210793E+01
   218  5.792609470E+00
   219 -5.097098246E+00
   220 -5.631929760E+00
   221  6.680884844E-03
   222  1.104212609E-02
   223 -5.866145864E-03
   224  8.179591912E-04
   225 -5.289476094E-03
   226 -3.483619975E-02
   227 -4.780253092E-03
   228  2.594539554E-03
   229 -1.114190587E-02
   230 -9.640447752E-02
   231 -8.435041273E-02
   232 -1.197581492E-03
   233  4.362683506E-02
   234  3.378438800E-03
   235  2.243701259E-03
   236  2.368491509E-03
   237 -3.077530172E-03
   238  1.909309145E-03
   239  5.267572459E+00
   240 -1.814135398E+00
   241 -3.175556299E-01
   242 -1.016718296E+00
   243 -8.102562668E-03
   244 -1.331197753E-02
   245 -4.966267461E-03
   246 -8.060201965E-03
   247 -2.338809612E-03
   248  4.016702198E-02
   249 -9.201570973E-03
   250 -1.188937759E-02
   251  1.737395632E-03
   252  1.465102697E-01
   253  2.927048656E-02
   254 -3.327271553E-02
   255 -9.633034640E-02
   256  3.492030010E-03
   257  2.425032969E-04
   258  5.371160412E-03
   259 -3.068081243E-03
   260 -1.702312310E-03
   261 -5.155290884E+00
   262 -1.041259853E+00
   263 -1.563487235E+00
   264 -1.054782309E+00
   265  2.511246532E-03
   266  4.147375771E-03
   267  1.250106922E-03
   268 -2.134971505E-03
   269  2.055028577E-03
   270 -1.294556238E-02
   271  5.697442523E-03
   272 -9.298409918E-04
   273  4.010245809E-03
   274 -4.355636727E-02
   275 -4.075256695E-02
   276 -2.355687091E-02
   277  1.056119649E-02
   278  8.224841323E-04
   279 -3.038494092E-04
   280  3.535483307E-03
   281 -2.133399576E-03
   282  8.344219911E-04
   283  1.076493958E+00
   284 -5.180809880E-01
   285 -7.242204816E-01
   286 -2.333097505E-01
   287  3.523334197E-03
   288  4.610715618E-02
   289 -7.297759541E-01
   290  4.348273182E-04
   291  1.400095311E-04
   292  2.655168361E-04
   293 -6.652968120E+00
   294 -4.179006657E-03
   295 -3.775888930E-02
   296  5.517878031E-01
   297  5.943603791E-04
   298  6.768003976E-04
   299 -2.246372124E-03
   300  6.542111874E+00
   301  4.174719181E-05
   302  6.868051076E-04
   303 -2.637782286E-02
   304 -4.453486532E-03
   305 -3.767753499E-03
   306 -3.378246663E-03
   307  2.241081977E-01
   308 -3.092157766E-03
   309 -1.525175523E-02
   310  1.665957251E-01
   311  2.779766745E-03
   312 -1.851684536E-03
   313 -2.325650884E-03
   314  3.255678561E+00
   315  2.484841466E-03
   316  4.716787067E-02
   317 -6.240423236E-01
   318  1.605676277E-03
   319  9.018607565E-04
   320 -8.882371700E-04
   321 -4.611940561E+00
   322  3.874201862E-03
   323  2.037630007E-02
   324  5.035780666E-01
   325  5.394460467E-03
   326 -5.970246262E-04
   327 -4.833842679E-03
   328  1.003031416E+01
   329 -4.637635741E-03
   330  2.544251876E-02
   331 -1.010107209E+00
   332 -2.809746308E-03
   333 -5.386994854E-03
   334 -1.337679124E-03
   335 -1.087739119E+01
   336  1.339613338E-03
   337 -1.639090440E-02
   338  2.098211635E-01
   339 -2.361769945E-03
   340  1.860639095E-03
   341  2.510528695E-03
   342 -7.010144016E-01
   343 -4.664100433E-04
   344 -3.803142938E-02
   345  5.368692458E-01
   346 -4.076313675E-04
   347  5.392348714E-04
   348  3.331183058E-03
   349  2.200054996E+00
   350 -2.089004825E-03
   351 -4.518199440E-03
   352 -2.025400993E-01
   353  3.176278672E-03
   354  1.914630139E-03
   355  4.363852458E-03
   356 -2.429762477E+00
   357  9.040921249E-04
   358 -1.211745765E-03
   359  1.540718541E-01
   360  3.448012069E-03
   361 -5.641851093E-04
   362  1.981970683E-03
   363  2.684754453E+00
   364  3.925447867E-03
   365 -1.555870568E-02
   366  7.296275621E-01
   367 -3.757281784E-03
   368  3.407246789E-03
   369 -3.157216685E-03
   370  8.057480725E+00
   371 -3.313476437E-03
   372 -1.848911980E-02
   373 -3.352939319E-01
   374 -1.840938003E-03
   375  4.433711289E-03
   376  5.201929678E-03
   377 -7.709942403E+00
   378  4.574943993E-03
   379  8.942327643E-03
   380  1.092618456E-01
   381  1.172455356E-03
   382  8.890002653E-04
   383  5.073306527E-03
   384  3.156474800E+00
   385  1.624853908E-03
   386  5.080182291E-02
   387 -1.647078364E-01
   388 -4.485142492E-03
   389  1.547888443E-03
   390 -3.789612299E-03
   391 -2.424101799E+00
   392 -9.154168292E-04
   393  2.116861128E-02
   394 -2.046249936E-01
   395 -1.273022876E-03
   396 -1.974054778E-03
   397  1.349834233E-03
   398 -1.806795055E-01
   399 -2.199927310E-03
   400 -6.437874169E-02
   401  2.485970341E-01
   402 -4.244694080E-03
   403 -6.932133159E-03
   404 -1.945286641E-03
   405  3.277801762E+00
   406 -3.170930102E-03
   407 -1.148901064E-02
   408 -3.577897813E-02
   409  4.642404465E-03
   410  1.373748473E-03
   411 -1.006049783E-03
   412 -2.694358858E+00
   413 -2.250889505E-03
   414 -2.229357891E-02
   415  1.190414366E-01
   416  1.859056609E-03
   417  2.561334467E-03
   418 -3.232009459E-03
   419 -1.305168990E+00
   420  1.136252267E-03
   421  1.862890360E-02
   422 -4.011175930E-02
   423  1.496185522E-03
   424 -1.693089427E-03
   425  5.019542222E-04
   426 -6.737291634E-01
   427  4.620121822E-03
   428 -8.173860875E-04
   429  2.166438208E-01
   430 -2.450158887E-03
   431  2.390979896E-03
   432  1.211494839E-03
   433  2.442310783E+00
   434 -3.605349654E-03
   435  1.250819390E-02
   436 -2.623245562E-01
   437 -4.742598004E-04
   438 -1.941695946E-03
   439 -5.349949930E-04
   440 -1.663617284E+00
Ene=    9.5666496235E-02
Spin= Alpha
Occup=   0.0000000
     1 -1.226520524E-02
     2 -1.988746819E-02
     3 -3.970195064E-03
     4 -1.911898062E-03
     5  1.064507491E-02
     6  5.160686252E-02
     7 -1.469445591E-03
     8 -2.141686738E-03
     9  1.063718138E-02
    10  4.721320789E-01
    11 -1.227429253E-01
    12 -1.228851846E-02
    13  1.807135840E-01
    14 -2.444971571E-04
    15  2.098069867E-04
    16 -1.393564214E-03
    17 -4.774400426E-03
    18 -3.603122801E-03
    19  2.672284355E+01
    20 -6.573509610E+00
    21  2.484382909E+00
    22  8.237059976E+00
    23  6.471265345E-03
    24  1.033856613E-02
    25  7.715147071E-04
    26  3.352387678E-04
    27  2.930344926E-03
    28 -2.495349065E-02
    29  7.836860617E-03
    30  5.209073596E-04
    31  1.836918343E-03
    32 -2.194888577E-01
    33 -1.160555030E-01
    34  1.491305613E-03
    35  1.643083948E-01
    36  1.591015629E-03
    37 -4.421968652E-03
    38  2.609056339E-03
    39  4.321290176E-03
    40 -9.645028610E-04
    41 -2.420841536E+01
    42 -5.085083252E+00
    43  2.529762245E-01
    44  5.331813275E+00
    45  1.167312082E-03
    46  1.924367972E-03
    47  3.204041101E-03
    48 -4.845159224E-03
    49  1.665998267E-03
    50 -5.561108767E-03
    51  8.810863972E-03
    52 -9.455953401E-03
    53  3.800352994E-03
    54 -3.123742517E-02
    55 -4.247585618E-02
    56  1.831435643E-03
    57 -4.925356666E-03
    58 -2.686637098E-03
    59 -1.187384327E-03
    60  3.223772938E-03
    61  7.515168574E-04
    62 -2.792986336E-03
    63 -4.757985039E+00
    64  1.070457802E-01
    65 -1.647049244E+00
    66  1.922329931E+00
    67 -4.382357362E-03
    68 -6.900424932E-03
    69 -1.037299526E-03
    70 -1.482590545E-03
    71 -2.746695183E-03
    72  1.381551086E-02
    73 -4.673681415E-03
    74 -1.667548045E-02
    75 -1.214459265E-03
    76  1.851164836E-01
    77  5.443691637E-02
    78  9.541460721E-02
    79 -1.248106251E-01
    80 -2.778370582E-03
    81  4.291087046E-03
    82  3.194399423E-03
    83  6.418744775E-04
    84 -8.506530026E-04
    85  2.454311614E+01
    86  3.616425121E+00
    87  3.417242387E+00
    88 -5.815624868E+00
    89  8.952361317E-03
    90  1.449507216E-02
    91  5.366313799E-03
    92 -7.899664830E-03
    93 -4.598333038E-03
    94 -3.799986903E-02
    95  6.363206667E-03
    96 -1.295836627E-02
    97 -4.116872945E-03
    98 -3.355126438E-01
    99  9.457281665E-02
   100 -2.513502386E-02
   101 -1.200445414E-01
   102 -1.718675774E-03
   103 -3.468043690E-03
   104 -3.892760024E-03
   105 -1.912486594E-03
   106  4.026825487E-03
   107 -1.290694619E+01
   108  4.329599156E+00
   109  5.542536033E+00
   110 -9.890981217E+00
   111 -8.516967189E-04
   112 -1.496296033E-03
   113  1.276811720E-02
   114 -1.695343865E-02
   115 -1.739193981E-03
   116  6.405882921E-03
   117  1.626067424E-02
   118 -2.041492788E-02
   119 -1.907409622E-03
   120  9.392400105E-03
   121  8.511580226E-02
   122 -9.911373030E-02
   123 -1.604960537E-02
   124 -2.828410343E-03
   125  1.897400027E-03
   126  4.380037902E-03
   127  5.475250101E-03
   128 -1.020448054E-03
   129 -1.398419347E+01
   130 -3.788273573E-01
   131  3.264917304E+00
   132 -5.017780346E+00
   133 -1.355889288E-03
   134 -2.076473122E-03
   135 -1.225007379E-03
   136  2.920119403E-03
   137 -1.679534683E-03
   138  3.079655012E-03
   139  9.850734049E-03
   140 -1.023638024E-02
   141  7.824141031E-03
   142  6.514889252E-02
   143 -5.902816485E-02
   144  1.150889972E-01
   145 -1.033286424E-01
   146 -2.923535387E-03
   147  1.333103380E-03
   148  2.555040580E-03
   149  2.713842434E-03
   150 -1.311439868E-03
   151  9.752142798E+00
   152 -2.462709544E+00
   153  4.203030578E+00
   154 -4.801847268E+00
   155  2.958848960E-03
   156  4.767015727E-03
   157  6.731889409E-03
   158 -7.997754990E-03
   159  2.741808924E-03
   160 -1.179754048E-02
   161  1.092832810E-02
   162 -1.240179421E-02
   163  4.023064641E-03
   164 -1.283163908E-01
   165  4.098000502E-02
   166 -4.152781331E-02
   167 -8.009443500E-03
   168  5.631367827E-03
   169  1.553976418E-03
   170 -4.339101016E-03
   171 -2.502266989E-03
   172  9.517087762E-04
   173 -5.305783934E+00
   174  9.477297032E-01
   175  2.905569021E+00
   176 -4.677039283E+00
   177  1.834573194E-03
   178  2.973958339E-03
   179 -9.683780660E-03
   180 -2.002697793E-02
   181  3.546555268E-02
   182 -7.733013959E-03
   183 -1.090766139E-02
   184 -2.445255673E-02
   185  4.293459275E-02
   186 -5.426060741E-02
   187 -8.110947441E-02
   188 -1.061063853E-01
   189  2.400439658E-01
   190  2.657763835E-03
   191 -3.975534272E-03
   192  1.130301520E-03
   193  6.030460922E-03
   194  7.589707788E-04
   195  7.761094217E+00
   196 -4.121188465E+00
   197 -3.886864309E+00
   198  8.464168959E+00
   199 -1.778907725E-03
   200 -3.005511425E-03
   201  2.412352825E-02
   202 -1.666444854E-02
   203 -1.089079870E-02
   204  1.130992553E-02
   205  2.746602091E-02
   206 -2.044752889E-02
   207 -1.354723762E-02
   208 -5.370964358E-03
   209  1.653923851E-01
   210 -1.227737630E-01
   211 -9.588099373E-02
   212 -9.921473103E-04
   213  5.198570478E-03
   214  4.985075662E-03
   215  9.116552302E-04
   216  2.108435269E-04
   217 -6.248908798E+00
   218  6.543002909E+00
   219  2.567649960E+00
   220 -2.760189371E+00
   221  5.844966707E-03
   222  9.561126793E-03
   223 -5.664938879E-03
   224  1.016061175E-03
   225 -3.677732887E-03
   226 -2.923672091E-02
   227 -5.895252381E-03
   228  9.141226235E-05
   229 -7.487066387E-03
   230 -9.810755769E-02
   231 -7.167937099E-02
   232  1.980074579E-02
   233  3.078237453E-02
   234  3.553725766E-03
   235  8.889051206E-04
   236 -2.737922728E-03
   237 -3.937129574E-03
   238  1.068010329E-04
   239  3.629257150E+00
   240 -1.011802633E+00
   241  7.588106149E-01
   242 -3.169210354E-01
   243  1.976607195E-03
   244  3.233887619E-03
   245  1.764659870E-03
   246  1.729023357E-03
   247 -2.939900367E-04
   248 -9.478428416E-03
   249  4.878666446E-03
   250  1.981267567E-03
   251 -7.656663251E-04
   252 -3.332343850E-02
   253 -2.234728024E-02
   254  1.946200586E-02
   255  1.254118283E-02
   256 -3.111452725E-05
   257 -2.538709711E-04
   258 -3.605372863E-03
   259 -3.282432627E-03
   260  1.595648282E-03
   261  2.054399762E+00
   262 -2.850708247E-01
   263  1.159403025E+00
   264 -1.474401447E-01
   265 -9.315980138E-03
   266 -1.536590613E-02
   267 -4.290227588E-03
   268  9.670777378E-03
   269 -3.681446539E-03
   270  4.940869708E-02
   271 -1.150435705E-02
   272  1.208821403E-02
   273 -4.432108448E-04
   274  1.233637992E-01
   275  6.192743852E-02
   276  6.815561369E-02
   277 -1.042175079E-01
   278  2.490740553E-03
   279 -5.057216220E-04
   280 -5.157229208E-03
   281 -2.757231420E-03
   282  3.381377208E-03
   283 -7.109877030E+00
   284 -6.556623671E-01
   285  2.045321585E+00
   286 -1.054022027E+00
   287  1.521409298E-03
   288 -6.732729827E-03
   289  2.614281420E-01
   290 -3.895376805E-03
   291 -2.025999590E-03
   292  2.924865031E-03
   293 -1.315604146E-01
   294 -8.109909628E-04
   295 -2.900173542E-02
   296  4.062702948E-01
   297 -2.680492029E-04
   298 -4.359431603E-04
   299  3.857928138E-03
   300  1.504067725E+00
   301 -1.681864194E-04
   302 -1.947940993E-05
   303  7.952543600E-03
   304 -3.352633312E-03
   305  5.712634070E-03
   306 -1.968679922E-03
   307 -4.404145105E-01
   308  2.576933314E-03
   309  4.860369588E-02
   310 -7.184698237E-01
   311  1.481019650E-03
   312 -5.634060966E-04
   313 -7.544533545E-04
   314 -4.183506679E+00
   315 -3.159158900E-03
   316 -9.155701965E-03
   317  6.406429800E-02
   318  2.955446985E-03
   319  9.492222075E-04
   320 -2.197027422E-03
   321  3.647743303E+00
   322  9.382119267E-05
   323 -8.553861372E-03
   324 -2.524220442E-02
   325  2.175917188E-03
   326 -4.066179589E-03
   327  4.509262785E-03
   328 -2.841769249E+00
   329  1.455641560E-03
   330 -1.286031447E-02
   331  3.902365606E-01
   332  2.836720217E-03
   333 -9.143742376E-04
   334  2.328607529E-03
   335  2.945388147E+00
   336  4.474911752E-03
   337  4.918739003E-02
   338 -6.713578059E-01
   339  2.461954844E-04
   340  6.166829615E-04
   341  7.980052764E-04
   342 -7.055617711E+00
   343 -4.123829002E-03
   344 -3.108648713E-02
   345  5.240145218E-01
   346  5.425655860E-04
   347 -6.819491852E-04
   348 -2.043354830E-03
   349  6.311055072E+00
   350  5.715153668E-03
   351  1.728642795E-02
   352  5.914869796E-01
   353  6.012843359E-03
   354 -4.195778236E-04
   355 -4.401011489E-03
   356  9.814495428E+00
   357 -4.727630037E-03
   358  1.412499036E-02
   359 -8.440451190E-01
   360 -1.427813429E-03
   361  7.163596283E-03
   362 -9.833293571E-04
   363 -1.065181630E+01
   364  2.531717913E-03
   365 -1.573909063E-02
   366  6.049180579E-01
   367 -3.693090770E-03
   368 -2.043632328E-03
   369 -3.071726334E-03
   370  7.804805343E+00
   371 -3.318555716E-03
   372 -9.498528775E-03
   373 -4.887703506E-01
   374 -3.549834217E-03
   375 -4.073947108E-03
   376  4.058865963E-03
   377 -6.600958799E+00
   378  1.499904975E-04
   379  1.416641577E-02
   380 -1.014860935E-01
   381 -9.223455678E-04
   382  1.722181577E-03
   383  1.784325222E-03
   384 -4.503116490E-01
   385  2.103234397E-03
   386  3.902771898E-02
   387 -1.033542348E-01
   388 -4.510386500E-03
   389 -4.904021346E-05
   390 -4.313252934E-03
   391 -2.300776423E+00
   392  4.590288686E-03
   393  1.897685854E-03
   394  1.791446191E-01
   395  1.146318873E-03
   396 -1.082574319E-03
   397  4.920065434E-03
   398  2.908868975E+00
   399 -2.170296540E-04
   400  1.775534563E-02
   401 -1.006259012E-01
   402  8.171641990E-04
   403  1.788823975E-03
   404  9.603842858E-04
   405 -1.063740227E+00
   406 -3.913263675E-03
   407  4.638150017E-03
   408 -1.806079856E-01
   409  7.463301368E-04
   410  1.806624721E-03
   411 -1.223944451E-03
   412 -1.292580371E+00
   413  5.628461415E-03
   414  2.278728813E-03
   415  1.694870556E-01
   416 -3.344877152E-03
   417 -2.218655792E-03
   418  1.019512497E-03
   419  2.551607085E+00
   420 -3.456143610E-03
   421 -5.862327344E-02
   422  9.874568419E-02
   423 -3.073417922E-03
   424  7.916551085E-03
   425 -9.357990172E-04
   426  3.122516621E+00
   427 -2.001680507E-03
   428 -1.965666008E-02
   429  1.559828600E-02
   430  8.139313963E-04
   431 -2.422388744E-03
   432 -3.447899282E-03
   433 -1.118311211E+00
   434 -3.553124925E-03
   435 -1.618223832E-02
   436  3.334747180E-03
   437  5.255226014E-03
   438 -2.886021973E-03
   439 -1.265429346E-03
   440 -2.443645611E+00
Ene=    1.0327945673E-01
Spin= Alpha
Occup=   0.0000000
     1  2.705252523E-03
     2  4.769993917E-03
     3  8.547140771E-03
     4 -1.561305444E-02
     5 -2.148098303E-03
     6 -2.021954498E-02
     7  1.489029814E-02
     8 -2.419903895E-02
     9 -6.090428485E-03
    10 -5.607702739E-03
    11  9.569892474E-02
    12 -2.146100173E-01
    13 -5.071239335E-04
    14 -7.037698588E-04
    15 -4.852594669E-03
    16 -3.961258551E-03
    17 -5.103034985E-03
    18 -4.314966534E-03
    19 -2.893054626E+01
    20  9.395302543E-01
    21 -4.061090648E+00
    22 -2.056008792E+00
    23  8.754052375E-03
    24  1.498279968E-02
    25  1.296527561E-02
    26 -1.734214000E-03
    27 -1.740712828E-02
    28 -6.010095000E-02
    29  2.554861709E-02
    30 -1.345139241E-02
    31 -2.784964471E-02
    32  1.157807831E-01
    33  1.494359579E-02
    34  1.238929242E-01
    35 -1.147084818E-01
    36 -6.627534312E-03
    37 -4.250909619E-04
    38 -5.698177241E-04
    39 -8.277802705E-03
    40 -9.302308777E-03
    41  1.612691614E+01
    42  1.046342189E+00
    43  2.898592927E-01
    44 -1.215759926E+00
    45 -6.401898983E-03
    46 -9.767265635E-03
    47  2.580172107E-02
    48 -2.542650064E-03
    49 -3.556827517E-02
    50  5.912263721E-03
    51  4.631357170E-02
    52 -5.173899137E-03
    53 -6.592813657E-02
    54  6.848164876E-01
    55  9.092032945E-02
    56 -2.821399048E-02
    57 -7.705408390E-02
    58  1.093877991E-02
    59 -1.881956236E-02
    60  2.013933210E-03
    61  6.435640035E-03
    62 -1.479850336E-03
    63 -9.577304626E+00
    64 -3.044847846E+00
    65 -9.055160764E-01
    66  4.652203833E+00
    67  8.727049061E-03
    68  1.476593614E-02
    69  1.321972234E-02
    70 -2.789942558E-03
    71 -1.713281646E-02
    72 -5.375682364E-02
    73  1.468597047E-02
    74 -4.546298229E-03
    75 -3.651325126E-02
    76  4.670221950E-03
    77  2.000399376E-01
    78 -1.037362767E-02
    79  4.758995434E-02
    80  5.610032243E-03
    81  1.121813048E-02
    82 -2.097540972E-03
    83  4.815269824E-03
    84 -2.269341895E-03
    85  8.825190747E+00
    86  2.518755649E+00
    87  8.942226308E-02
    88  5.889064632E-01
    89  2.941210046E-03
    90  5.054208676E-03
    91 -8.051635727E-03
    92  1.504526676E-03
    93 -1.440122158E-02
    94 -1.832858501E-02
    95 -7.394055665E-03
    96  1.678191598E-04
    97 -2.446566084E-02
    98 -9.499821546E-02
    99 -1.991160871E-01
   100  2.809934004E-02
   101 -1.684942290E-01
   102  3.175044320E-03
   103  1.101238581E-03
   104 -1.137005286E-03
   105  6.689495562E-03
   106 -1.832349796E-03
   107 -3.163664970E+01
   108 -7.644553536E+00
   109  1.198058143E-01
   110 -4.163548404E+00
   111  5.794539495E-03
   112  9.665504397E-03
   113  8.679813401E-03
   114 -9.041543654E-03
   115 -2.111979134E-02
   116 -2.692434122E-02
   117  1.118655330E-02
   118 -2.444162646E-02
   119 -4.363271794E-02
   120 -2.426537359E-01
   121  1.567561680E-01
   122  1.555761188E-01
   123  3.946915341E-02
   124 -5.805552392E-03
   125  4.745163375E-03
   126 -1.525894192E-03
   127 -5.087878571E-04
   128  4.460285002E-03
   129  1.923734440E+01
   130 -1.309646920E+00
   131 -2.243389321E-01
   132  3.287460990E+00
   133  8.040891810E-03
   134  1.363212586E-02
   135  1.271333698E-02
   136 -2.949668134E-03
   137 -1.683887153E-02
   138 -5.066655529E-02
   139  2.918183244E-02
   140  2.043776182E-03
   141 -2.541797723E-02
   142  2.538694694E-02
   143 -7.139986951E-02
   144 -1.230634925E-01
   145 -1.437440165E-01
   146 -6.360413969E-03
   147  1.821473832E-03
   148  2.750644728E-03
   149 -7.349840262E-04
   150  1.184764594E-02
   151  1.015902218E+01
   152 -3.124643162E-01
   153 -1.558920917E+00
   154 -2.294173093E+00
   155  3.196111471E-03
   156  5.459308860E-03
   157  1.302593638E-02
   158  1.083101729E-02
   159 -1.196862246E-03
   160 -1.906848990E-02
   161  2.074398763E-02
   162  1.308468871E-02
   163 -5.504937114E-03
   164 -1.022424403E-01
   165  1.811235831E-01
   166  1.968785929E-01
   167  6.374200000E-02
   168  7.446585082E-04
   169 -2.849681296E-03
   170  4.280538587E-03
   171 -2.307961893E-04
   172  5.907338888E-03
   173 -3.015984831E+01
   174  4.220302693E+00
   175  7.566903463E+00
   176  3.374747102E+00
   177  5.522761994E-03
   178  9.017642161E-03
   179  1.075506307E-02
   180  4.835428717E-03
   181 -1.904275860E-02
   182 -1.931963878E-02
   183  1.772520020E-02
   184  1.880420040E-02
   185 -3.791014488E-02
   186 -3.431216476E-01
   187  1.169113650E-01
   188 -2.331065502E-01
   189 -1.516434373E-02
   190 -4.854408902E-03
   191  4.576560547E-03
   192  1.830277109E-03
   193 -2.797284371E-03
   194 -2.953436630E-03
   195  1.399182476E+01
   196 -1.824036224E+00
   197 -1.035520562E+00
   198  1.751959372E+00
   199  5.922366331E-03
   200  9.868071578E-03
   201  2.013979774E-02
   202 -3.744452540E-03
   203 -1.255709103E-02
   204 -2.815431096E-02
   205  4.660627296E-02
   206 -8.109941171E-03
   207 -1.862508552E-02
   208 -2.167077214E-01
   209 -1.559111907E-01
   210  1.570519210E-02
   211 -1.659451156E-01
   212  8.451952932E-04
   213  8.224526818E-03
   214 -8.594447684E-04
   215 -1.367929972E-03
   216  2.210307116E-04
   217  9.117504906E+00
   218 -2.927738517E+00
   219 -1.096957321E+00
   220  5.791221661E-01
   221  1.024345426E-02
   222  1.729257273E-02
   223 -2.378378360E-02
   224  4.865559516E-03
   225 -1.752950700E-02
   226 -6.797118824E-02
   227 -2.442003550E-02
   228  6.662195301E-03
   229 -2.666777027E-02
   230  8.865231985E-02
   231 -2.662374916E-01
   232  4.525233630E-02
   233 -3.362876554E-02
   234  3.690668242E-03
   235 -4.510004707E-03
   236  5.754164898E-04
   237 -3.238129591E-03
   238  1.241615030E-03
   239  1.821353408E+01
   240 -4.287134120E+00
   241  6.631353532E-01
   242 -1.408672685E-01
   243  1.023959792E-02
   244  1.729011395E-02
   245  1.669930798E-02
   246  2.245567392E-02
   247  1.081101553E-02
   248 -6.868448163E-02
   249  2.422438757E-02
   250  2.580325604E-02
   251  8.029930080E-03
   252  9.699175418E-02
   253  5.117934382E-02
   254  2.055958165E-01
   255  1.830375190E-01
   256  9.735098810E-04
   257 -4.599556595E-03
   258 -3.694923018E-03
   259  3.142906952E-03
   260 -2.016442645E-03
   261  1.735658596E+01
   262  3.685577050E-01
   263  2.527492441E+00
   264  3.100861639E+00
   265  9.171255258E-03
   266  1.549818546E-02
   267  7.752756235E-03
   268 -2.719439148E-02
   269  8.123673575E-03
   270 -5.932682252E-02
   271  1.323250205E-02
   272 -3.217419455E-02
   273  6.600273832E-03
   274  3.918269226E-02
   275 -1.909162917E-02
   276 -1.885505005E-01
   277  1.347489839E-01
   278  2.032269954E-03
   279 -3.311919693E-03
   280  4.573097903E-03
   281  4.666781735E-03
   282 -3.700206771E-05
   283  1.215178272E+01
   284 -5.210561445E-01
   285 -2.220758628E+00
   286  2.462402210E+00
   287 -2.802414951E-03
   288  2.196886785E-02
   289 -2.409488496E-01
   290 -2.517495733E-03
   291  6.757290606E-03
   292 -1.577961317E-03
   293 -1.120709713E+00
   294 -2.827177863E-03
   295  2.286376580E-02
   296 -2.268887348E-01
   297 -1.989392338E-03
   298  6.640884443E-03
   299 -9.250098609E-04
   300 -1.279479465E+00
   301  2.108872256E-02
   302  3.923850751E-02
   303  1.079345834E-01
   304 -7.750775099E-03
   305  1.229184769E-03
   306  1.057512176E-02
   307 -1.943612292E+00
   308 -2.441401513E-03
   309  1.586837701E-02
   310 -1.984628340E-01
   311  5.389248929E-03
   312 -9.630304618E-04
   313  4.781763908E-03
   314 -1.954022270E+00
   315 -2.746176350E-03
   316  2.083219381E-02
   317 -1.606661522E-01
   318  5.301462889E-03
   319 -4.803103261E-04
   320  4.395176853E-03
   321 -1.336576882E+00
   322 -9.146975242E-03
   323  3.736460007E-03
   324 -4.493581612E-01
   325 -1.510466068E-04
   326  4.270341290E-03
   327  5.549670172E-03
   328 -4.429059686E-01
   329  2.797154676E-04
   330  4.352978331E-02
   331 -8.362065501E-01
   332  6.644327564E-03
   333  4.987793190E-03
   334 -1.252680303E-03
   335 -2.786363410E+00
   336 -2.506096751E-03
   337  1.422963155E-02
   338 -2.687193888E-01
   339 -4.352381562E-03
   340 -5.759296172E-03
   341 -2.157176316E-03
   342 -1.661709421E+00
   343 -2.777771045E-03
   344  2.050567396E-02
   345 -1.984299146E-01
   346 -4.358776968E-03
   347 -4.613685865E-03
   348 -2.271371265E-03
   349 -1.077767778E+00
   350 -8.842834697E-03
   351 -2.517466724E-03
   352 -4.812235429E-01
   353 -1.449692449E-03
   354 -5.002647141E-03
   355  4.958121931E-03
   356 -5.422308639E-01
   357 -2.101356813E-04
   358  4.364468362E-02
   359 -8.800820221E-01
   360  4.752571221E-03
   361 -5.734427189E-03
   362 -2.784601639E-03
   363 -2.849704480E+00
   364  8.139130030E-04
   365  3.859185638E-02
   366 -7.228755788E-01
   367 -3.027783719E-03
   368  7.897829982E-04
   369 -7.597119004E-03
   370 -3.128265302E+00
   371 -8.397394683E-03
   372 -2.822096953E-03
   373 -2.794682776E-01
   374 -6.567032556E-03
   375  9.542271371E-04
   376  8.828106919E-04
   377 -4.728799932E-01
   378 -1.723801874E-03
   379  1.428952933E-02
   380  1.053710604E-02
   381 -1.598799378E-03
   382  5.928505501E-03
   383  4.128091785E-03
   384 -7.823002998E-01
   385  6.989171985E-03
   386  3.273984427E-02
   387  2.183490736E-01
   388  2.169595757E-03
   389 -1.304071345E-04
   390 -3.942320436E-03
   391  1.773771508E+00
   392 -1.779088631E-03
   393  1.969210747E-02
   394 -4.080639609E-02
   395 -3.025108221E-03
   396 -5.372637830E-03
   397  3.699716221E-03
   398 -8.581490110E-01
   399  7.441038973E-03
   400  2.798099115E-02
   401  2.778629443E-01
   402  3.453298920E-03
   403  1.915853995E-04
   404 -3.449620947E-03
   405  1.729569856E+00
   406 -1.764468172E-03
   407  1.461181861E-02
   408  2.647102633E-03
   409 -6.648628923E-03
   410  3.465940039E-03
   411  1.173421781E-03
   412 -9.227855037E-01
   413 -1.683019824E-03
   414  1.584324966E-02
   415  3.894012803E-02
   416  3.467879299E-04
   417 -3.506105760E-03
   418  5.849886904E-03
   419 -9.280947216E-01
   420  7.257317039E-03
   421  3.670176506E-02
   422  1.322326249E-01
   423  2.930322303E-03
   424 -9.026308156E-04
   425 -3.138168256E-03
   426  1.927777431E+00
   427 -2.311105977E-03
   428  1.913243087E-02
   429 -6.080861612E-02
   430  1.150700798E-03
   431  1.669087712E-03
   432  6.299997934E-03
   433 -8.084746841E-01
   434 -2.241467949E-03
   435  2.121910463E-02
   436 -1.194224804E-01
   437 -6.742442921E-03
   438 -1.513392671E-03
   439  1.426267348E-03
   440 -8.093308720E-01
Ene=    1.0737417647E-01
Spin= Alpha
Occup=   0.0000000
     1  3.881672807E-03
     2  6.282718772E-03
     3  7.797018025E-03
     4  5.667478124E-03
     5 -1.347179660E-02
     6 -1.231284199E-02
     7  6.726215899E-03
     8  2.971161328E-04
     9 -6.970308209E-03
    10 -2.029096219E-01
    11 -1.698532985E-02
    12  2.486691795E-01
    13 -1.299514298E-01
    14 -9.270633452E-04
    15 -7.152857648E-03
    16  6.920331823E-03
    17  1.138474401E-03
    18 -6.720267189E-03
    19 -2.396297792E+01
    20 -6.630450124E+00
    21  9.017385325E+00
    22 -3.152987748E+00
    23 -5.381656085E-03
    24 -9.691256718E-03
    25 -3.448462727E-04
    26  2.218032070E-02
    27 -9.628112705E-03
    28  5.393483750E-02
    29 -1.130462156E-03
    30  2.625791211E-02
    31 -4.358244079E-03
    32 -2.171351159E-01
    33 -3.716648381E-02
    34  2.785117554E-01
    35 -1.964922359E-01
    36  1.812288266E-03
    37  4.709537583E-03
    38 -9.825415301E-03
    39 -3.160328673E-03
    40  5.968577219E-03
    41 -2.135398019E+01
    42 -1.788265266E+00
    43  2.864405521E+00
    44  6.434098809E-01
    45 -2.869532953E-02
    46 -4.738477064E-02
    47 -1.959401909E-02
    48  1.315013324E-03
    49  2.908645542E-02
    50  1.453768548E-01
    51 -5.511984943E-02
    52  5.365898462E-03
    53  7.179797245E-02
    54  4.127648157E-01
    55  2.621947965E-01
    56 -2.813862724E-02
    57 -2.279556663E-01
    58 -3.798386201E-03
    59  5.778835750E-03
    60  3.816042088E-04
    61 -3.023360722E-03
    62  5.974329820E-04
    63  5.404254083E+01
    64  1.343452620E+01
    65 -1.331948540E+00
    66 -1.685387889E+01
    67 -3.901280488E-03
    68 -7.273910267E-03
    69  2.443931833E-02
    70 -3.029325283E-03
    71  8.097328999E-03
    72  4.794164355E-02
    73  2.793460864E-02
    74 -1.888863137E-03
    75  1.440582225E-02
    76 -2.822522392E-01
    77  3.475112750E-01
    78 -7.096536404E-02
    79  1.017703522E-01
    80 -1.170413975E-02
    81  8.334870141E-04
    82  1.113293692E-03
    83  4.209001818E-03
    84 -1.722095301E-03
    85 -3.184727675E+01
    86  2.162952914E+00
    87 -8.101231192E-01
    88  6.102853364E+00
    89  4.762629026E-03
    90  7.670706072E-03
    91  1.360791855E-02
    92 -2.541298948E-03
    93 -4.685238384E-03
    94 -1.425677046E-02
    95  6.009545359E-03
    96 -2.265065190E-03
    97 -4.505214818E-03
    98 -2.829961249E-01
    99  2.425051719E-01
   100 -3.939220912E-02
   101  1.727725923E-01
   102  1.069661845E-02
   103 -2.474930803E-03
   104 -8.476816672E-04
   105 -1.972171185E-03
   106  1.004530278E-03
   107 -3.206029873E+01
   108  6.066197772E+00
   109 -1.506908493E+00
   110  1.124217138E+01
   111  2.413953173E-03
   112  5.004035861E-03
   113 -9.048194878E-03
   114 -1.900406977E-02
   115 -8.796337402E-03
   116 -4.692200445E-02
   117 -1.210781305E-02
   118 -2.752800906E-02
   119 -1.513052355E-02
   120  4.442200914E-01
   121 -2.011456382E-01
   122 -2.866218519E-01
   123 -5.110361278E-02
   124 -2.450940844E-04
   125  7.446143504E-03
   126  7.420844913E-03
   127 -4.682698475E-03
   128  1.930432761E-03
   129  4.198893370E+01
   130 -7.055197523E+00
   131 -5.664238896E+00
   132  8.625786074E-01
   133 -6.103677052E-03
   134 -1.093529594E-02
   135 -5.748454276E-03
   136 -1.840837405E-02
   137 -1.173880162E-02
   138  5.947209281E-02
   139 -7.425036605E-03
   140 -2.300356764E-02
   141 -8.762602549E-03
   142 -2.127110330E-01
   143 -1.102338832E-01
   144 -2.154778550E-01
   145 -2.021944959E-01
   146  2.350482185E-03
   147  8.401407093E-03
   148  8.023844193E-03
   149 -5.796745483E-03
   150 -3.677555587E-03
   151 -2.289057695E+01
   152 -3.040037335E+00
   153 -2.440249831E+00
   154  5.056816766E-01
   155  6.077509754E-03
   156  9.943407862E-03
   157  6.697441197E-03
   158 -5.934439940E-03
   159 -1.430713647E-02
   160 -2.661502529E-02
   161  7.612080322E-03
   162 -1.545504890E-03
   163 -6.666360898E-03
   164 -2.099030252E-01
   165 -9.634487486E-02
   166 -2.116340573E-01
   167 -1.698488283E-01
   168 -1.155417129E-03
   169 -8.347270716E-03
   170 -4.585053712E-03
   171  4.600282094E-03
   172  5.341456719E-03
   173 -2.099901197E+01
   174 -9.191330205E+00
   175 -6.403449263E+00
   176 -4.231417069E+00
   177  2.592116494E-03
   178  5.238002726E-03
   179 -4.812125127E-03
   180  2.040418590E-02
   181 -4.187023627E-03
   182 -4.619470613E-02
   183 -6.447703804E-03
   184  2.950603522E-02
   185 -8.776036124E-03
   186  4.280785773E-01
   187 -9.817706673E-02
   188  3.388220547E-01
   189  1.238681817E-02
   190 -7.809458410E-04
   191  4.109397678E-03
   192 -8.322400171E-03
   193 -6.545311796E-03
   194  1.503245157E-03
   195  4.170489240E+01
   196 -4.688375184E+00
   197  7.489768635E+00
   198  2.095046705E+00
   199  3.240515408E-03
   200  6.277316715E-03
   201  2.338518301E-02
   202 -5.651632637E-03
   203  1.344217508E-02
   204 -5.010576611E-02
   205  3.921914029E-02
   206 -9.472715098E-03
   207  1.624174068E-02
   208  4.896608487E-01
   209  2.129554977E-01
   210 -3.289059561E-02
   211  2.792931567E-01
   212 -7.967387895E-03
   213  5.699301190E-03
   214  3.544644458E-04
   215  8.006124717E-03
   216 -2.834267968E-03
   217  1.544183889E+01
   218  1.427679820E+00
   219 -1.848131487E-01
   220  3.133843545E+00
   221  1.077698267E-02
   222  1.778127796E-02
   223 -6.865044224E-04
   224  3.304659420E-04
   225 -2.558419714E-03
   226 -5.252081878E-02
   227  2.747033603E-03
   228 -6.984065933E-04
   229 -9.787054880E-03
   230 -2.431225783E-01
   231 -8.045272666E-03
   232  4.187574498E-03
   233  4.589579617E-02
   234  1.251960183E-03
   235 -2.788115062E-03
   236 -5.729141122E-04
   237  2.822400120E-03
   238 -6.137151970E-04
   239 -5.294799481E-01
   240 -1.187857865E-01
   241  1.899207159E-01
   242 -1.154513779E-01
   243  9.227679949E-03
   244  1.507108843E-02
   245  1.860517705E-03
   246 -6.538870341E-04
   247  3.053631567E-03
   248 -3.956241455E-02
   249  7.122983768E-03
   250 -3.069350559E-03
   251  1.419091084E-03
   252 -3.061710496E-01
   253 -5.801292779E-02
   254 -2.417125333E-02
   255 -1.682338890E-03
   256  1.986100047E-03
   257 -5.276990497E-03
   258  1.334553617E-03
   259  2.159437166E-03
   260  5.153630974E-04
   261 -4.650250504E+00
   262 -4.148322053E-01
   263 -7.366723123E-01
   264  8.196244313E-02
   265  8.780744943E-03
   266  1.448689919E-02
   267  2.239006529E-03
   268  8.188800181E-04
   269  2.943469995E-03
   270 -4.156819797E-02
   271  7.669602345E-03
   272  2.141487351E-03
   273  2.551266952E-03
   274 -2.354228469E-01
   275 -3.821715676E-02
   276  2.723436801E-02
   277  1.027860617E-03
   278  1.799605949E-03
   279 -5.537954209E-03
   280 -2.012439427E-03
   281  3.950685264E-04
   282 -9.721985655E-04
   283 -3.534716792E+00
   284 -1.809419668E-01
   285  8.109092849E-01
   286  2.529453928E-01
   287 -2.453525119E-03
   288 -3.098894929E-02
   289 -4.844735166E-02
   290  6.034922727E-03
   291  2.683509614E-03
   292 -7.271922105E-03
   293  7.756051054E-03
   294 -2.384881525E-03
   295 -2.890296434E-02
   296  7.381534614E-02
   297  2.595236878E-03
   298 -5.895649405E-04
   299 -8.515064599E-03
   300  3.942856916E-01
   301  5.968648576E-03
   302 -5.639657747E-02
   303  5.473017783E-01
   304  1.042028055E-02
   305 -5.952854038E-04
   306 -1.418063619E-02
   307  1.199173031E+01
   308 -1.224099518E-03
   309 -3.271025623E-02
   310  2.562104313E-01
   311  6.106993460E-03
   312 -2.986349988E-03
   313 -6.572288845E-03
   314 -9.216950419E-01
   315 -2.518740244E-03
   316 -3.322472878E-02
   317  2.078428137E-01
   318  7.298423157E-03
   319  1.160185473E-03
   320 -5.877690689E-03
   321 -7.648350975E-01
   322 -1.441735212E-02
   323 -2.604196449E-02
   324 -4.128794431E-01
   325 -2.445126042E-03
   326 -4.430254387E-03
   327 -3.229044292E-03
   328 -1.185880358E+00
   329  1.247993999E-02
   330  9.244197353E-02
   331 -2.373741596E-01
   332  2.402239075E-03
   333  4.872668971E-03
   334  5.765753047E-03
   335  1.063028760E+00
   336 -1.742682293E-03
   337 -2.763555160E-02
   338 -4.017489597E-03
   339  5.375711303E-03
   340 -3.826125314E-03
   341 -8.371767961E-03
   342 -2.434884975E-01
   343 -2.420321230E-03
   344 -3.000972647E-02
   345  1.158786217E-01
   346  3.305490295E-03
   347  3.477473319E-04
   348 -9.316931839E-03
   349  2.846306357E-01
   350 -1.347214198E-02
   351 -1.814025400E-02
   352 -3.952767123E-01
   353 -1.149370956E-03
   354  5.144561263E-03
   355 -3.727862183E-03
   356 -5.117390116E-01
   357  1.238660573E-02
   358  9.247593850E-02
   359 -2.904781133E-01
   360 -2.645986529E-04
   361 -5.544887198E-03
   362  5.203156239E-03
   363  4.646475733E-01
   364  1.526712735E-02
   365  8.602462425E-02
   366  1.139344261E-01
   367 -9.353764071E-03
   368  1.072050147E-03
   369 -2.768796218E-04
   370 -8.669206986E-02
   371 -1.169660833E-02
   372 -3.953604624E-02
   373  1.432840835E-01
   374  6.653031590E-03
   375 -1.927304632E-03
   376  3.154102986E-03
   377 -1.165267868E+00
   378 -4.179317034E-03
   379  2.892140318E-02
   380 -2.452374108E-01
   381 -1.608069498E-03
   382  2.106378601E-03
   383  1.644979158E-03
   384 -1.100406329E+00
   385  1.065437334E-02
   386  5.895701213E-02
   387  8.849604391E-02
   388  2.465801603E-03
   389 -3.599446569E-05
   390 -1.086907960E-03
   391  1.497593602E+00
   392 -2.446744616E-03
   393  3.058771236E-02
   394 -1.985069083E-01
   395 -2.563505584E-03
   396 -1.565542633E-03
   397  2.115455573E-03
   398 -8.135551472E-01
   399  1.268502312E-02
   400  5.627151880E-02
   401  1.022165610E-01
   402  2.350317357E-03
   403 -8.418582895E-04
   404 -2.042439525E-03
   405  1.851908682E+00
   406 -3.054342661E-03
   407  2.685645721E-02
   408 -2.842600600E-01
   409 -2.688513291E-03
   410  1.501104577E-03
   411  3.540589210E-03
   412 -1.184457403E+00
   413 -3.392172508E-03
   414  2.677873229E-02
   415 -1.881821256E-01
   416 -1.359927927E-03
   417  1.026790387E-03
   418  2.486372290E-03
   419 -8.699997661E-01
   420  1.155817477E-02
   421  5.362327913E-02
   422  8.434483397E-02
   423  2.132947964E-03
   424  1.409539932E-03
   425 -2.324460634E-03
   426  2.004012284E+00
   427 -4.706459835E-03
   428  2.327410557E-02
   429 -1.838803237E-01
   430 -1.470923319E-03
   431 -8.035951136E-04
   432  1.827863633E-03
   433 -1.189985941E+00
   434 -4.031612810E-03
   435  2.747896201E-02
   436 -2.866775557E-01
   437 -2.723151336E-03
   438 -5.353173018E-04
   439  3.058627371E-03
   440 -1.335415353E+00
Ene=    1.1448856037E-01
Spin= Alpha
Occup=   0.0000000
     1  2.025440792E-03
     2  3.004730668E-03
     3 -1.589028838E-02
     4  4.538547123E-04
     5 -7.726624901E-03
     6 -1.198276303E-03
     7 -2.997368284E-02
     8  2.881579130E-03
     9 -2.043761447E-02
    10 -2.377300827E-01
    11 -1.015308763E-01
    12 -2.931809740E-02
    13  6.002073597E-02
    14 -2.110620639E-03
    15  4.989138647E-04
    16  1.793592362E-03
    17  8.145485655E-03
    18 -2.839302892E-04
    19 -1.969767603E+00
    20  3.613818547E+00
    21 -6.091505645E+00
    22  8.222924595E+00
    23 -3.278292638E-04
    24 -9.364737028E-04
    25 -3.645919427E-02
    26 -2.047038440E-03
    27 -2.796867773E-02
    28  1.518421106E-02
    29 -7.262325641E-02
    30 -8.740260232E-03
    31 -5.508256708E-02
    32 -2.250979172E-01
    33  2.611895349E-03
    34  1.060881067E-01
    35  5.012059977E-02
    36 -7.799288711E-04
    37 -1.123323486E-03
    38 -8.824975550E-04
    39 -2.496754153E-03
    40  4.067713240E-03
    41 -7.734579939E+00
    42  2.718891297E+00
    43  3.231760992E+00
    44  2.023966812E+00
    45 -3.232609637E-03
    46 -5.312348486E-03
    47 -3.848111917E-03
    48 -6.349748876E-04
    49 -1.044281832E-03
    50  1.582818227E-02
    51 -7.183701285E-03
    52  1.647416037E-03
    53  1.101997888E-03
    54  5.865187498E-02
    55 -1.475786950E-01
    56 -1.863097049E-02
    57 -1.366534078E-01
    58  3.944503150E-04
    59  2.213284616E-03
    60 -3.600291783E-03
    61  1.018595068E-02
    62 -4.897684382E-03
    63 -1.714789571E+00
    64 -6.630319900E+00
    65 -3.704642915E-01
    66 -5.441302349E+00
    67 -4.181018128E-03
    68 -6.193835632E-03
    69 -2.078774634E-02
    70 -2.964571881E-03
    71 -2.339258898E-02
    72 -1.104182425E-03
    73 -3.735567897E-02
    74 -7.692902338E-03
    75 -3.956286187E-02
    76  5.034105703E-01
    77 -8.085947439E-02
    78  2.959326775E-02
    79 -1.848497173E-01
    80  2.236214748E-04
    81  6.935888247E-03
    82 -9.870757701E-04
    83 -6.905250405E-04
    84  9.469053504E-04
    85  3.273917917E+01
    86 -2.820941675E+00
    87  1.502142195E+00
    88 -5.379440319E+00
    89 -1.387658741E-03
    90 -1.654212077E-03
    91 -2.113460696E-03
    92 -7.545430758E-04
    93 -2.806426715E-02
    94 -1.399332900E-02
    95 -1.573036363E-02
    96  1.733110352E-05
    97 -4.422602165E-02
    98  4.684794135E-01
    99  2.089646842E-01
   100 -1.386446276E-02
   101 -2.112726612E-01
   102  4.013350764E-03
   103  1.975544193E-03
   104 -2.382014526E-03
   105  1.471802194E-02
   106 -5.419516213E-03
   107  1.935776275E+01
   108  2.272280479E+01
   109 -9.162553609E-01
   110 -7.602274085E+00
   111  3.699417683E-03
   112  6.083125269E-03
   113 -2.373467990E-02
   114 -5.445956438E-03
   115 -2.744015845E-02
   116 -2.200254945E-02
   117 -3.486307664E-02
   118 -1.373592869E-02
   119 -5.449091262E-02
   120  8.559280097E-02
   121 -1.954896014E-01
   122  5.286971529E-02
   123 -3.355606684E-02
   124 -5.193393293E-04
   125 -3.979217824E-03
   126  4.620650046E-03
   127 -1.075765667E-02
   128  2.212132698E-03
   129 -3.046912616E+01
   130  2.395314599E+00
   131  7.063783018E+00
   132  6.843034578E-01
   133  3.179975629E-03
   134  4.893986718E-03
   135 -3.341765441E-02
   136  6.277429262E-03
   137 -2.737646750E-02
   138 -4.503870583E-03
   139 -6.399856908E-02
   140  1.874818797E-02
   141 -5.184731155E-02
   142 -2.898905658E-01
   143 -5.026034272E-02
   144 -1.345103466E-01
   145  1.353478659E-02
   146  1.367509604E-03
   147 -2.102076723E-03
   148  1.710661252E-03
   149 -3.013015449E-03
   150 -2.254364692E-03
   151 -1.619390414E+01
   152 -1.277534224E-01
   153 -5.134401707E+00
   154  1.353659759E+00
   155  2.088345601E-03
   156  3.011575487E-03
   157 -2.153843660E-02
   158 -9.763816374E-04
   159 -1.508421524E-03
   160  4.148299245E-03
   161 -3.592778798E-02
   162  7.433905769E-05
   163 -1.182912445E-02
   164 -3.383031238E-01
   165 -1.825813035E-01
   166  1.399016893E-02
   167  1.188052054E-01
   168 -3.235930973E-03
   169  1.138413292E-03
   170 -5.158517620E-03
   171  5.768788686E-03
   172 -7.364384320E-03
   173 -1.543371324E+01
   174 -7.855886024E-02
   175  3.822589044E+00
   176  1.003009334E+01
   177  1.843572108E-03
   178  3.282332576E-03
   179 -2.268004481E-02
   180  5.704141374E-03
   181 -2.473387020E-02
   182 -1.920819173E-02
   183 -3.182101449E-02
   184  1.282785104E-02
   185 -4.499457207E-02
   186  1.611294716E-01
   187 -2.449077056E-01
   188  6.174508556E-05
   189 -8.026967620E-02
   190 -2.708987173E-03
   191 -4.423770463E-03
   192  1.488107470E-03
   193 -8.963708814E-03
   194  6.772059484E-03
   195 -6.554594678E+00
   196 -3.132198904E+00
   197 -3.248588964E+00
   198 -6.254659516E-02
   199 -6.307733459E-03
   200 -1.062866165E-02
   201 -3.248277405E-02
   202  1.782584614E-03
   203 -1.849068424E-02
   204  4.273630245E-02
   205 -6.786214659E-02
   206  7.093926309E-03
   207 -2.509984917E-02
   208 -1.762568721E-01
   209  5.131792479E-02
   210 -6.415180490E-02
   211 -1.761433697E-01
   212 -5.114335277E-04
   213 -8.586746211E-04
   214  1.337717337E-03
   215 -8.080899097E-03
   216  4.880382582E-03
   217  2.760969798E+01
   218  5.551869707E+00
   219 -1.757152775E+00
   220  4.768800153E+00
   221 -1.072688929E-02
   222 -1.787844853E-02
   223 -6.371132011E-03
   224 -4.891093281E-03
   225 -2.804657340E-03
   226  6.875440758E-02
   227 -8.519034187E-03
   228 -7.993482753E-03
   229 -1.342376208E-02
   230 -9.932022093E-02
   231  9.237908202E-02
   232 -3.073468546E-02
   233  1.426820921E-01
   234  1.293684940E-02
   235 -4.208961653E-03
   236  6.681858208E-04
   237  3.429855528E-03
   238 -1.425402657E-03
   239 -2.701380258E+01
   240  3.787590616E+00
   241 -1.089460093E+00
   242  5.096207519E+00
   243  8.616284302E-03
   244  1.427083746E-02
   245 -1.427298052E-02
   246  1.524530247E-02
   247 -1.954546597E-02
   248 -5.021574799E-02
   249 -2.673838834E-02
   250  2.408574182E-02
   251 -2.857618327E-02
   252 -8.003058756E-03
   253  5.480381229E-02
   254  8.955940946E-02
   255 -3.413569779E-02
   256  9.386668274E-04
   257  6.999415541E-03
   258 -7.382309753E-04
   259 -3.992423562E-03
   260 -2.575351574E-03
   261  1.392794887E+01
   262  2.351554058E+00
   263  2.051188775E+00
   264  5.638004815E-01
   265  4.426538009E-03
   266  7.244796928E-03
   267 -2.498472104E-02
   268 -9.101469784E-03
   269 -2.194669016E-02
   270 -2.441214560E-02
   271 -4.335144425E-02
   272 -1.588110940E-02
   273 -3.365954650E-02
   274 -8.911976520E-03
   275 -3.458678220E-03
   276 -5.373984619E-02
   277 -4.094590562E-02
   278  1.911365109E-03
   279  3.721244205E-03
   280  4.182050081E-04
   281 -2.190955475E-03
   282  1.120879826E-03
   283  1.190219106E+01
   284  7.724706277E-01
   285 -2.228589524E+00
   286  1.032741450E+00
   287 -3.161963629E-04
   288 -4.790032654E-02
   289  5.191320369E-01
   290  7.861292622E-03
   291 -3.345592379E-03
   292  6.015555222E-03
   293  2.571156039E+00
   294 -1.054569661E-04
   295  3.418354745E-02
   296 -5.081633346E-01
   297  2.349286718E-03
   298  7.142778421E-03
   299 -1.449858305E-03
   300 -3.160943377E+00
   301  3.123218290E-03
   302 -8.444033357E-03
   303  1.773109785E-01
   304 -2.502541239E-03
   305 -8.343875148E-04
   306 -2.699157647E-03
   307  1.121379116E+00
   308 -6.054318353E-04
   309  2.803369862E-02
   310 -2.634953885E-01
   311  5.325131544E-03
   312  4.509600875E-03
   313 -3.229345992E-04
   314  3.920365266E-01
   315 -7.848556472E-04
   316  6.735722551E-03
   317 -5.091096569E-02
   318  8.585728294E-04
   319 -3.606778330E-03
   320 -1.743301586E-03
   321  1.237061767E+00
   322  3.161376822E-03
   323 -2.834802863E-02
   324  9.121701555E-01
   325 -3.527856405E-03
   326 -3.576175038E-03
   327 -1.827322233E-03
   328  1.510266728E+00
   329  1.159678526E-02
   330  3.997887406E-02
   331  3.802167422E-01
   332 -5.089282848E-03
   333  9.809770992E-03
   334  3.203688556E-03
   335 -2.288261585E+00
   336  2.353484462E-04
   337 -4.140344194E-02
   338  5.557251017E-01
   339  7.041607237E-03
   340 -3.954072662E-04
   341  5.515764509E-03
   342  1.661591791E+00
   343 -3.279129081E-04
   344  2.406896959E-02
   345 -3.117852848E-01
   346 -5.802183408E-04
   347 -5.743902567E-03
   348 -9.847990203E-04
   349 -3.390026683E+00
   350  5.503111208E-04
   351 -1.313281052E-02
   352  3.977976794E-01
   353 -1.165341866E-03
   354  2.809840721E-03
   355 -7.302034599E-04
   356  1.249282892E+00
   357  5.961253068E-03
   358  2.919512874E-02
   359  7.838099276E-02
   360 -8.587782674E-03
   361 -7.348580641E-03
   362 -1.240236170E-03
   363 -1.225079711E+00
   364 -1.175024980E-02
   365 -4.558871155E-02
   366 -3.433047212E-01
   367  1.147457254E-02
   368 -3.931729910E-03
   369 -2.314694709E-03
   370  3.552737414E+00
   371 -7.479713312E-03
   372  7.294563944E-03
   373 -1.198257544E+00
   374 -6.128811203E-03
   375  1.458850175E-03
   376 -2.647535916E-03
   377 -1.844195747E+00
   378 -7.525160569E-03
   379 -1.665557030E-02
   380 -2.556018762E-01
   381 -5.856401429E-03
   382 -6.364443489E-03
   383  4.792217799E-03
   384 -1.203123311E+00
   385  1.540748954E-02
   386  1.520614538E-02
   387  3.546686505E-01
   388 -5.717596704E-03
   389  1.315019983E-06
   390 -2.408120699E-03
   391  3.262778208E+00
   392 -8.170417648E-03
   393 -2.075873427E-02
   394 -2.241784551E-01
   395 -1.538682935E-03
   396  9.017798491E-03
   397  3.722252807E-03
   398 -6.951795781E-01
   399 -6.983112098E-03
   400  3.497336271E-03
   401 -2.627952783E-01
   402 -3.865179150E-03
   403 -1.205703358E-03
   404 -2.738686211E-03
   405 -1.628394639E+00
   406  5.152783389E-03
   407  4.714890689E-03
   408  2.382189606E-01
   409  2.502637295E-03
   410  6.001141846E-04
   411 -6.605563118E-03
   412  1.377444757E+00
   413  3.177994169E-03
   414  2.914649080E-02
   415 -1.996358865E-03
   416  4.951913980E-03
   417 -5.977465258E-03
   418  5.102293737E-03
   419 -8.493651678E-01
   420 -2.660002237E-03
   421  1.946787734E-03
   422 -1.670281078E-01
   423 -3.095846203E-03
   424  5.636619425E-04
   425 -2.696523818E-03
   426 -5.582661363E-01
   427  9.196788540E-04
   428  2.284288299E-02
   429 -1.231649829E-01
   430  3.117827097E-03
   431  3.011894801E-03
   432  6.583897930E-03
   433 -1.334016075E+00
   434  3.577332686E-03
   435 -8.738810743E-03
   436  2.101924004E-01
   437  4.959659166E-03
   438  1.137132302E-03
   439 -3.997322357E-03
   440  1.583409942E+00
Ene=    1.1525924255E-01
Spin= Alpha
Occup=   0.0000000
     1 -2.429444302E-03
     2 -3.309326502E-03
     3  8.227324344E-03
     4 -1.879363856E-02
     5 -1.190017349E-02
     6 -9.851444485E-03
     7  9.744058760E-03
     8 -4.085593771E-02
     9 -1.224714382E-02
    10  4.900926353E-01
    11  1.120442949E-01
    12  1.367026935E-02
    13 -2.098304969E-01
    14 -1.076196451E-03
    15 -6.778995208E-03
    16 -1.074375188E-02
    17 -6.847167098E-03
    18 -5.111402975E-03
    19  1.259183293E+01
    20  3.396197359E+00
    21  1.136449252E+01
    22 -1.411106830E+01
    23 -2.392749719E-03
    24 -3.273877857E-03
    25 -3.692143479E-03
    26 -3.720648484E-02
    27 -3.571910997E-03
    28 -9.097132264E-03
    29 -9.838847577E-03
    30 -6.395065805E-02
    31 -9.454486514E-03
    32  4.437177203E-01
    33  8.381889074E-02
    34 -1.574612927E-01
    35 -2.793855249E-02
    36 -3.873048528E-03
    37  2.206558621E-03
    38  2.730125766E-03
    39 -1.875140020E-03
    40 -1.870445330E-03
    41  2.073256237E+01
    42  2.364590487E+00
    43 -2.904018054E+00
    44  2.192643544E+00
    45 -2.074393116E-04
    46 -3.664260078E-04
    47 -1.543366691E-03
    48 -2.162478517E-03
    49  2.056687129E-03
    50  2.016344143E-03
    51 -2.948272541E-03
    52 -9.535282036E-03
    53  4.720785828E-03
    54 -1.152586561E-02
    55 -1.552715372E-03
    56 -8.897001472E-02
    57  1.518559012E-02
    58 -1.112893952E-03
    59 -2.103398746E-03
    60 -9.750747261E-03
    61 -4.719965896E-03
    62 -5.248694008E-03
    63 -2.797425769E+00
    64 -4.539813432E-01
    65 -8.207728756E+00
    66  4.150241088E-01
    67  3.874009255E-04
    68  5.300479191E-04
    69 -5.158399603E-03
    70 -5.105668614E-02
    71  3.709724177E-03
    72  1.406407510E-03
    73 -1.148582852E-02
    74 -1.017461145E-01
    75  4.616205540E-03
    76 -8.076809617E-02
    77  1.655459760E-02
    78  9.957183769E-03
    79  4.542903605E-02
    80 -1.402376935E-04
    81 -1.289892355E-03
    82  1.673036589E-03
    83  1.644894400E-03
    84  2.763328956E-03
    85 -3.439919242E+00
    86  9.244955927E-01
    87  5.625408514E+00
    88  6.616928307E-01
    89 -4.119750035E-04
    90 -8.005246581E-04
    91 -2.658165450E-03
    92 -1.824828107E-02
    93  4.178566902E-03
    94  6.606375816E-03
    95 -3.691808863E-03
    96 -3.700781795E-02
    97  6.574379314E-03
    98 -7.639207464E-02
    99 -5.238016946E-02
   100 -7.034755731E-02
   101  2.684118553E-02
   102 -1.262268379E-03
   103 -1.147381062E-03
   104 -7.005440361E-03
   105 -3.292635380E-03
   106  1.473036377E-03
   107 -4.460813005E+00
   108 -4.988644667E+00
   109 -1.303982962E+00
   110  1.174005789E+00
   111  3.977688705E-03
   112  6.740617780E-03
   113 -1.845982700E-03
   114 -3.750840825E-02
   115 -4.296089824E-03
   116 -2.792453079E-02
   117 -1.543459821E-03
   118 -6.701053689E-02
   119 -1.858554926E-02
   120  1.121742915E-01
   121 -1.852026523E-02
   122 -1.361735185E-01
   123  1.434428534E-01
   124  3.048296795E-03
   125  2.618142940E-03
   126  7.332825037E-03
   127  4.672251776E-03
   128  4.606023177E-03
   129 -6.518992945E+00
   130  2.759226935E+00
   131  1.103480841E+00
   132  4.232099724E+00
   133  1.477870690E-03
   134  1.941759817E-03
   135  1.419505521E-03
   136 -4.180409780E-02
   137  1.198597627E-02
   138  7.790061471E-03
   139  9.628047140E-03
   140 -7.733426399E-02
   141  2.403191766E-02
   142 -3.252495823E-01
   143 -1.305637501E-01
   144 -7.656744889E-02
   145  2.496899732E-02
   146  4.671992375E-03
   147 -8.122540340E-04
   148  2.202081255E-03
   149  1.589891034E-03
   150 -2.131511718E-03
   151 -1.816932289E+01
   152 -3.823313808E+00
   153  3.682366233E-01
   154 -2.187215703E+00
   155  1.657871432E-03
   156  2.206347476E-03
   157 -9.139556095E-03
   158 -1.766180728E-02
   159  1.254317176E-02
   160  8.727396969E-03
   161 -1.359395271E-02
   162 -3.728234554E-02
   163  1.619119120E-02
   164 -3.669867313E-01
   165 -6.375717434E-02
   166 -9.229702508E-03
   167  1.924568672E-01
   168 -5.592945084E-04
   169  2.700224555E-03
   170 -1.200168932E-02
   171 -1.038841022E-03
   172 -6.619191841E-03
   173 -1.150710768E+01
   174 -1.377244816E+00
   175  8.080466487E+00
   176  1.397255652E+01
   177 -5.357355078E-03
   178 -9.027560597E-03
   179 -4.904770802E-03
   180 -4.076160525E-02
   181  1.151162565E-02
   182  3.626771644E-02
   183 -1.405091239E-02
   184 -7.443982597E-02
   185  3.440914956E-02
   186 -1.298309901E-01
   187  6.115420166E-02
   188 -1.232478209E-01
   189 -1.432204986E-01
   190 -8.923290066E-04
   191  2.094527020E-03
   192  8.663623947E-03
   193  2.759056690E-03
   194  4.598260475E-03
   195  1.175384198E+01
   196 -7.514329749E-01
   197  4.250926988E+00
   198 -4.770113112E+00
   199  6.291126521E-04
   200  1.108932615E-03
   201 -1.762591992E-03
   202 -3.297293619E-02
   203  2.911982363E-03
   204 -6.140178530E-03
   205 -8.275061798E-04
   206 -5.256208515E-02
   207  4.447984576E-03
   208  5.247879395E-02
   209 -4.796295706E-02
   210 -2.121025297E-01
   211  2.696811758E-02
   212  8.518256175E-04
   213  1.796485748E-03
   214  7.710467098E-03
   215  4.933785039E-03
   216  7.966295850E-03
   217 -1.346171114E+00
   218 -1.102299217E+00
   219 -3.974559232E+00
   220 -5.482444908E-01
   221  1.623336462E-03
   222  2.768591509E-03
   223 -4.689749312E-03
   224 -3.578690873E-02
   225  6.309678927E-04
   226 -1.275659663E-02
   227 -7.441054555E-03
   228 -5.593489699E-02
   229  3.189433341E-03
   230  4.519845168E-02
   231 -3.632868387E-02
   232 -8.131325976E-02
   233 -3.321315441E-02
   234 -2.040393552E-03
   235  1.039675620E-03
   236  2.982983276E-03
   237  7.876652982E-06
   238 -9.401284072E-04
   239  5.896036210E+00
   240 -7.650165240E-01
   241  1.225040581E+00
   242 -8.901401100E-01
   243  8.290289354E-03
   244  1.377704034E-02
   245  9.430266216E-03
   246 -2.136722284E-02
   247  9.076939345E-03
   248 -5.218891385E-02
   249  8.164995203E-03
   250 -3.557464415E-02
   251  2.042719308E-02
   252  5.116391711E-02
   253  1.295938254E-01
   254  4.439400171E-02
   255  7.456543335E-03
   256 -1.819552865E-03
   257  7.526066850E-03
   258  2.321012117E-03
   259 -2.583389443E-03
   260 -5.427586091E-03
   261  1.856025488E+01
   262  2.698781863E+00
   263  3.586943895E+00
   264 -3.853581481E-02
   265 -1.019095435E-02
   266 -1.685243338E-02
   267 -9.634450952E-03
   268 -1.210643507E-02
   269 -2.274856043E-03
   270  6.177896160E-02
   271 -8.420040445E-03
   272 -2.196955087E-02
   273 -1.218827412E-02
   274 -4.966107349E-02
   275 -1.096658858E-01
   276  1.133609020E-01
   277  2.660783628E-02
   278  2.111208154E-03
   279 -9.324394885E-03
   280  4.054773857E-03
   281  2.488465268E-04
   282 -5.973476150E-03
   283 -2.146556944E+01
   284 -1.651019035E+00
   285  4.529181195E+00
   286  3.506410463E-01
   287  1.124886952E-05
   288 -8.378608794E-03
   289  2.284384058E-01
   290 -1.111026498E-03
   291 -1.851586621E-03
   292 -1.867709395E-03
   293  1.139652461E+00
   294 -3.205828540E-04
   295  3.392071930E-02
   296 -1.453502935E-01
   297  5.191107338E-03
   298  5.266863668E-03
   299  1.720968453E-03
   300 -1.095866441E+00
   301 -1.174742723E-03
   302 -1.054214945E-02
   303  6.503566808E-02
   304  1.603312527E-04
   305 -3.846736446E-03
   306 -3.842139249E-04
   307 -7.408307153E-03
   308 -9.441847900E-04
   309  5.276717691E-02
   310 -5.912452312E-01
   311  5.336007647E-03
   312  4.223256216E-03
   313  3.834066575E-03
   314 -3.252881804E+00
   315  4.082339817E-04
   316 -6.074737677E-02
   317  5.275601632E-01
   318 -4.710134713E-03
   319  8.269847505E-03
   320 -2.548155960E-03
   321  3.357588882E+00
   322  4.359733620E-03
   323 -6.656241868E-03
   324  7.236662110E-01
   325 -2.055906826E-03
   326 -4.792919254E-03
   327 -2.067202577E-03
   328  1.812675095E+00
   329  9.306439291E-03
   330  4.973031348E-02
   331  6.053947036E-02
   332  3.426346674E-03
   333  1.791229612E-03
   334  1.068291595E-02
   335 -2.617654452E+00
   336 -6.433446365E-04
   337  1.935684695E-02
   338 -3.846234371E-01
   339 -2.208054158E-03
   340 -2.204959926E-03
   341 -2.923129891E-04
   342 -2.033869298E+00
   343  3.915265353E-04
   344 -5.041784038E-02
   345  3.484650250E-01
   346 -2.977144765E-03
   347  9.223181726E-03
   348 -9.327915181E-04
   349  2.231434397E+00
   350 -5.297802282E-03
   351  1.534551974E-02
   352 -9.418078193E-01
   353  9.896425038E-04
   354 -6.761462845E-03
   355  1.489135726E-03
   356 -3.027521976E+00
   357 -1.232465826E-02
   358 -7.168652162E-02
   359 -1.386835167E-02
   360 -1.695642291E-04
   361  6.659230106E-03
   362 -1.094062377E-02
   363  3.460091877E+00
   364  1.793959819E-03
   365  3.170855643E-03
   366  5.394790116E-02
   367 -3.471239615E-03
   368 -9.230971595E-03
   369  1.587214737E-04
   370 -5.265509855E-01
   371  1.343120453E-03
   372  3.111551639E-03
   373  1.649813966E-01
   374  1.030899804E-03
   375 -1.842268778E-03
   376  1.186266616E-04
   377  3.174426852E-01
   378  9.729188499E-05
   379  1.735737217E-02
   380 -3.038591928E-02
   381 -9.381559421E-04
   382  5.629664420E-03
   383  3.252047201E-03
   384 -1.352010596E+00
   385 -2.562526796E-03
   386 -5.068976730E-03
   387 -4.959864927E-02
   388  1.000839728E-03
   389 -3.227058226E-03
   390 -3.207543913E-05
   391 -4.874761319E-01
   392  2.002037577E-03
   393 -1.346690675E-02
   394  1.196252550E-01
   395  3.986625338E-03
   396  3.183956663E-03
   397 -4.171345510E-03
   398  1.642884509E+00
   399 -1.100363877E-02
   400 -1.156604931E-02
   401 -3.213163297E-01
   402 -1.131950297E-04
   403 -5.021943139E-03
   404 -2.050099614E-03
   405 -2.448009401E+00
   406  5.500626860E-03
   407  2.589299340E-02
   408  1.071334789E-01
   409 -4.661937577E-03
   410  4.663991142E-03
   411 -4.971737468E-03
   412 -3.217101634E-01
   413  6.533399138E-03
   414  1.275823122E-03
   415  2.405278295E-01
   416  5.327390542E-03
   417 -2.202782568E-03
   418 -4.873641407E-03
   419  1.594683923E+00
   420  1.304660357E-02
   421  1.195782125E-02
   422  4.070333187E-01
   423 -4.534931781E-05
   424 -5.653580060E-03
   425  1.993335979E-03
   426  2.769744296E+00
   427 -7.945876549E-03
   428 -9.050993283E-03
   429 -2.751146093E-01
   430 -7.386613492E-03
   431 -2.117402873E-03
   432  2.579870390E-03
   433 -1.170280149E+00
   434 -6.612245533E-03
   435 -2.054390875E-02
   436 -2.010343714E-01
   437  4.697015991E-03
   438  2.452487764E-03
   439  7.305416076E-03
   440  8.673176615E-02
Ene=    1.1817573369E-01
Spin= Alpha
Occup=   0.0000000
     1 -2.473895392E-03
     2 -3.699356948E-03
     3 -9.206379220E-03
     4 -1.284706845E-03
     5  1.169487567E-02
     6  3.458292476E-03
     7 -1.888517682E-02
     8 -3.150536155E-03
     9  2.438838976E-02
    10  1.522357894E-01
    11 -4.657291291E-02
    12 -1.578200161E-02
    13  7.152662174E-02
    14 -6.568378934E-03
    15  1.007365980E-02
    16 -3.267262718E-03
    17 -4.626453110E-03
    18  5.836848508E-04
    19 -1.150368329E+01
    20 -9.162484426E+00
    21  4.875936386E+00
    22  7.146352803E+00
    23  6.260447358E-03
    24  1.021969028E-02
    25 -2.130528449E-02
    26  1.972632969E-03
    27  2.268804917E-02
    28 -2.712930743E-02
    29 -3.355666363E-02
    30  1.224322678E-03
    31  3.452926883E-02
    32 -2.363426657E-01
    33 -1.207848540E-01
    34  6.511880848E-02
    35  1.132905773E-01
    36  3.095712245E-03
    37 -5.181522172E-03
    38 -1.455628089E-03
    39  3.538976996E-04
    40 -2.878294021E-04
    41 -6.034763505E+00
    42  2.568917150E-01
    43 -7.454500847E-01
    44  1.189373070E+00
    45 -4.075593161E-03
    46 -6.935509125E-03
    47 -7.005896581E-03
    48  6.773652617E-04
    49  1.015648581E-02
    50  3.331383329E-02
    51 -1.890172807E-02
    52  1.807327210E-03
    53  2.420737150E-02
    54 -2.025908270E-01
    55  6.198912857E-02
    56 -3.758259774E-03
    57 -6.135699345E-02
    58 -4.884547847E-03
    59  8.464370388E-03
    60 -6.593442778E-05
    61 -1.738037238E-03
    62  3.031662130E-04
    63  1.886192539E+00
    64  5.553827030E-01
    65 -3.234210586E-01
    66 -1.674139666E+00
    67  5.931961457E-03
    68  9.711615454E-03
    69 -2.061458503E-02
    70  3.721842011E-03
    71  2.149980814E-02
    72 -2.612066850E-02
    73 -3.211807357E-02
    74  6.782538778E-03
    75  3.193788238E-02
    76 -2.105282203E-01
    77 -5.160484002E-02
    78  5.320855281E-04
    79  1.599601686E-01
    80  2.031573411E-03
    81 -3.215005884E-03
    82  3.550451439E-04
    83  3.197538169E-03
    84 -1.223329528E-03
    85 -7.486022681E+00
    86 -1.066167039E+00
    87  9.121250922E-02
    88  9.392056681E-01
    89 -2.545069247E-03
    90 -3.729580611E-03
    91 -1.049759998E-02
    92  1.702774913E-03
    93  7.290730960E-03
    94  6.649342130E-04
    95 -2.278620144E-02
    96  2.775666053E-03
    97  1.646916944E-02
    98  2.018314968E-01
    99 -6.200464458E-02
   100  9.927878695E-03
   101  3.732897800E-02
   102 -7.013006643E-03
   103  1.083757511E-02
   104 -1.137211456E-03
   105  6.731015238E-04
   106 -5.971326728E-04
   107 -9.635999383E+00
   108 -2.443889228E+00
   109 -1.419412434E+00
   110  1.188215739E+01
   111  5.477591258E-03
   112  9.495531116E-03
   113 -2.955323262E-02
   114  3.038450122E-03
   115  3.542826696E-02
   116 -3.797788325E-02
   117 -5.414378569E-02
   118  1.092347179E-02
   119  7.336100279E-02
   120  8.156279559E-02
   121 -4.991235748E-02
   122 -1.817024037E-02
   123  6.787156793E-03
   124 -2.113771113E-03
   125 -2.654898308E-03
   126 -1.503273975E-03
   127  7.589986388E-04
   128  3.769403851E-03
   129  2.496773073E+01
   130  6.743154983E-01
   131 -4.046086855E+00
   132 -5.987247453E+00
   133  5.393938280E-03
   134  8.737245806E-03
   135 -2.105995726E-02
   136  4.974437408E-03
   137  2.267898984E-02
   138 -2.097716207E-02
   139 -3.273023995E-02
   140  9.429047517E-03
   141  3.347689563E-02
   142 -2.399503473E-01
   143 -1.441493785E-01
   144 -2.875155423E-02
   145  1.164141515E-01
   146  2.756037136E-03
   147 -3.884302765E-03
   148  2.512488355E-03
   149  5.233813437E-04
   150  4.379249862E-04
   151 -8.704866044E+00
   152 -2.806986280E-02
   153 -5.931816890E-02
   154  1.022274697E+00
   155 -1.949817957E-03
   156 -2.824664733E-03
   157 -7.280613902E-03
   158  3.954168755E-03
   159  1.080673304E-02
   160 -4.022221294E-04
   161 -1.609482212E-02
   162  6.963258712E-03
   163  2.360684840E-02
   164  1.548515475E-01
   165 -2.371980646E-02
   166  3.694115809E-02
   167  7.197349855E-02
   168 -5.679305768E-03
   169  1.054725830E-02
   170  1.846505069E-03
   171 -3.921705498E-03
   172  1.530763721E-03
   173 -8.340974864E+00
   174 -9.068022183E+00
   175 -1.888008235E+00
   176  8.418442417E+00
   177  5.770682557E-03
   178  9.883422951E-03
   179 -2.965568101E-02
   180  4.672435630E-03
   181  3.546488462E-02
   182 -3.704082746E-02
   183 -5.607413240E-02
   184  2.569368736E-03
   185  7.239718509E-02
   186  5.022275928E-02
   187 -3.074789106E-02
   188  3.045099082E-02
   189  1.377916968E-02
   190 -1.068022791E-03
   191 -2.660381545E-03
   192  2.254774435E-03
   193 -1.640801166E-03
   194 -3.265646463E-03
   195  1.802901184E+01
   196  2.321726836E+00
   197  2.915429398E+00
   198 -6.306171199E+00
   199  5.114050162E-03
   200  8.865325932E-03
   201 -2.961100093E-02
   202  3.574229646E-03
   203  3.663480126E-02
   204 -3.552136700E-02
   205 -6.481033737E-02
   206  7.877362244E-03
   207  6.973588693E-02
   208  8.600681859E-02
   209  5.541726170E-03
   210  6.773889492E-03
   211  3.426506600E-02
   212  4.917967687E-03
   213  1.437279505E-03
   214 -4.676011036E-04
   215 -4.992389918E-04
   216 -2.015995907E-04
   217  1.776132400E+01
   218  7.136539145E+00
   219 -1.743074815E+00
   220 -3.277986654E+00
   221  4.811703017E-03
   222  8.056499731E-03
   223 -3.279945288E-02
   224  5.523792350E-03
   225  2.811343637E-02
   226 -2.505165497E-02
   227 -4.429627067E-02
   228  7.697655780E-03
   229  4.956892492E-02
   230 -8.138132064E-02
   231 -1.239418370E-01
   232  2.068023032E-02
   233  3.911859420E-02
   234  7.403748684E-04
   235 -5.449984490E-03
   236  4.400229558E-04
   237  8.777771775E-04
   238  1.877944245E-04
   239  7.736584018E-01
   240  1.065337529E+00
   241 -2.155586366E-02
   242 -2.269990043E+00
   243  5.645905761E-03
   244  9.406403866E-03
   245 -2.259765809E-02
   246  1.131298410E-02
   247  3.601433764E-02
   248 -2.981209849E-02
   249 -4.197731717E-02
   250  1.034477227E-02
   251  5.514353314E-02
   252 -8.362405697E-02
   253 -1.415812837E-02
   254  8.367860738E-02
   255  9.537891650E-02
   256  3.360767720E-03
   257 -2.786822022E-03
   258  1.958166087E-04
   259  6.555713050E-04
   260 -2.968574180E-03
   261  2.078767428E+00
   262  2.073738823E+00
   263  2.672043872E-01
   264 -1.872326677E+00
   265  6.025885753E-03
   266  1.007738548E-02
   267 -2.430559148E-02
   268 -5.930683599E-03
   269  3.552345853E-02
   270 -3.222190951E-02
   271 -4.216419054E-02
   272  2.264825150E-04
   273  5.671290595E-02
   274 -8.433033451E-02
   275 -3.296145212E-02
   276 -8.176453966E-02
   277  7.689317973E-02
   278  3.069353980E-03
   279 -1.971434165E-03
   280 -8.442730537E-04
   281  2.229807089E-03
   282  2.743135937E-03
   283  2.126971102E+00
   284  2.044571196E+00
   285 -9.277949275E-01
   286 -1.997695555E+00
   287 -2.745932863E-03
   288  1.814708949E-03
   289 -4.050900765E-01
   290 -2.388755094E-04
   291  2.493668550E-03
   292  3.905169057E-03
   293  8.735814580E-01
   294 -2.986458771E-03
   295  1.299687260E-02
   296 -4.704529138E-01
   297 -4.172043094E-03
   298  1.264956623E-03
   299  1.462764449E-03
   300  3.776494240E-01
   301 -1.766942422E-02
   302 -7.672808342E-03
   303 -1.924761442E-01
   304  4.662165592E-03
   305 -2.634287198E-05
   306 -7.179552701E-03
   307  3.122336863E-01
   308 -2.648168283E-03
   309  4.666848468E-03
   310 -3.439783462E-01
   311 -8.668085625E-04
   312 -1.871069142E-03
   313  3.489589089E-03
   314  3.248529521E-01
   315 -2.943048802E-03
   316  1.082027956E-02
   317 -4.065049357E-01
   318  2.961340716E-04
   319  1.347020555E-03
   320  3.905371218E-03
   321  2.045163436E-01
   322 -1.682178234E-03
   323  1.007874836E-01
   324 -7.737267851E-01
   325  6.245883003E-03
   326  1.285768759E-03
   327 -6.649685424E-03
   328 -5.439172386E+00
   329 -2.874649260E-03
   330 -2.066429960E-02
   331  1.832762157E-01
   332 -1.236553944E-03
   333 -1.784098462E-04
   334 -3.724738169E-04
   335  1.173253473E+00
   336 -2.543603467E-03
   337 -3.572887295E-03
   338 -3.651385009E-01
   339 -7.024675334E-04
   340 -2.661693832E-03
   341  3.493568345E-03
   342  8.274397448E-01
   343 -2.962676297E-03
   344  1.328662044E-02
   345 -4.720465764E-01
   346 -4.230740607E-03
   347 -3.573492264E-04
   348  8.617055339E-04
   349  3.410235853E-01
   350 -8.404489439E-04
   351  9.727125760E-02
   352 -6.821549314E-01
   353  5.410725667E-03
   354 -2.217693160E-03
   355 -7.217426535E-03
   356 -5.373508404E+00
   357 -1.959038386E-03
   358 -1.874949497E-02
   359  2.159257582E-01
   360 -1.158662906E-03
   361  5.641009104E-04
   362  2.188109449E-04
   363  9.862963129E-01
   364 -3.839654447E-03
   365 -3.363351712E-02
   366  2.828050313E-01
   367  1.706050733E-03
   368 -6.382565759E-05
   369  7.414966602E-04
   370  1.413322819E+00
   371 -1.799971635E-03
   372  9.921109359E-02
   373 -7.535915059E-01
   374  2.985930911E-03
   375 -2.244484993E-04
   376 -8.857481239E-03
   377 -5.885017002E+00
   378 -2.120279478E-03
   379  6.686030693E-03
   380  1.463991355E-02
   381 -2.166810678E-03
   382 -1.370591150E-03
   383  2.041241359E-04
   384  3.287001345E-01
   385  8.871134960E-04
   386  2.938570098E-02
   387  8.833858316E-02
   388  4.871758485E-03
   389 -7.550887687E-05
   390 -7.607260858E-03
   391 -1.160663386E+00
   392 -1.765113057E-03
   393  1.174037872E-02
   394 -2.021608671E-02
   395 -1.910479154E-03
   396  1.677132844E-03
   397  9.598394289E-04
   398  2.090184507E-01
   399 -6.782165691E-04
   400  2.463159286E-02
   401  5.191796283E-02
   402  5.369426805E-03
   403 -3.572795165E-04
   404 -7.753478546E-03
   405 -1.510599222E+00
   406 -6.514406565E-04
   407  5.570652254E-03
   408  5.443982399E-02
   409  1.202555061E-03
   410  2.296168371E-04
   411  1.765096380E-03
   412  5.137344778E-01
   413 -7.399153762E-04
   414  1.255698326E-02
   415  3.732955644E-02
   416 -5.931506880E-04
   417  1.468766681E-03
   418  1.299444970E-03
   419  1.321884290E-01
   420 -1.919522522E-03
   421  2.885025176E-02
   422 -5.211252587E-02
   423  5.276561430E-03
   424  1.352829958E-04
   425 -7.677690240E-03
   426 -1.623838493E+00
   427 -8.958727984E-04
   428  1.318250663E-02
   429  2.194626700E-02
   430 -5.272512100E-04
   431 -1.495261981E-03
   432  7.397617683E-04
   433  3.092440282E-01
   434 -7.114428470E-04
   435  1.241879181E-02
   436 -7.475465065E-03
   437  7.980758730E-04
   438 -9.740895351E-04
   439  1.408650004E-03
   440  4.964085757E-01
