 [Molden Format]
 [Cell]
  20.00 0.000 0.000
  0.000 20.000 0.000
  0.000 0.0000 20.0000
 [Nval]
 C 4 
 H 1
 [Atoms] AU
 C        1       6      19.967607      21.346641      18.747604
 C        2       6      17.927173      21.011186      20.817363
 C        3       6      22.519281      20.386293      19.808735
 C        4       6      17.713973      18.218516      21.617416
 C        5       6      20.278912      17.315029      22.663829
 C        6       6      22.322362      17.591379      20.605234
 C        7       6      16.987128      16.603721      19.303486
 C        8       6      19.028984      16.879831      17.243221
 C        9       6      21.593194      15.976960      18.291862
 C       10       6      19.237585      19.677259      16.458618
 C       11       6      20.172437      24.122897      17.959562
 H       12       1      16.100552      21.687959      20.107512
 H       13       1      18.403282      22.185490      22.458279
 H       14       1      23.078326      21.549513      21.431334
 H       15       1      23.997683      20.612943      18.372967
 H       16       1      16.261100      18.029961      23.080603
 H       17       1      20.797142      18.428452      24.332654
 H       18       1      20.144385      15.340174      23.275014
 H       19       1      24.147702      16.956453      21.348241
 H       20       1      15.147531      17.207542      18.565511
 H       21       1      16.793005      14.615878      19.853495
 H       22       1      18.511710      15.738766      15.594733
 H       23       1      23.052738      16.131840      16.829315
 H       24       1      21.482300      13.977792      18.823586
 H       25       1      20.656974      19.891059      14.962580
 H       26       1      17.434716      20.330139      15.669901
 H       27       1      21.612644      24.377090      16.495562
 H       28       1      20.688117      25.317442      19.568644
 H       29       1      18.374784      24.817847      17.206125
 [GTO]
        1       0
                         s       6    1.00
                                                       4563.240000000        0.001966650
                                                        682.024000000        0.015230600
                                                        154.973000000        0.076126900
                                                         44.455300000        0.260801000
                                                         13.029000000        0.616462000
                                                          1.827730000        0.221006000
                         s       3    1.00
                                                         20.964200000        0.114660000
                                                          4.803310000        0.919999000
                                                          1.459330000       -0.003030680
                         p       3    1.00
                                                         20.964200000        0.040248700
                                                          4.803310000        0.237594000
                                                          1.459330000        0.815854000
                         s       1    1.00
                                                          0.483456000        1.000000000
                         p       1    1.00
                                                          0.483456000        1.000000000
                         s       1    1.00
                                                          0.145585000        1.000000000
                         p       1    1.00
                                                          0.145585000        1.000000000
                         d       1    1.00
                                                          0.626000000        1.000000000
                         s       1    1.00
                                                          0.043800000        1.000000000
                         p       1    1.00
                                                          0.043800000        1.000000000
    
        2       0
                         s       6    1.00
                                                       4563.240000000        0.001966650
                                                        682.024000000        0.015230600
                                                        154.973000000        0.076126900
                                                         44.455300000        0.260801000
                                                         13.029000000        0.616462000
                                                          1.827730000        0.221006000
                         s       3    1.00
                                                         20.964200000        0.114660000
                                                          4.803310000        0.919999000
                                                          1.459330000       -0.003030680
                         p       3    1.00
                                                         20.964200000        0.040248700
                                                          4.803310000        0.237594000
                                                          1.459330000        0.815854000
                         s       1    1.00
                                                          0.483456000        1.000000000
                         p       1    1.00
                                                          0.483456000        1.000000000
                         s       1    1.00
                                                          0.145585000        1.000000000
                         p       1    1.00
                                                          0.145585000        1.000000000
                         d       1    1.00
                                                          0.626000000        1.000000000
                         s       1    1.00
                                                          0.043800000        1.000000000
                         p       1    1.00
                                                          0.043800000        1.000000000
    
        3       0
                         s       6    1.00
                                                       4563.240000000        0.001966650
                                                        682.024000000        0.015230600
                                                        154.973000000        0.076126900
                                                         44.455300000        0.260801000
                                                         13.029000000        0.616462000
                                                          1.827730000        0.221006000
                         s       3    1.00
                                                         20.964200000        0.114660000
                                                          4.803310000        0.919999000
                                                          1.459330000       -0.003030680
                         p       3    1.00
                                                         20.964200000        0.040248700
                                                          4.803310000        0.237594000
                                                          1.459330000        0.815854000
                         s       1    1.00
                                                          0.483456000        1.000000000
                         p       1    1.00
                                                          0.483456000        1.000000000
                         s       1    1.00
                                                          0.145585000        1.000000000
                         p       1    1.00
                                                          0.145585000        1.000000000
                         d       1    1.00
                                                          0.626000000        1.000000000
                         s       1    1.00
                                                          0.043800000        1.000000000
                         p       1    1.00
                                                          0.043800000        1.000000000
    
        4       0
                         s       6    1.00
                                                       4563.240000000        0.001966650
                                                        682.024000000        0.015230600
                                                        154.973000000        0.076126900
                                                         44.455300000        0.260801000
                                                         13.029000000        0.616462000
                                                          1.827730000        0.221006000
                         s       3    1.00
                                                         20.964200000        0.114660000
                                                          4.803310000        0.919999000
                                                          1.459330000       -0.003030680
                         p       3    1.00
                                                         20.964200000        0.040248700
                                                          4.803310000        0.237594000
                                                          1.459330000        0.815854000
                         s       1    1.00
                                                          0.483456000        1.000000000
                         p       1    1.00
                                                          0.483456000        1.000000000
                         s       1    1.00
                                                          0.145585000        1.000000000
                         p       1    1.00
                                                          0.145585000        1.000000000
                         d       1    1.00
                                                          0.626000000        1.000000000
                         s       1    1.00
                                                          0.043800000        1.000000000
                         p       1    1.00
                                                          0.043800000        1.000000000
    
        5       0
                         s       6    1.00
                                                       4563.240000000        0.001966650
                                                        682.024000000        0.015230600
                                                        154.973000000        0.076126900
                                                         44.455300000        0.260801000
                                                         13.029000000        0.616462000
                                                          1.827730000        0.221006000
                         s       3    1.00
                                                         20.964200000        0.114660000
                                                          4.803310000        0.919999000
                                                          1.459330000       -0.003030680
                         p       3    1.00
                                                         20.964200000        0.040248700
                                                          4.803310000        0.237594000
                                                          1.459330000        0.815854000
                         s       1    1.00
                                                          0.483456000        1.000000000
                         p       1    1.00
                                                          0.483456000        1.000000000
                         s       1    1.00
                                                          0.145585000        1.000000000
                         p       1    1.00
                                                          0.145585000        1.000000000
                         d       1    1.00
                                                          0.626000000        1.000000000
                         s       1    1.00
                                                          0.043800000        1.000000000
                         p       1    1.00
                                                          0.043800000        1.000000000
    
        6       0
                         s       6    1.00
                                                       4563.240000000        0.001966650
                                                        682.024000000        0.015230600
                                                        154.973000000        0.076126900
                                                         44.455300000        0.260801000
                                                         13.029000000        0.616462000
                                                          1.827730000        0.221006000
                         s       3    1.00
                                                         20.964200000        0.114660000
                                                          4.803310000        0.919999000
                                                          1.459330000       -0.003030680
                         p       3    1.00
                                                         20.964200000        0.040248700
                                                          4.803310000        0.237594000
                                                          1.459330000        0.815854000
                         s       1    1.00
                                                          0.483456000        1.000000000
                         p       1    1.00
                                                          0.483456000        1.000000000
                         s       1    1.00
                                                          0.145585000        1.000000000
                         p       1    1.00
                                                          0.145585000        1.000000000
                         d       1    1.00
                                                          0.626000000        1.000000000
                         s       1    1.00
                                                          0.043800000        1.000000000
                         p       1    1.00
                                                          0.043800000        1.000000000
    
        7       0
                         s       6    1.00
                                                       4563.240000000        0.001966650
                                                        682.024000000        0.015230600
                                                        154.973000000        0.076126900
                                                         44.455300000        0.260801000
                                                         13.029000000        0.616462000
                                                          1.827730000        0.221006000
                         s       3    1.00
                                                         20.964200000        0.114660000
                                                          4.803310000        0.919999000
                                                          1.459330000       -0.003030680
                         p       3    1.00
                                                         20.964200000        0.040248700
                                                          4.803310000        0.237594000
                                                          1.459330000        0.815854000
                         s       1    1.00
                                                          0.483456000        1.000000000
                         p       1    1.00
                                                          0.483456000        1.000000000
                         s       1    1.00
                                                          0.145585000        1.000000000
                         p       1    1.00
                                                          0.145585000        1.000000000
                         d       1    1.00
                                                          0.626000000        1.000000000
                         s       1    1.00
                                                          0.043800000        1.000000000
                         p       1    1.00
                                                          0.043800000        1.000000000
    
        8       0
                         s       6    1.00
                                                       4563.240000000        0.001966650
                                                        682.024000000        0.015230600
                                                        154.973000000        0.076126900
                                                         44.455300000        0.260801000
                                                         13.029000000        0.616462000
                                                          1.827730000        0.221006000
                         s       3    1.00
                                                         20.964200000        0.114660000
                                                          4.803310000        0.919999000
                                                          1.459330000       -0.003030680
                         p       3    1.00
                                                         20.964200000        0.040248700
                                                          4.803310000        0.237594000
                                                          1.459330000        0.815854000
                         s       1    1.00
                                                          0.483456000        1.000000000
                         p       1    1.00
                                                          0.483456000        1.000000000
                         s       1    1.00
                                                          0.145585000        1.000000000
                         p       1    1.00
                                                          0.145585000        1.000000000
                         d       1    1.00
                                                          0.626000000        1.000000000
                         s       1    1.00
                                                          0.043800000        1.000000000
                         p       1    1.00
                                                          0.043800000        1.000000000
    
        9       0
                         s       6    1.00
                                                       4563.240000000        0.001966650
                                                        682.024000000        0.015230600
                                                        154.973000000        0.076126900
                                                         44.455300000        0.260801000
                                                         13.029000000        0.616462000
                                                          1.827730000        0.221006000
                         s       3    1.00
                                                         20.964200000        0.114660000
                                                          4.803310000        0.919999000
                                                          1.459330000       -0.003030680
                         p       3    1.00
                                                         20.964200000        0.040248700
                                                          4.803310000        0.237594000
                                                          1.459330000        0.815854000
                         s       1    1.00
                                                          0.483456000        1.000000000
                         p       1    1.00
                                                          0.483456000        1.000000000
                         s       1    1.00
                                                          0.145585000        1.000000000
                         p       1    1.00
                                                          0.145585000        1.000000000
                         d       1    1.00
                                                          0.626000000        1.000000000
                         s       1    1.00
                                                          0.043800000        1.000000000
                         p       1    1.00
                                                          0.043800000        1.000000000
    
       10       0
                         s       6    1.00
                                                       4563.240000000        0.001966650
                                                        682.024000000        0.015230600
                                                        154.973000000        0.076126900
                                                         44.455300000        0.260801000
                                                         13.029000000        0.616462000
                                                          1.827730000        0.221006000
                         s       3    1.00
                                                         20.964200000        0.114660000
                                                          4.803310000        0.919999000
                                                          1.459330000       -0.003030680
                         p       3    1.00
                                                         20.964200000        0.040248700
                                                          4.803310000        0.237594000
                                                          1.459330000        0.815854000
                         s       1    1.00
                                                          0.483456000        1.000000000
                         p       1    1.00
                                                          0.483456000        1.000000000
                         s       1    1.00
                                                          0.145585000        1.000000000
                         p       1    1.00
                                                          0.145585000        1.000000000
                         d       1    1.00
                                                          0.626000000        1.000000000
                         s       1    1.00
                                                          0.043800000        1.000000000
                         p       1    1.00
                                                          0.043800000        1.000000000
    
       11       0
                         s       6    1.00
                                                       4563.240000000        0.001966650
                                                        682.024000000        0.015230600
                                                        154.973000000        0.076126900
                                                         44.455300000        0.260801000
                                                         13.029000000        0.616462000
                                                          1.827730000        0.221006000
                         s       3    1.00
                                                         20.964200000        0.114660000
                                                          4.803310000        0.919999000
                                                          1.459330000       -0.003030680
                         p       3    1.00
                                                         20.964200000        0.040248700
                                                          4.803310000        0.237594000
                                                          1.459330000        0.815854000
                         s       1    1.00
                                                          0.483456000        1.000000000
                         p       1    1.00
                                                          0.483456000        1.000000000
                         s       1    1.00
                                                          0.145585000        1.000000000
                         p       1    1.00
                                                          0.145585000        1.000000000
                         d       1    1.00
                                                          0.626000000        1.000000000
                         s       1    1.00
                                                          0.043800000        1.000000000
                         p       1    1.00
                                                          0.043800000        1.000000000
    
       12       0
                         s       3    1.00
                                                         33.865000000        0.025493800
                                                          5.094790000        0.190373000
                                                          1.158790000        0.852161000
                         s       1    1.00
                                                          0.325840000        1.000000000
                         s       1    1.00
                                                          0.102741000        1.000000000
                         p       1    1.00
                                                          0.750000000        1.000000000
                         s       1    1.00
                                                          0.036000000        1.000000000
    
       13       0
                         s       3    1.00
                                                         33.865000000        0.025493800
                                                          5.094790000        0.190373000
                                                          1.158790000        0.852161000
                         s       1    1.00
                                                          0.325840000        1.000000000
                         s       1    1.00
                                                          0.102741000        1.000000000
                         p       1    1.00
                                                          0.750000000        1.000000000
                         s       1    1.00
                                                          0.036000000        1.000000000
    
       14       0
                         s       3    1.00
                                                         33.865000000        0.025493800
                                                          5.094790000        0.190373000
                                                          1.158790000        0.852161000
                         s       1    1.00
                                                          0.325840000        1.000000000
                         s       1    1.00
                                                          0.102741000        1.000000000
                         p       1    1.00
                                                          0.750000000        1.000000000
                         s       1    1.00
                                                          0.036000000        1.000000000
    
       15       0
                         s       3    1.00
                                                         33.865000000        0.025493800
                                                          5.094790000        0.190373000
                                                          1.158790000        0.852161000
                         s       1    1.00
                                                          0.325840000        1.000000000
                         s       1    1.00
                                                          0.102741000        1.000000000
                         p       1    1.00
                                                          0.750000000        1.000000000
                         s       1    1.00
                                                          0.036000000        1.000000000
    
       16       0
                         s       3    1.00
                                                         33.865000000        0.025493800
                                                          5.094790000        0.190373000
                                                          1.158790000        0.852161000
                         s       1    1.00
                                                          0.325840000        1.000000000
                         s       1    1.00
                                                          0.102741000        1.000000000
                         p       1    1.00
                                                          0.750000000        1.000000000
                         s       1    1.00
                                                          0.036000000        1.000000000
    
       17       0
                         s       3    1.00
                                                         33.865000000        0.025493800
                                                          5.094790000        0.190373000
                                                          1.158790000        0.852161000
                         s       1    1.00
                                                          0.325840000        1.000000000
                         s       1    1.00
                                                          0.102741000        1.000000000
                         p       1    1.00
                                                          0.750000000        1.000000000
                         s       1    1.00
                                                          0.036000000        1.000000000
    
       18       0
                         s       3    1.00
                                                         33.865000000        0.025493800
                                                          5.094790000        0.190373000
                                                          1.158790000        0.852161000
                         s       1    1.00
                                                          0.325840000        1.000000000
                         s       1    1.00
                                                          0.102741000        1.000000000
                         p       1    1.00
                                                          0.750000000        1.000000000
                         s       1    1.00
                                                          0.036000000        1.000000000
    
       19       0
                         s       3    1.00
                                                         33.865000000        0.025493800
                                                          5.094790000        0.190373000
                                                          1.158790000        0.852161000
                         s       1    1.00
                                                          0.325840000        1.000000000
                         s       1    1.00
                                                          0.102741000        1.000000000
                         p       1    1.00
                                                          0.750000000        1.000000000
                         s       1    1.00
                                                          0.036000000        1.000000000
    
       20       0
                         s       3    1.00
                                                         33.865000000        0.025493800
                                                          5.094790000        0.190373000
                                                          1.158790000        0.852161000
                         s       1    1.00
                                                          0.325840000        1.000000000
                         s       1    1.00
                                                          0.102741000        1.000000000
                         p       1    1.00
                                                          0.750000000        1.000000000
                         s       1    1.00
                                                          0.036000000        1.000000000
    
       21       0
                         s       3    1.00
                                                         33.865000000        0.025493800
                                                          5.094790000        0.190373000
                                                          1.158790000        0.852161000
                         s       1    1.00
                                                          0.325840000        1.000000000
                         s       1    1.00
                                                          0.102741000        1.000000000
                         p       1    1.00
                                                          0.750000000        1.000000000
                         s       1    1.00
                                                          0.036000000        1.000000000
    
       22       0
                         s       3    1.00
                                                         33.865000000        0.025493800
                                                          5.094790000        0.190373000
                                                          1.158790000        0.852161000
                         s       1    1.00
                                                          0.325840000        1.000000000
                         s       1    1.00
                                                          0.102741000        1.000000000
                         p       1    1.00
                                                          0.750000000        1.000000000
                         s       1    1.00
                                                          0.036000000        1.000000000
    
       23       0
                         s       3    1.00
                                                         33.865000000        0.025493800
                                                          5.094790000        0.190373000
                                                          1.158790000        0.852161000
                         s       1    1.00
                                                          0.325840000        1.000000000
                         s       1    1.00
                                                          0.102741000        1.000000000
                         p       1    1.00
                                                          0.750000000        1.000000000
                         s       1    1.00
                                                          0.036000000        1.000000000
    
       24       0
                         s       3    1.00
                                                         33.865000000        0.025493800
                                                          5.094790000        0.190373000
                                                          1.158790000        0.852161000
                         s       1    1.00
                                                          0.325840000        1.000000000
                         s       1    1.00
                                                          0.102741000        1.000000000
                         p       1    1.00
                                                          0.750000000        1.000000000
                         s       1    1.00
                                                          0.036000000        1.000000000
    
       25       0
                         s       3    1.00
                                                         33.865000000        0.025493800
                                                          5.094790000        0.190373000
                                                          1.158790000        0.852161000
                         s       1    1.00
                                                          0.325840000        1.000000000
                         s       1    1.00
                                                          0.102741000        1.000000000
                         p       1    1.00
                                                          0.750000000        1.000000000
                         s       1    1.00
                                                          0.036000000        1.000000000
    
       26       0
                         s       3    1.00
                                                         33.865000000        0.025493800
                                                          5.094790000        0.190373000
                                                          1.158790000        0.852161000
                         s       1    1.00
                                                          0.325840000        1.000000000
                         s       1    1.00
                                                          0.102741000        1.000000000
                         p       1    1.00
                                                          0.750000000        1.000000000
                         s       1    1.00
                                                          0.036000000        1.000000000
    
       27       0
                         s       3    1.00
                                                         33.865000000        0.025493800
                                                          5.094790000        0.190373000
                                                          1.158790000        0.852161000
                         s       1    1.00
                                                          0.325840000        1.000000000
                         s       1    1.00
                                                          0.102741000        1.000000000
                         p       1    1.00
                                                          0.750000000        1.000000000
                         s       1    1.00
                                                          0.036000000        1.000000000
    
       28       0
                         s       3    1.00
                                                         33.865000000        0.025493800
                                                          5.094790000        0.190373000
                                                          1.158790000        0.852161000
                         s       1    1.00
                                                          0.325840000        1.000000000
                         s       1    1.00
                                                          0.102741000        1.000000000
                         p       1    1.00
                                                          0.750000000        1.000000000
                         s       1    1.00
                                                          0.036000000        1.000000000
    
       29       0
                         s       3    1.00
                                                         33.865000000        0.025493800
                                                          5.094790000        0.190373000
                                                          1.158790000        0.852161000
                         s       1    1.00
                                                          0.325840000        1.000000000
                         s       1    1.00
                                                          0.102741000        1.000000000
                         p       1    1.00
                                                          0.750000000        1.000000000
                         s       1    1.00
                                                          0.036000000        1.000000000
    
 [5D7F]
 [9G]
 [MO]
Ene=   -1.0175082279E+01
Spin= Alpha
Occup=   2.0000000
     1  5.630231601E-01
     2  4.631653673E-01
     3  5.763302407E-06
     4  7.825930895E-05
     5 -2.209050693E-05
     6  2.166360206E-02
     7 -5.478034604E-05
     8 -7.455735865E-04
     9  2.110541348E-04
    10 -4.164085043E-02
    11  8.161001448E-04
    12  1.109539832E-02
    13 -3.148864228E-03
    14 -1.179823900E-04
    15 -9.893958690E-06
    16 -1.372439774E-04
    17 -2.407979469E-04
    18  3.579614741E-05
    19 -4.601945786E-02
    20 -1.857048273E-03
    21 -2.349519935E-02
    22  6.601955928E-03
    23  3.253762339E-03
    24  2.678223345E-03
    25  2.259248873E-04
    26  1.564571979E-06
    27 -2.216455353E-04
    28 -2.848983283E-04
    29 -3.268332877E-04
    30  4.463170141E-04
    31  2.257833004E-04
    32  1.025366581E-02
    33  4.030539785E-03
    34  6.411099808E-04
    35 -4.084623773E-03
    36 -1.015424841E-04
    37  6.684014870E-04
    38  3.095515317E-04
    39 -9.090596894E-05
    40 -2.179733361E-04
    41  7.285334617E-04
    42  9.944998246E-04
    43  2.879598737E-03
    44 -1.550543959E-03
    45  3.255086207E-03
    46  2.679298951E-03
    47 -2.886241924E-04
    48  7.163378352E-05
    49 -1.087760337E-04
    50 -2.842751129E-04
    51  4.931467067E-04
    52  3.344780567E-04
    53  4.620681384E-05
    54  1.024832615E-02
    55 -5.042368076E-03
    56  1.881766310E-03
    57 -2.096033788E-03
    58  3.267720264E-04
    59 -4.219069807E-04
    60  3.235268267E-04
    61 -1.653937287E-04
    62  4.381404304E-04
    63  1.136239730E-03
    64 -8.558085718E-04
    65  3.111746957E-03
    66 -1.229118326E-03
    67 -4.469779434E-04
    68 -2.880499423E-04
    69 -6.068848661E-07
    70  1.030110547E-04
    71 -2.116081089E-05
    72 -1.106546151E-03
    73 -1.528507999E-04
    74 -7.010946442E-04
    75  2.978911064E-04
    76  6.483613649E-03
    77  2.655673315E-03
    78  4.259714019E-04
    79 -2.686825372E-03
    80  1.104410730E-04
    81 -1.888548084E-05
    82  2.890944875E-05
    83  1.875859515E-04
    84  4.957669882E-05
    85  1.160514923E-02
    86  2.265733554E-03
    87  3.680701862E-03
    88 -3.023758125E-03
    89  9.886587882E-05
    90  3.502071761E-05
    91 -1.555214219E-05
    92  3.340040921E-06
    93 -7.291367759E-05
    94  1.004024614E-03
    95  4.069589383E-05
    96  2.220140168E-05
    97  1.723002609E-04
    98 -9.359004915E-03
    99  2.474114995E-04
   100 -4.212885580E-03
   101  3.743411216E-03
   102 -2.001098675E-04
   103 -7.673171490E-05
   104  2.530990534E-05
   105  2.514377592E-06
   106  2.619865369E-06
   107 -5.182736442E-03
   108 -4.058143369E-04
   109 -4.439951522E-03
   110  1.082401997E-03
   111 -4.498439859E-04
   112 -2.903082881E-04
   113  1.818256916E-05
   114  1.003241735E-04
   115 -2.526933991E-05
   116 -1.108411555E-03
   117  7.733203261E-05
   118 -7.319125584E-04
   119  2.473259680E-04
   120  6.497518424E-03
   121 -3.327116277E-03
   122  1.239049157E-03
   123 -1.379943120E-03
   124  9.220583560E-05
   125  3.237645098E-05
   126  6.078564507E-05
   127  1.505696472E-04
   128 -1.229606461E-04
   129  1.184278498E-02
   130 -2.335187967E-03
   131  4.267199808E-03
   132 -1.999175261E-03
   133  9.875724798E-05
   134  3.490477916E-05
   135  6.986882411E-05
   136  2.197542010E-05
   137  1.438573499E-05
   138  1.004260993E-03
   139 -1.710619335E-04
   140 -2.440801314E-05
   141 -4.428847637E-05
   142 -9.360725807E-03
   143 -2.778769800E-03
   144 -4.861359181E-03
   145  6.592828928E-04
   146  1.033258950E-04
   147 -6.697841225E-05
   148 -1.562021530E-05
   149 -1.396721695E-04
   150 -1.082943119E-04
   151 -5.302540587E-03
   152 -1.785091003E-04
   153 -4.350111724E-03
   154  1.305438712E-03
   155 -4.485909848E-04
   156 -2.892449437E-04
   157  4.714412578E-06
   158  9.742635241E-05
   159 -3.906963790E-05
   160 -1.108874957E-03
   161 -8.703538964E-05
   162 -7.675193006E-04
   163  7.977769466E-05
   164  6.502877320E-03
   165  9.538068195E-04
   166  2.165343847E-03
   167  2.988850498E-03
   168  2.827062004E-05
   169  6.488161445E-06
   170  1.796167400E-04
   171  1.335729209E-04
   172  3.297942093E-06
   173  1.235569399E-02
   174  1.006826421E-03
   175  5.083191354E-03
   176  1.435732375E-03
   177  9.925740625E-05
   178  3.523682339E-05
   179 -4.963590006E-05
   180  3.823752970E-05
   181  4.065080200E-05
   182  1.005579734E-03
   183  1.252888216E-04
   184 -6.476208575E-05
   185 -1.095817150E-04
   186 -9.374967589E-03
   187  1.462983654E-03
   188 -5.445100640E-03
   189 -2.753273810E-04
   190  1.855928995E-05
   191  1.372495071E-04
   192 -1.008153038E-04
   193 -2.301609499E-05
   194  1.295187426E-04
   195 -5.526873696E-03
   196 -3.958647556E-04
   197 -4.377239903E-03
   198  1.322789671E-03
   199  3.255376638E-03
   200  2.679440720E-03
   201  7.915828001E-05
   202  1.510197375E-04
   203  2.668576284E-04
   204 -2.830978807E-04
   205 -9.301834396E-05
   206  2.082006371E-04
   207 -5.530414373E-04
   208  1.024207889E-02
   209  1.443579844E-03
   210  3.283469013E-03
   211  4.524697981E-03
   212 -1.359040570E-04
   213 -2.390937120E-04
   214 -5.288591812E-04
   215  4.388385586E-04
   216 -2.474301790E-04
   217  3.178251655E-04
   218  4.956505815E-04
   219  3.433820643E-03
   220  1.517993874E-05
   221  2.961452102E-03
   222  2.397205646E-03
   223 -3.180319712E-05
   224 -4.303183675E-04
   225  1.221167016E-04
   226  6.703216272E-04
   227  7.101114899E-05
   228  9.585387421E-04
   229 -2.720107734E-04
   230  9.773879110E-04
   231 -7.675433323E-05
   232 -1.017344569E-03
   233  2.874605895E-04
   234  3.328721749E-04
   235  2.852516880E-05
   236  3.876976616E-04
   237  6.793073738E-04
   238 -1.007852163E-04
   239  3.191376376E-02
   240 -5.049273435E-04
   241 -6.867629188E-03
   242  1.956413679E-03
   243 -1.376204033E-05
   244 -1.587854933E-03
   245  1.881874501E-04
   246 -3.635115252E-04
   247  1.874145497E-04
   248 -9.341831999E-05
   249 -5.814879853E-04
   250 -1.371088913E-05
   251 -1.588206233E-03
   252  1.891040160E-04
   253  3.708011756E-05
   254  2.740905273E-04
   255  3.155398393E-04
   256 -5.964545991E-04
   257 -1.392977911E-05
   258 -1.586557106E-03
   259  1.781577548E-04
   260  1.674095122E-04
   261  2.562238653E-04
   262  2.870167324E-04
   263 -5.714112769E-04
   264 -1.392967716E-05
   265 -1.587136714E-03
   266  1.684554605E-04
   267  3.276033472E-04
   268  9.334306171E-05
   269 -2.452458720E-04
   270 -5.876617743E-04
   271 -4.467631615E-05
   272 -9.020175639E-05
   273  9.162401662E-04
   274 -8.312975912E-05
   275  1.109378999E-06
   276  8.110906376E-05
   277  1.071785313E-03
   278 -1.040987358E-04
   279  1.410318478E-03
   280 -1.145661384E-03
   281 -4.036399214E-05
   282  4.442697374E-05
   283 -2.110650345E-04
   284  1.821088899E-03
   285  2.082877369E-05
   286 -2.389134525E-04
   287 -3.476829482E-03
   288 -1.221715307E-05
   289 -4.670861619E-05
   290 -2.663936567E-05
   291 -1.959377001E-03
   292 -4.498880664E-05
   293 -8.822337555E-05
   294  9.056922497E-04
   295  1.063414205E-04
   296 -2.465503093E-05
   297  3.951479395E-05
   298  1.080413462E-03
   299 -1.041336346E-04
   300  1.410390947E-03
   301 -1.153810819E-03
   302  1.954406855E-04
   303  9.531036599E-05
   304  2.953766317E-05
   305  1.800328012E-03
   306  2.105011044E-05
   307 -2.400861345E-04
   308 -3.467223232E-03
   309  3.519757602E-05
   310 -3.645243364E-05
   311  2.169560983E-05
   312 -1.908092245E-03
   313 -4.513510594E-05
   314 -8.711457003E-05
   315  8.988795880E-04
   316 -2.900283678E-05
   317 -5.373385470E-05
   318 -9.856025776E-05
   319  1.090936721E-03
   320 -1.039760111E-04
   321  1.410242574E-03
   322 -1.147547237E-03
   323 -1.345084796E-04
   324  1.401927514E-04
   325  1.019979187E-04
   326  1.798987520E-03
   327  2.112466198E-05
   328 -2.404259161E-04
   329 -3.464092602E-03
   330 -3.125051450E-05
   331 -2.737852628E-05
   332  3.637069204E-05
   333 -1.931134920E-03
   334 -1.352609699E-05
   335 -1.589802769E-03
   336  1.908042030E-04
   337  2.344852895E-04
   338  7.329463145E-05
   339 -3.404541723E-04
   340 -5.948559028E-04
   341 -1.363859753E-05
   342 -1.588072761E-03
   343  1.941138978E-04
   344 -3.264407222E-04
   345  1.494909234E-04
   346 -2.171096238E-04
   347 -5.784960210E-04
   348 -1.142052538E-04
   349 -4.032848249E-04
   350  1.643397927E-03
   351  1.645477825E-04
   352 -3.668131499E-05
   353 -1.533747205E-04
   354  7.214081603E-04
   355 -1.142762835E-04
   356 -4.026786723E-04
   357  1.643139879E-03
   358  5.582243237E-05
   359  7.381832186E-05
   360  2.081945095E-04
   361  7.207604280E-04
   362 -1.143136850E-04
   363 -4.026860255E-04
   364  1.635389553E-03
   365 -2.164110078E-04
   366  1.533933647E-05
   367 -6.979347320E-05
   368  7.129259613E-04
Ene=   -1.0166845287E+01
Spin= Alpha
Occup=   2.0000000
     1  1.318999384E-04
     2  1.362655324E-04
     3 -7.121195085E-05
     4  3.126297180E-06
     5  7.505371152E-05
     6 -3.629422960E-04
     7  4.865294229E-04
     8  2.968664329E-05
     9 -5.232973529E-04
    10  1.579861702E-03
    11  1.138321080E-03
    12 -2.725830935E-03
    13 -6.507758853E-04
    14  2.607207987E-06
    15  2.045592140E-04
    16  1.683627316E-05
    17 -2.195571351E-05
    18  2.713510689E-05
    19  1.119620749E-02
    20 -5.827832566E-03
    21  1.136407531E-03
    22  5.986500653E-03
    23  5.857779880E-03
    24  4.836990982E-03
    25 -4.097993944E-05
    26 -2.297916380E-04
    27  8.681460257E-05
    28 -7.123999430E-04
    29 -1.952127457E-04
    30  2.115901467E-04
    31  1.544449594E-04
    32  1.650709963E-02
    33  2.290978398E-03
    34 -6.925895718E-03
    35 -9.057695091E-04
    36  1.007620132E-04
    37  2.909261574E-04
    38  5.179314171E-04
    39  3.506637579E-04
    40 -3.336809997E-04
    41 -3.180862474E-03
    42 -1.792686754E-03
    43 -2.102013060E-03
    44  1.822682318E-03
    45 -1.574860986E-03
    46 -1.318640982E-03
    47 -3.216782104E-05
    48  3.377048693E-05
    49 -5.067919504E-05
    50  6.382664049E-04
    51 -9.297528878E-06
    52  6.463268018E-05
    53  9.876907410E-05
    54 -9.350200930E-03
    55  3.633472006E-03
    56  2.291539195E-03
    57 -1.681463041E-03
    58 -6.486625072E-05
    59 -2.213024309E-05
    60 -1.950306751E-04
    61 -1.285340071E-04
    62 -1.947056554E-04
    63 -3.449350744E-03
    64  1.869316803E-03
    65 -4.118943824E-04
    66 -4.794482651E-03
    67  5.143477562E-01
    68  4.230005321E-01
    69  4.687176745E-05
    70  4.017598013E-05
    71 -4.820288830E-05
    72  2.100710337E-02
    73 -1.499133249E-04
    74 -2.196582734E-04
    75  1.506257740E-04
    76 -3.751329902E-02
    77 -1.148326953E-02
    78 -1.853294783E-03
    79  1.155886630E-02
    80  2.904413827E-04
    81 -9.143584300E-04
    82 -1.102840727E-04
    83  4.878747422E-04
    84  1.397418165E-04
    85 -5.181157520E-02
    86 -6.664797634E-03
    87  1.658318807E-03
    88  6.455264898E-03
    89  4.432288795E-03
    90  3.651068994E-03
    91 -2.684539728E-04
    92  5.906609649E-05
    93 -2.896047495E-05
    94 -3.610347509E-04
    95 -1.060962898E-04
    96 -3.493124514E-05
    97  2.573128357E-04
    98  1.056359385E-02
    99 -4.205326653E-03
   100  1.433861049E-03
   101 -3.367349754E-03
   102  2.682455834E-04
   103 -1.138458899E-04
   104  2.362364335E-05
   105 -4.837855812E-04
   106  2.563171348E-04
   107  6.356628895E-03
   108 -4.520608560E-03
   109  4.973568145E-04
   110 -7.728937454E-04
   111 -1.447533179E-01
   112 -1.190109094E-01
   113 -2.881764018E-05
   114 -4.387144266E-06
   115  9.397163356E-05
   116 -6.378704825E-03
   117  3.429919791E-04
   118 -3.011586837E-05
   119 -5.847750254E-04
   120  1.279202417E-02
   121 -5.438976544E-03
   122  1.928068078E-03
   123 -3.564172743E-03
   124 -8.778023812E-06
   125 -8.672165144E-05
   126  1.714864474E-04
   127 -2.221315243E-04
   128  1.188682226E-04
   129  2.868967287E-02
   130 -7.907031955E-03
   131  1.407846789E-03
   132  1.317006415E-03
   133  4.048589335E-03
   134  3.333695586E-03
   135 -3.825851940E-06
   136  1.198277829E-04
   137  2.608352203E-04
   138 -3.001425255E-04
   139 -2.375740289E-04
   140 -6.043930069E-05
   141  1.214963922E-04
   142  9.323657104E-03
   143  2.279683465E-03
   144  2.784589799E-03
   145  3.881472098E-03
   146 -3.873069796E-04
   147 -4.660436901E-05
   148 -4.309880331E-04
   149  9.008237642E-05
   150 -2.452245957E-05
   151  5.098793450E-03
   152  5.608658667E-05
   153  1.557071727E-03
   154  4.453318327E-03
   155 -1.772455428E-01
   156 -1.457308366E-01
   157 -8.887223191E-05
   158 -2.343629492E-05
   159  2.702408115E-05
   160 -7.729379209E-03
   161  5.644925637E-04
   162  4.740296235E-05
   163 -3.297482226E-04
   164  1.527696964E-02
   165  3.082977167E-03
   166  4.380924241E-03
   167  5.804582727E-03
   168 -1.555394658E-04
   169 -3.112500475E-05
   170 -2.597655258E-04
   171  1.188118405E-05
   172 -2.133995340E-04
   173  3.295557099E-02
   174 -1.547384132E-03
   175  2.991086179E-03
   176  8.183178760E-03
   177 -3.749347548E-03
   178 -3.115389348E-03
   179  3.079220628E-05
   180 -4.616302272E-07
   181 -1.177100964E-05
   182  9.195429058E-04
   183 -5.715547486E-05
   184 -2.346275616E-05
   185  7.147303423E-05
   186 -1.568806164E-02
   187  4.712795896E-03
   188 -4.075744069E-03
   189 -3.502886011E-03
   190  1.635979228E-04
   191  4.216638022E-04
   192  8.953546900E-05
   193  2.826408855E-04
   194  1.082701566E-04
   195 -1.913992294E-02
   196  4.125529173E-03
   197 -2.273759742E-03
   198 -3.258758245E-03
   199 -1.941981882E-03
   200 -1.622734700E-03
   201  4.184819500E-05
   202  6.448173573E-05
   203  2.411208752E-05
   204  7.055252234E-04
   205 -1.025958638E-04
   206  4.017837186E-05
   207  8.639817451E-06
   208 -1.063141018E-02
   209  1.187011007E-03
   210  2.154189994E-03
   211 -4.465287503E-03
   212 -1.639670189E-04
   213 -8.136296592E-05
   214  1.195585167E-04
   215 -2.598481653E-04
   216  1.188948292E-04
   217 -3.596988421E-03
   218  4.667896228E-03
   219  5.074005395E-04
   220 -1.698543109E-03
   221 -1.174204838E-05
   222 -6.317709011E-06
   223 -1.264715825E-06
   224 -7.613162517E-06
   225  2.900217085E-06
   226 -7.235105362E-05
   227  6.910826957E-06
   228  4.823271074E-05
   229 -1.729618824E-05
   230  1.322658438E-03
   231 -2.587837660E-04
   232 -4.176575601E-04
   233  3.606465908E-04
   234  2.064275715E-05
   235  4.517914185E-05
   236 -4.133633887E-06
   237  2.302314976E-05
   238  2.518429560E-05
   239 -1.163219856E-03
   240  6.655559774E-04
   241  3.424877534E-04
   242 -7.706111537E-04
   243  1.502207042E-05
   244 -1.760972356E-03
   245  1.990685018E-03
   246 -3.959140623E-04
   247  2.310446291E-04
   248 -3.043303401E-05
   249 -4.303500540E-04
   250  1.126716560E-05
   251 -1.703380033E-03
   252  2.125653834E-03
   253 -3.284338748E-05
   254  3.032018825E-04
   255  3.322814544E-04
   256 -1.903520781E-04
   257 -6.985121054E-05
   258  1.423311056E-03
   259 -3.091647832E-04
   260 -1.789121319E-04
   261 -1.503246326E-04
   262 -1.335785727E-04
   263  2.603575863E-03
   264  1.419802871E-05
   265  1.646151747E-04
   266 -2.976340858E-03
   267 -7.838522233E-05
   268 -2.759536162E-05
   269  2.561450456E-05
   270 -1.844573660E-03
   271  2.090093326E-04
   272 -3.938317100E-03
   273  1.392346760E-03
   274 -1.387670792E-03
   275 -1.606105232E-04
   276  1.397205125E-03
   277  1.731478835E-04
   278 -9.109889566E-06
   279 -9.805008110E-04
   280  1.189820158E-03
   281  2.803426680E-05
   282  9.118259968E-05
   283  2.838834392E-04
   284 -1.929393594E-04
   285  2.094994566E-05
   286 -1.376680450E-03
   287  5.612261237E-04
   288 -3.645307459E-05
   289 -2.812094373E-04
   290  2.107758018E-04
   291 -2.374678537E-04
   292 -9.896692206E-05
   293  1.297029012E-03
   294 -4.652677475E-05
   295 -4.878108345E-04
   296  1.657947493E-04
   297 -1.357694911E-04
   298  1.032556673E-03
   299 -8.125360002E-06
   300 -8.963836307E-04
   301  9.875236991E-04
   302 -2.706605000E-04
   303  2.287258602E-05
   304 -3.673615961E-05
   305 -2.159795070E-04
   306  1.692499235E-05
   307 -1.221265715E-03
   308  4.686558049E-04
   309 -1.337958880E-04
   310 -2.734517715E-04
   311  9.279570966E-05
   312 -2.015419463E-04
   313 -1.143209110E-04
   314  1.556450250E-03
   315 -1.242048587E-04
   316  1.111307075E-04
   317  3.544294225E-04
   318  5.402974907E-04
   319  1.089675109E-03
   320  1.226811135E-05
   321  8.001126071E-04
   322 -3.124684302E-03
   323 -1.825120746E-04
   324  8.772895427E-05
   325  1.633526558E-04
   326 -8.648803525E-04
   327 -6.339738506E-05
   328  1.923879261E-03
   329 -1.322142869E-03
   330 -1.074292196E-04
   331  3.943250935E-04
   332  2.478892281E-05
   333  6.666217312E-04
   334  1.016344547E-05
   335  3.193760851E-04
   336 -3.097801500E-03
   337 -3.540954370E-05
   338 -2.173955826E-05
   339  1.150517068E-04
   340 -1.716495338E-03
   341 -6.985879463E-05
   342  1.517713808E-03
   343 -5.514409920E-04
   344  1.720082390E-04
   345 -8.698448867E-05
   346  2.244827613E-04
   347  2.538977143E-03
   348  4.027131289E-05
   349 -1.621444189E-04
   350 -5.472894673E-05
   351  1.764193831E-05
   352  5.636339021E-05
   353 -3.094191447E-05
   354 -4.009682116E-04
   355 -2.227010165E-06
   356 -1.514853157E-04
   357 -1.010518080E-04
   358  2.861518854E-05
   359 -1.198079985E-05
   360  2.164170685E-05
   361 -3.674218229E-05
   362 -1.442096258E-07
   363 -1.527666916E-04
   364 -9.576500890E-05
   365 -1.670202789E-05
   366 -1.866333996E-05
   367 -2.749827572E-05
   368 -4.724565032E-05
Ene=   -1.0166838516E+01
Spin= Alpha
Occup=   2.0000000
     1  3.198642024E-05
     2  3.321312718E-05
     3 -7.384348003E-05
     4 -1.993526499E-05
     5 -6.896185388E-05
     6 -9.023031323E-05
     7  5.016885729E-04
     8  1.479043528E-04
     9  4.639883193E-04
    10  3.921881497E-04
    11  1.339739445E-03
    12 -2.891337688E-04
    13  1.484950099E-03
    14 -1.501244001E-04
    15  2.453308480E-05
    16 -8.487412898E-05
    17  1.130692280E-04
    18 -4.248355777E-05
    19  2.782828588E-03
    20 -6.206515886E-03
    21 -1.494629570E-03
    22 -5.808017220E-03
    23  3.579647764E-04
    24  2.928815610E-04
    25  2.358471006E-05
    26 -1.361911618E-05
    27  2.560791551E-05
    28  2.253211277E-05
    29 -1.104072510E-04
    30  7.658314406E-06
    31 -7.474953299E-05
    32  2.809713886E-04
    33  1.458152388E-03
    34  1.504693073E-04
    35  1.632806424E-03
    36  6.700275241E-05
    37  6.871783992E-06
    38  8.043347748E-05
    39 -3.366322301E-05
    40  3.396212462E-05
    41 -1.085253733E-03
    42  3.786886937E-03
    43  8.796844009E-04
    44  4.307922481E-03
    45 -4.375754217E-03
    46 -3.627420287E-03
    47 -4.219351974E-05
    48  1.638229865E-04
    49 -4.614581744E-05
    50  8.804932198E-04
    51 -1.218237552E-04
    52 -6.855421215E-05
    53 -8.175533734E-05
    54 -1.615776375E-02
    55  4.381459167E-03
    56  5.727780057E-03
    57  6.879802913E-04
    58 -1.796998767E-04
    59  1.740515131E-04
    60 -3.276403802E-04
    61 -3.762451809E-04
    62 -3.180139764E-04
    63 -5.494851551E-04
    64 -1.377318648E-03
    65  2.863820688E-03
    66  1.695256428E-03
    67  3.042584762E-02
    68  2.502734221E-02
    69 -6.985743650E-05
    70 -1.651239846E-05
    71 -7.948754647E-05
    72  1.174011647E-03
    73  4.809648642E-04
    74  1.157762947E-04
    75  5.463031951E-04
    76 -1.888308877E-03
    77  5.117104937E-04
    78  1.530114355E-04
    79  1.472093944E-03
    80  4.962835720E-05
    81 -3.324527508E-05
    82 -1.379993270E-04
    83  6.647962089E-05
    84 -1.236030188E-04
    85 -7.197425420E-04
    86 -2.906118208E-03
    87 -6.607546223E-04
    88 -3.189036735E-03
    89 -4.231989359E-03
    90 -3.503467574E-03
    91 -1.499432076E-04
    92  1.981883141E-05
    93  8.696771251E-05
    94  7.421183366E-04
    95 -1.264273825E-04
    96 -6.490137210E-06
    97 -1.123366805E-04
    98 -1.445083873E-02
    99 -9.491697239E-04
   100 -6.566927200E-04
   101  6.656582101E-03
   102 -1.284408021E-04
   103 -3.671067315E-04
   104  7.101442275E-05
   105  4.554940758E-04
   106 -4.488634504E-05
   107 -1.480956266E-02
   108 -1.627371552E-03
   109  6.624627965E-04
   110  4.825938246E-03
   111 -3.888982510E-01
   112 -3.198037233E-01
   113  3.794347352E-05
   114 -6.626738651E-05
   115 -2.335054393E-05
   116 -1.624757368E-02
   117 -3.516837973E-05
   118  3.501999405E-04
   119  2.609272072E-04
   120  3.010317149E-02
   121 -1.237136569E-02
   122  4.831311003E-03
   123 -4.472221399E-03
   124  2.292580005E-04
   125 -4.486462866E-04
   126  5.556948587E-05
   127 -4.523647970E-04
   128  4.196223087E-04
   129  4.962000141E-02
   130 -9.494088286E-03
   131 -7.405074201E-05
   132 -5.090741630E-03
   133  5.181656923E-03
   134  4.281715863E-03
   135  1.126836674E-04
   136 -1.081370722E-05
   137 -1.249890129E-04
   138 -7.271271419E-04
   139 -1.675668515E-04
   140 -8.447313598E-05
   141 -1.190749397E-04
   142  1.569804138E-02
   143  6.656164904E-03
   144  2.180307947E-03
   145 -8.633681014E-04
   146 -4.793024748E-04
   147  4.136267538E-04
   148 -2.170852274E-04
   149 -1.389206605E-04
   150  7.984369940E-05
   151  1.415418644E-02
   152  4.591013571E-03
   153  1.143033944E-04
   154 -1.323333133E-03
   155  4.059087352E-01
   156  3.338055422E-01
   157 -4.221964881E-05
   158  6.495356694E-05
   159  3.284105476E-05
   160  1.677525273E-02
   161  3.505702301E-04
   162 -2.917157222E-04
   163 -4.936920665E-05
   164 -3.054638709E-02
   165 -2.722401118E-03
   166 -7.990093682E-03
   167 -1.095166839E-02
   168  3.464782077E-04
   169  3.235179147E-04
   170  6.805775351E-04
   171 -1.520731333E-04
   172  1.081748687E-04
   173 -4.674853849E-02
   174 -4.493989689E-03
   175 -2.596911305E-03
   176 -8.089805368E-03
   177  2.161585388E-04
   178  1.752419785E-04
   179 -2.231207505E-04
   180 -3.883739516E-05
   181 -2.197273486E-04
   182  4.715093610E-05
   183 -1.145410202E-04
   184 -5.162565774E-05
   185 -1.378583971E-04
   186 -1.997859031E-04
   187 -2.826179483E-03
   188 -6.823375836E-04
   189 -3.132238416E-03
   190  1.821536209E-04
   191 -6.593648171E-05
   192  2.262713636E-04
   193 -1.966334980E-04
   194  1.862310450E-04
   195 -1.037274998E-03
   196 -3.319255241E-03
   197 -9.092218294E-04
   198 -3.837448097E-03
   199  4.597585427E-03
   200  3.804111974E-03
   201 -6.122617856E-06
   202 -1.889191475E-04
   203  9.032176490E-06
   204 -7.474012759E-04
   205 -1.042922470E-04
   206  4.321119181E-05
   207 -1.842273709E-04
   208  1.501553105E-02
   209  1.665551155E-03
   210 -4.377715732E-03
   211  4.876591319E-03
   212  3.036798958E-04
   213 -8.391369374E-05
   214 -1.342940078E-04
   215  5.180329516E-04
   216 -1.620636606E-04
   217 -8.721915430E-04
   218  2.516768908E-03
   219 -2.812978446E-03
   220 -1.167210134E-03
   221 -3.924833909E-06
   222 -2.404542968E-06
   223 -8.928281518E-07
   224 -2.078591500E-06
   225 -1.424101006E-07
   226 -1.806288036E-05
   227  4.452956899E-06
   228  1.292631644E-05
   229 -8.840659714E-08
   230  3.297671091E-04
   231 -2.459394589E-04
   232 -1.704042533E-04
   233 -1.906326805E-04
   234 -4.682765285E-05
   235  1.682211004E-06
   236  1.873246704E-06
   237  3.074188009E-05
   238  1.175087249E-05
   239 -2.370878691E-04
   240  6.762630147E-04
   241  2.576667791E-04
   242  5.920213485E-04
   243 -5.094135956E-05
   244  6.648349861E-04
   245  1.497886268E-03
   246  6.896185162E-05
   247 -4.908677897E-05
   248 -1.447036757E-05
   249  2.576238542E-03
   250  4.550970504E-05
   251 -7.802754753E-04
   252 -1.561079637E-03
   253 -2.176015343E-05
   254  8.405121641E-05
   255  8.806149562E-05
   256 -2.541209244E-03
   257 -6.194494104E-06
   258  1.209061040E-03
   259 -3.120741675E-03
   260 -1.914177949E-04
   261 -1.940728390E-04
   262 -1.913247824E-04
   263 -7.462815125E-04
   264 -5.173036796E-05
   265  1.891584365E-03
   266 -1.671479177E-03
   267 -3.785801627E-04
   268 -1.252525162E-04
   269  1.638679729E-04
   270  1.676210344E-03
   271  6.316646810E-06
   272 -2.041993295E-04
   273  1.260040331E-04
   274 -1.297026781E-04
   275 -2.082538328E-05
   276  3.921932392E-05
   277  1.815402795E-04
   278  1.157491571E-05
   279  9.162870673E-04
   280 -2.509847390E-03
   281 -9.612260686E-05
   282 -5.580708782E-05
   283 -2.671165230E-04
   284 -4.751914479E-04
   285 -4.979289159E-05
   286  1.806474947E-03
   287 -1.090800949E-03
   288 -4.117374187E-05
   289  3.161637492E-04
   290 -2.544203571E-04
   291  5.142233017E-04
   292 -1.890206918E-04
   293  3.122927340E-03
   294 -7.709706069E-04
   295 -1.298234956E-03
   296  4.239171111E-04
   297 -5.533806665E-04
   298  6.987986946E-04
   299 -1.297688331E-05
   300 -1.129922686E-03
   301  2.437967743E-03
   302 -3.283222977E-04
   303 -1.500203670E-05
   304 -1.222323027E-04
   305  2.681708953E-04
   306  4.737799608E-05
   307 -1.987401534E-03
   308  1.085106269E-03
   309 -1.980787354E-04
   310 -4.191435041E-04
   311  4.192675392E-05
   312 -4.809469236E-04
   313  1.817893052E-04
   314 -3.187568683E-03
   315  9.528750200E-04
   316 -4.201595465E-04
   317 -8.332604466E-04
   318 -1.235845692E-03
   319 -3.155260567E-04
   320  1.027218481E-07
   321 -5.156728282E-05
   322 -1.649791409E-04
   323 -2.771264683E-05
   324 -7.012564573E-06
   325 -4.869404876E-05
   326 -1.115586294E-04
   327 -3.983442777E-06
   328  1.487333259E-05
   329 -6.552575920E-05
   330 -3.904507630E-05
   331 -1.363993498E-05
   332 -3.256776195E-05
   333  2.001530976E-05
   334  4.612325099E-05
   335 -1.878466810E-03
   336  1.270835518E-03
   337  1.606590042E-04
   338  7.612190273E-05
   339 -3.961642479E-04
   340 -1.721143309E-03
   341 -4.798511699E-06
   342 -1.115696600E-03
   343  2.883379228E-03
   344 -2.210636611E-04
   345  1.048953606E-04
   346 -2.140251893E-04
   347  9.797556595E-04
   348  3.973214907E-06
   349 -3.835429675E-05
   350 -1.947877648E-05
   351  2.486163623E-05
   352  7.637425107E-06
   353  1.620367077E-05
   354 -4.899592741E-05
   355  2.716049637E-05
   356 -4.482482865E-05
   357  8.346981935E-06
   358  1.932897478E-05
   359  4.436103776E-05
   360 -1.358834778E-05
   361 -2.427674870E-04
   362 -2.164926581E-05
   363 -3.329345201E-05
   364 -4.808754145E-05
   365 -1.505136524E-05
   366 -3.755398403E-05
   367  2.224298297E-05
   368  1.763658178E-04
Ene=   -1.0166823819E+01
Spin= Alpha
Occup=   2.0000000
     1  6.632313616E-04
     2  6.835851053E-04
     3  9.769524779E-06
     4 -1.111911430E-04
     5  1.999285424E-05
     6 -1.803262657E-03
     7 -4.755830565E-05
     8  1.007879473E-03
     9 -2.076394067E-04
    10  7.834996884E-03
    11 -1.160812566E-03
    12 -1.116100716E-02
    13  3.384891575E-03
    14 -3.793467454E-06
    15 -4.330872503E-05
    16 -1.162333673E-05
    17 -2.316797365E-05
    18 -1.080608577E-07
    19  5.477688698E-02
    20  1.132518913E-03
    21 -4.507916483E-03
    22  3.203850515E-04
    23  2.850216356E-03
    24  2.289438583E-03
    25  6.678822175E-05
    26 -2.183613814E-04
    27 -2.111926486E-05
    28  1.228234542E-03
    29 -3.247894342E-04
    30  4.363829246E-04
    31  2.334264434E-04
    32 -9.310853444E-03
    33 -3.629470645E-03
    34  2.495989597E-03
    35  2.897868221E-03
    36  1.245075964E-04
    37  1.850834903E-04
    38 -1.145629980E-05
    39  1.835005152E-04
    40  1.328273158E-04
    41 -1.662559975E-02
    42 -3.248404112E-03
    43  9.308944705E-04
    44  2.636346816E-03
    45  4.588834411E-03
    46  3.729280713E-03
    47 -1.123263326E-04
    48 -2.556061929E-04
    49  4.984396100E-05
    50  9.136994750E-04
    51  5.608390363E-04
    52  3.435869612E-04
    53  4.218463302E-05
    54 -3.281648793E-03
    55  3.191886100E-03
    56 -6.242676462E-04
    57  1.512995869E-03
    58  3.151499328E-04
    59 -1.176551159E-04
    60  2.447307999E-04
    61  1.630506673E-04
    62 -4.714128422E-05
    63 -1.633545100E-02
    64  4.092740724E-03
    65 -6.071727213E-04
    66  2.383530463E-03
    67  2.266942737E-01
    68  1.865555581E-01
    69  6.029984728E-05
    70 -5.117692099E-05
    71 -4.193349334E-05
    72  7.611650037E-03
    73 -5.782428488E-04
    74  3.463552937E-04
    75  4.498310555E-04
    76 -8.639877739E-03
    77 -8.831990203E-05
    78  3.680832149E-04
    79 -7.253097338E-05
    80  1.132059193E-04
    81 -5.894381849E-04
    82 -5.435730970E-05
    83  2.040009880E-04
    84  2.635946200E-05
    85  2.752239151E-02
    86  8.848561220E-03
    87 -2.179398634E-03
    88 -7.902981463E-03
    89  7.495228054E-03
    90  6.126409566E-03
    91  2.385315685E-05
    92  9.194271158E-05
    93 -2.352075246E-04
    94  4.818058343E-04
    95  1.272012415E-04
    96 -2.942859559E-04
    97  5.942268728E-04
    98  5.835492183E-03
    99  8.361596484E-04
   100  1.443185322E-03
   101 -9.753289437E-04
   102  9.401703019E-05
   103  2.976020531E-04
   104  2.042976445E-04
   105 -6.250667476E-04
   106  2.001629159E-04
   107 -1.400417537E-02
   108  2.051718317E-03
   109  3.730772697E-04
   110  4.358301228E-03
   111  3.803602296E-01
   112  3.129226611E-01
   113 -8.819768166E-05
   114 -1.815816185E-05
   115 -3.860125225E-05
   116  1.399723789E-02
   117  7.317913506E-04
   118  1.081498212E-04
   119  3.084218380E-04
   120 -2.037034456E-02
   121  4.752801367E-03
   122 -1.366636517E-03
   123  2.082123462E-03
   124 -3.341222588E-04
   125  5.225351974E-04
   126 -2.210211604E-04
   127  5.642150798E-04
   128 -3.845509216E-04
   129  8.619007606E-03
   130 -7.603329993E-03
   131  1.294837587E-04
   132 -3.040360289E-03
   133  7.103510097E-03
   134  5.802510731E-03
   135  2.031947716E-04
   136  1.342834753E-04
   137 -3.215898469E-05
   138  5.420404670E-04
   139 -5.028446101E-04
   140 -4.274555536E-04
   141 -5.076016298E-05
   142  4.590944171E-03
   143  1.507894024E-04
   144  1.244247016E-03
   145 -1.043711649E-03
   146 -4.328493851E-04
   147  3.848594619E-04
   148 -3.445421997E-04
   149 -7.839398940E-05
   150 -1.994621666E-04
   151 -1.494410855E-02
   152 -4.600291497E-03
   153 -9.507245359E-04
   154 -1.946361025E-03
   155  3.474067833E-01
   156  2.858233888E-01
   157  4.109330272E-05
   158  3.607065767E-06
   159  8.758335715E-05
   160  1.262832069E-02
   161 -3.209466671E-04
   162 -8.923419127E-05
   163 -7.367977152E-04
   164 -1.785849430E-02
   165 -1.318366530E-03
   166 -2.058343055E-03
   167 -3.443597410E-03
   168  4.451716626E-04
   169  3.068273092E-04
   170  6.127145065E-04
   171 -2.245012409E-04
   172  2.438966145E-04
   173  1.259388845E-02
   174  3.010439479E-03
   175  2.581851123E-03
   176  8.086089124E-03
   177  8.920908264E-03
   178  7.305553340E-03
   179 -1.309385156E-04
   180  2.067086572E-04
   181  1.030646380E-04
   182  2.574357396E-04
   183  3.797434141E-04
   184 -5.620166135E-04
   185 -2.424259600E-04
   186  1.042437675E-02
   187 -1.268876852E-03
   188  2.961179287E-03
   189  8.658576391E-04
   190 -1.439777475E-04
   191 -7.768653862E-04
   192 -3.763808345E-04
   193 -2.901620786E-04
   194  6.961131986E-05
   195 -9.385930573E-03
   196  2.531199885E-03
   197 -1.182543404E-03
   198 -1.923837845E-03
   199  4.216354173E-03
   200  3.420797006E-03
   201  6.955848699E-08
   202 -2.164240346E-04
   203  1.637962156E-04
   204  9.812869327E-04
   205 -8.067524787E-05
   206  2.007738749E-04
   207 -6.075242236E-04
   208 -4.575040802E-03
   209 -1.352429123E-03
   210 -1.211339904E-03
   211 -3.414633984E-03
   212 -7.151795641E-05
   213 -7.970055318E-05
   214  1.065550529E-04
   215  3.738283185E-04
   216 -8.755322745E-05
   217 -1.651911225E-02
   218 -2.217817233E-03
   219 -1.687786504E-03
   220 -3.838065269E-03
   221 -6.260087779E-05
   222 -3.477992016E-05
   223 -2.716090163E-06
   224 -3.910955537E-05
   225  1.100393574E-05
   226 -3.604013296E-04
   227  1.728185008E-05
   228  2.454207271E-04
   229 -6.921718473E-05
   230  6.583143300E-03
   231 -1.263612686E-04
   232 -2.484925661E-03
   233  6.683157089E-04
   234  4.432439972E-05
   235 -5.219513649E-06
   236  5.447665714E-05
   237  8.812504181E-05
   238 -1.969337220E-05
   239 -6.028323228E-03
   240  5.166290954E-05
   241  2.866160741E-03
   242 -7.088992015E-04
   243 -7.736847991E-05
   244  2.876640319E-04
   245 -2.910606527E-03
   246 -4.564091240E-05
   247 -1.672245556E-05
   248 -9.845489244E-05
   249  7.719655282E-04
   250 -8.134207813E-05
   251  3.474493142E-04
   252 -2.781691216E-03
   253  9.979747908E-05
   254  8.326353331E-06
   255  4.195821595E-05
   256  9.900498628E-04
   257 -6.266759089E-05
   258 -3.798988981E-04
   259 -2.225282273E-03
   260  3.038418832E-05
   261  1.281534645E-04
   262  1.731717643E-04
   263  3.323982672E-04
   264 -7.719995437E-05
   265 -1.609523108E-04
   266 -1.755192702E-03
   267  1.049222093E-04
   268  1.289399632E-05
   269 -1.608076056E-04
   270  1.119373250E-03
   271 -4.982566271E-05
   272 -1.068764507E-03
   273  1.828435362E-03
   274 -6.709175742E-04
   275 -1.078320710E-04
   276  6.838881770E-04
   277  3.962969034E-03
   278 -7.196581385E-06
   279 -1.707462254E-03
   280 -1.745608637E-03
   281  1.324664691E-04
   282  2.017670407E-04
   283  4.280130655E-04
   284 -2.148085117E-03
   285 -4.623344324E-05
   286 -9.725169680E-04
   287 -5.654597885E-04
   288 -7.749592681E-06
   289 -3.787483896E-04
   290  1.521083410E-04
   291  3.896401610E-04
   292  2.202090287E-05
   293 -2.290715630E-03
   294  2.165721936E-03
   295  1.362638522E-03
   296 -4.894637579E-04
   297  5.486332224E-04
   298  3.757242529E-03
   299 -6.373875623E-06
   300 -1.621042743E-03
   301 -1.960838301E-03
   302 -4.297202182E-04
   303  7.642669645E-05
   304 -1.616364809E-04
   305 -2.174203709E-03
   306 -5.032512365E-05
   307 -8.151123981E-04
   308 -6.655109103E-04
   309 -5.497896756E-05
   310 -3.599162291E-04
   311  8.502231825E-05
   312  4.450582621E-04
   313  6.606313671E-06
   314 -2.028614745E-03
   315  2.092195771E-03
   316 -3.431313595E-04
   317 -7.980336166E-04
   318 -1.127176505E-03
   319  3.793543094E-03
   320 -1.100458507E-05
   321 -2.017910285E-03
   322 -9.953284709E-04
   323  4.245442323E-04
   324 -5.767107733E-05
   325 -4.004304425E-04
   326 -2.019742061E-03
   327 -3.157351760E-05
   328 -1.548515575E-03
   329 -2.438800007E-04
   330  3.621593487E-05
   331 -5.288659010E-04
   332  7.951751909E-05
   333  2.307924682E-04
   334 -8.125816350E-05
   335 -4.501888327E-06
   336 -1.872311847E-03
   337  1.460910282E-04
   338  1.820925278E-05
   339 -7.266289601E-05
   340  1.239194434E-03
   341 -6.249056755E-05
   342 -2.851957380E-04
   343 -2.461636458E-03
   344 -1.763028393E-04
   345  7.092809036E-05
   346 -3.807819795E-05
   347  2.662876124E-04
   348  5.696699257E-05
   349 -7.704198225E-04
   350 -4.192156340E-04
   351  8.369424493E-05
   352  2.108644366E-05
   353 -8.814873026E-05
   354 -7.476655444E-04
   355  6.434027152E-05
   356 -7.718774119E-04
   357 -4.126292628E-04
   358  2.575103508E-05
   359  8.986388666E-05
   360  8.873059319E-05
   361 -8.156889466E-04
   362  6.638988673E-05
   363 -7.727108033E-04
   364 -4.097620888E-04
   365 -1.034685302E-04
   366  6.513421679E-05
   367 -4.614501866E-05
   368 -8.328970670E-04
Ene=   -1.0158256214E+01
Spin= Alpha
Occup=   2.0000000
     1 -3.072702059E-06
     2 -6.486429027E-06
     3 -2.362478778E-05
     4 -5.113472999E-06
     5 -1.957785308E-05
     6  6.436695356E-05
     7  3.414388839E-05
     8  4.430087797E-06
     9  2.930962149E-05
    10 -4.814938116E-04
    11  3.147689941E-03
    12  7.290199336E-04
    13  2.602052721E-03
    14  1.136135675E-04
    15  1.345546873E-05
    16 -6.883971671E-05
    17 -3.158510545E-05
    18 -1.136709599E-04
    19 -1.798603874E-03
    20  6.403657919E-04
    21  1.353287115E-03
    22  1.824825778E-04
    23 -1.037070770E-03
    24 -8.478809590E-04
    25  1.413023056E-05
    26 -6.594991995E-06
    27  1.823288200E-05
    28 -1.083798361E-04
    29 -3.415648499E-05
    30  6.970898602E-05
    31 -3.893525153E-05
    32  2.731843638E-04
    33 -1.837562272E-03
    34 -3.636127246E-04
    35 -2.205393776E-03
    36  2.415121331E-05
    37 -1.891586043E-07
    38  3.512205885E-05
    39 -4.722104187E-06
    40  1.964888310E-05
    41 -3.203909452E-03
    42 -1.309008656E-03
    43  8.428577478E-04
    44 -2.077961739E-03
    45  7.616069800E-03
    46  6.222140765E-03
    47  1.631249589E-05
    48  7.091239080E-05
    49 -6.942650649E-06
    50  8.113685688E-04
    51 -2.119815918E-04
    52 -4.856627028E-04
    53  6.638014640E-05
    54 -2.102508065E-03
    55  1.471719845E-03
    56 -9.756973915E-04
    57 -5.678857958E-04
    58 -4.919219352E-05
    59  1.836134112E-05
    60 -3.225168167E-05
    61 -6.689328764E-05
    62  2.303721770E-05
    63  1.726973452E-02
    64 -3.984828023E-04
    65 -5.224840923E-03
    66  4.604734725E-04
    67 -8.624681033E-04
    68 -7.088997824E-04
    69 -2.606232606E-04
    70 -7.692139540E-05
    71 -2.962244941E-04
    72 -7.788603958E-05
    73  1.820149670E-04
    74  5.311140500E-05
    75  2.863659133E-04
    76  1.183214032E-03
    77 -2.079642379E-03
    78 -8.084911071E-04
    79 -2.795650935E-03
    80 -2.037177027E-04
    81  1.845686596E-05
    82 -3.460537277E-04
    83  2.439408977E-04
    84 -2.556208949E-04
    85  1.552045455E-02
    86 -3.091544176E-04
    87 -8.430904143E-05
    88 -5.108416029E-03
    89 -3.596157625E-01
    90 -2.958152183E-01
    91 -3.263510348E-05
    92  3.475125639E-06
    93  5.515696346E-05
    94 -1.378511655E-02
    95  1.896304209E-04
    96  8.811866738E-05
    97 -4.850573492E-04
    98  1.799069927E-02
    99  1.415928906E-04
   100  1.091282591E-03
   101 -6.471935326E-03
   102 -3.562395408E-06
   103 -2.265525866E-04
   104 -1.104784406E-04
   105  5.273958711E-04
   106 -1.388522488E-04
   107  5.386676209E-02
   108  2.038321112E-03
   109  1.585516668E-03
   110 -1.003070666E-02
   111  4.520928720E-03
   112  3.694740311E-03
   113  1.578100395E-04
   114 -5.204413771E-06
   115 -1.334748779E-04
   116  7.952927311E-04
   117 -3.670558476E-04
   118  1.836780286E-04
   119 -1.335711071E-05
   120 -9.544857427E-03
   121  4.483262148E-03
   122  1.219806548E-03
   123 -6.367192676E-04
   124  2.075786347E-04
   125 -3.444319063E-04
   126  6.729581036E-07
   127 -8.366719699E-06
   128  4.621186136E-05
   129 -8.923434676E-02
   130  2.022294862E-02
   131 -5.094617225E-03
   132  5.875553098E-03
   133  4.320299592E-01
   134  3.553868152E-01
   135  6.529508302E-05
   136  1.382777265E-05
   137 -1.881549745E-05
   138  1.649688801E-02
   139 -5.707585075E-04
   140 -2.561694838E-04
   141  1.217944158E-04
   142 -2.153197721E-02
   143 -6.948433827E-03
   144 -3.208701746E-03
   145 -3.657933112E-05
   146 -4.576524735E-04
   147  3.589294464E-04
   148 -3.793691906E-04
   149 -1.797410929E-04
   150 -1.845099854E-04
   151 -6.724264420E-02
   152 -1.104691239E-02
   153 -4.976751855E-03
   154  1.261067950E-03
   155 -4.729108359E-03
   156 -3.871852499E-03
   157 -1.998605679E-04
   158  1.297419786E-05
   159  1.793542347E-04
   160 -7.049883843E-04
   161  9.046649590E-05
   162 -2.474688582E-04
   163 -3.543289329E-04
   164  8.889295376E-03
   165 -1.167251364E-03
   166 -1.801298002E-04
   167  4.467548456E-03
   168  5.179457266E-05
   169  3.892733663E-04
   170  1.211343570E-04
   171 -1.951621147E-04
   172 -4.610581065E-05
   173  9.084089637E-02
   174  3.158293828E-03
   175  1.097450786E-02
   176  1.810905874E-02
   177 -2.863337884E-02
   178 -2.355151057E-02
   179 -5.048459455E-05
   180 -1.037300779E-05
   181 -5.487594311E-05
   182 -1.124172879E-03
   183  3.200324886E-04
   184  7.374127742E-05
   185  3.404475069E-04
   186  1.464667731E-03
   187  1.239225363E-03
   188  6.271527838E-04
   189  1.983423637E-03
   190  6.185653062E-05
   191  7.124184135E-06
   192  1.083676049E-04
   193 -4.883016505E-05
   194  6.695143171E-05
   195  3.111215300E-03
   196  4.170236830E-03
   197  1.213182921E-03
   198  5.135212507E-03
   199 -7.354869911E-03
   200 -6.010350029E-03
   201  9.823283608E-06
   202 -6.509549601E-05
   203  2.544443708E-05
   204 -7.734124823E-04
   205 -2.792958694E-05
   206  4.301574575E-04
   207 -2.805810740E-04
   208  1.988389448E-03
   209 -1.270740862E-03
   210  1.200691911E-03
   211  1.338423176E-03
   212  2.524861957E-05
   213 -2.769897251E-05
   214  4.567722819E-05
   215  8.435409543E-05
   216 -3.040707300E-06
   217 -1.755865847E-02
   218 -7.573995106E-04
   219  5.900697992E-03
   220 -1.120657560E-03
   221  5.397494378E-06
   222  3.947133123E-06
   223  2.475073836E-05
   224  5.299770903E-06
   225  2.062053623E-05
   226  3.828513502E-06
   227 -9.241367591E-05
   228 -2.175085989E-05
   229 -7.636449490E-05
   230 -3.516940490E-05
   231 -3.064001207E-04
   232 -4.907473456E-05
   233 -2.601853649E-04
   234 -3.274849435E-05
   235 -1.269057684E-05
   236  4.587200349E-05
   237 -4.326018720E-06
   238  6.244410702E-05
   239 -1.857407610E-03
   240  1.316930076E-03
   241  7.330711301E-04
   242  9.389939548E-04
   243  1.408783384E-04
   244 -1.143381191E-03
   245 -1.329813205E-03
   246 -8.478739577E-05
   247  2.182851250E-04
   248  3.905995205E-05
   249 -9.860107789E-04
   250 -1.307534708E-04
   251  1.004403750E-03
   252  1.050594620E-03
   253  7.108028793E-05
   254 -1.897497378E-04
   255 -1.513402179E-05
   256  1.042294804E-03
   257 -8.733104618E-05
   258  8.519522922E-04
   259  1.652868552E-03
   260 -1.329730731E-04
   261 -1.384388602E-04
   262 -3.696238957E-05
   263  7.178724753E-04
   264  2.612304495E-05
   265 -4.469012319E-05
   266  6.617687528E-04
   267 -4.564486823E-05
   268  3.104218281E-05
   269  2.151389219E-05
   270 -1.240347545E-04
   271 -6.701444651E-06
   272 -1.108452773E-04
   273 -2.125543318E-04
   274 -1.992836463E-05
   275  5.967874046E-06
   276  5.065676192E-05
   277  8.103583153E-04
   278 -7.637639681E-05
   279  1.427229926E-03
   280 -1.869304013E-03
   281 -3.529093275E-04
   282 -8.418760163E-04
   283 -8.263460750E-04
   284 -2.598841110E-04
   285  4.249760832E-05
   286  6.114347636E-04
   287 -2.904518440E-03
   288  1.875264107E-04
   289  1.163569127E-03
   290  3.493911722E-05
   291 -1.327063756E-03
   292  1.794262611E-05
   293  8.181401806E-04
   294  7.466609638E-04
   295 -3.080863419E-04
   296  1.525252767E-05
   297 -8.679549503E-05
   298 -6.270593702E-03
   299  8.320488655E-05
   300 -1.696687250E-03
   301  2.249203144E-03
   302 -1.175746939E-03
   303  6.801621972E-04
   304 -6.046461503E-04
   305  5.349520940E-04
   306 -2.895250607E-05
   307 -9.342535241E-04
   308  3.221438181E-03
   309  2.845572532E-04
   310 -1.314740584E-03
   311  5.041947871E-04
   312  1.578457813E-03
   313 -2.449413272E-05
   314 -7.772930520E-04
   315 -9.072419193E-04
   316 -6.430132191E-05
   317 -1.067534908E-04
   318 -2.893800329E-04
   319  5.895459150E-03
   320 -9.644809113E-06
   321  1.213253796E-04
   322 -1.390471712E-04
   323 -1.276819074E-04
   324 -3.913790245E-05
   325 -3.324378703E-07
   326  7.870105304E-05
   327  1.273138356E-05
   328 -3.612106923E-05
   329 -3.412164125E-04
   330  6.263564896E-05
   331  6.682005714E-05
   332 -2.485482007E-05
   333 -1.277770673E-04
   334 -4.843407702E-05
   335  2.158484882E-04
   336 -3.955202484E-04
   337  2.867787514E-05
   338 -5.730074442E-05
   339 -1.350441212E-05
   340  4.128158009E-04
   341  1.095907063E-04
   342 -1.032727933E-03
   343 -1.769970172E-03
   344 -5.778891300E-05
   345  1.205693299E-04
   346 -1.901669985E-04
   347 -7.305546596E-04
   348  1.337055836E-06
   349  2.821467750E-06
   350  5.790403834E-05
   351  1.398548655E-05
   352  6.445082341E-06
   353  1.521785450E-05
   354 -2.057641446E-04
   355  9.378673750E-06
   356  1.392324947E-05
   357  8.184152691E-05
   358  1.336671952E-05
   359  2.343291421E-05
   360 -1.209427397E-05
   361 -1.130541585E-03
   362 -9.938436485E-06
   363 -1.176600678E-05
   364  1.614453518E-05
   365 -4.362402378E-06
   366 -2.606492710E-05
   367  1.636694480E-05
   368  1.064550209E-03
Ene=   -1.0158252047E+01
Spin= Alpha
Occup=   2.0000000
     1 -1.949498956E-05
     2 -3.984088056E-05
     3 -1.976627816E-05
     4  5.999988129E-07
     5  2.377732529E-05
     6  3.876698439E-04
     7  2.766362849E-05
     8 -2.002336703E-05
     9 -2.957216772E-05
    10 -2.897337905E-03
    11  2.652703600E-03
    12  2.356637505E-04
    13 -3.250433227E-03
    14 -5.994519478E-05
    15 -4.037672281E-05
    16  1.017726356E-04
    17 -3.127269650E-05
    18 -1.143553740E-04
    19 -1.107487864E-02
    20  1.173189256E-03
    21  7.667357793E-03
    22 -2.907847043E-03
    23 -9.847432126E-03
    24 -8.050181337E-03
    25 -4.852768690E-06
    26 -9.084017243E-05
    27  2.080369025E-05
    28 -1.023587111E-03
    29 -7.543598336E-05
    30  6.885843289E-04
    31 -6.582985192E-05
    32  2.615604935E-03
    33  1.596596052E-03
    34  6.108840071E-04
    35 -1.271980962E-03
    36  6.281793478E-05
    37  4.272525799E-05
    38  6.512936344E-05
    39  1.276460625E-04
    40 -8.133117467E-06
    41 -2.561052380E-02
    42  2.079325038E-03
    43  9.377900741E-03
    44 -3.689622024E-03
    45  1.891387703E-03
    46  1.541373958E-03
    47  2.031987330E-05
    48  9.977558264E-06
    49 -1.791224221E-05
    50  2.202271806E-04
    51 -1.131268814E-04
    52 -8.393676557E-05
    53  3.133733947E-05
    54 -6.042264918E-04
    55 -5.909140316E-04
    56  6.946607024E-04
    57  2.383548005E-03
    58  3.525009241E-06
    59 -3.075690485E-05
    60 -1.283010503E-05
    61  2.380859095E-05
    62  7.190018949E-06
    63  5.503350196E-04
    64 -1.891445917E-03
    65  2.095154929E-03
    66  9.548806656E-04
    67 -7.270999891E-03
    68 -5.968133745E-03
    69  1.668356996E-04
    70 -1.287212687E-04
    71 -7.756429268E-05
    72 -8.081874769E-04
    73 -4.492948668E-04
    74 -1.199772702E-05
    75  3.935855114E-04
    76  1.129092362E-02
    77  3.705302561E-03
    78 -2.757810020E-03
    79 -2.530675992E-03
    80  1.410271091E-05
    81 -4.699540882E-04
    82 -9.326691555E-05
    83 -4.940324920E-05
    84  4.533291708E-05
    85  1.347407626E-01
    86  2.133875278E-02
    87  3.004812277E-03
    88 -2.099486675E-02
    89  3.481171524E-01
    90  2.863708854E-01
    91 -6.798855838E-05
    92  2.571199837E-05
    93 -4.805233443E-05
    94  1.314655651E-02
    95  4.614293129E-04
    96 -2.586865517E-04
    97  5.185519973E-04
    98 -1.718949751E-02
    99  2.714487929E-03
   100 -2.182049673E-03
   101  5.076922426E-03
   102  7.486985460E-05
   103  8.235411169E-05
   104  1.566994684E-04
   105 -5.799987209E-04
   106  2.508822352E-04
   107 -6.097189279E-02
   108  6.646489216E-03
   109 -4.718301572E-03
   110  8.556877122E-03
   111 -4.480344418E-05
   112 -5.703393004E-05
   113 -1.147544657E-04
   114  8.278201420E-05
   115  3.268199796E-04
   116  3.636794212E-04
   117  9.638745144E-05
   118 -1.195263765E-05
   119 -2.919662731E-04
   120 -3.118428089E-03
   121  4.133914680E-04
   122  1.630877084E-03
   123  3.036183660E-03
   124  6.842133289E-05
   125  3.017607775E-04
   126  2.888163360E-04
   127 -2.182539552E-04
   128 -9.358190863E-06
   129 -5.576506288E-03
   130  3.063998253E-03
   131  2.678704850E-03
   132  3.817502391E-03
   133  2.663662544E-01
   134  2.191231302E-01
   135  2.623525330E-05
   136  4.725135081E-05
   137  6.606882943E-05
   138  1.002011785E-02
   139 -3.267067786E-04
   140 -4.108314460E-04
   141 -4.287391122E-04
   142 -1.311540773E-02
   143 -3.050163843E-03
   144 -3.140576439E-03
   145 -2.216604241E-03
   146 -3.202608695E-04
   147  1.396149595E-04
   148 -3.647955878E-04
   149 -4.218377096E-05
   150 -1.519383131E-04
   151 -4.867713378E-02
   152 -5.028912845E-03
   153 -6.852204651E-03
   154 -5.856731901E-03
   155  9.117704697E-04
   156  7.254646102E-04
   157 -3.064529647E-04
   158  3.148535460E-05
   159  6.105508381E-05
   160  5.183699935E-04
   161  2.781023295E-04
   162  8.210770726E-05
   163 -2.287074891E-05
   164 -5.018488402E-03
   165 -3.109898741E-03
   166  8.887176934E-04
   167 -1.678698194E-03
   168 -2.258834126E-04
   169  2.908686170E-04
   170 -2.869454317E-05
   171  9.338928772E-05
   172 -2.105549927E-04
   173 -2.400104324E-02
   174 -4.885237838E-03
   175 -1.073599782E-03
   176 -7.293593835E-03
   177 -3.530538082E-01
   178 -2.904073110E-01
   179  3.093186776E-05
   180 -7.036755427E-06
   181 -1.775034860E-05
   182 -1.367425349E-02
   183 -2.164491736E-04
   184  1.803600943E-04
   185  1.044268117E-04
   186  1.780821297E-02
   187 -4.434238402E-03
   188  3.705808505E-03
   189  3.217149171E-03
   190  9.156462210E-05
   191  3.922253707E-04
   192  2.444179313E-04
   193  2.300709250E-04
   194 -8.776883327E-05
   195  4.630276558E-02
   196 -6.178541281E-03
   197  4.526868803E-03
   198  4.120721706E-03
   199  3.443701256E-03
   200  2.809764859E-03
   201  1.457014457E-05
   202  2.266246849E-05
   203 -2.782043817E-05
   204  3.842349669E-04
   205 -1.260838863E-05
   206 -1.527508451E-04
   207  1.893273376E-04
   208 -1.028666438E-03
   209 -2.281327496E-03
   210  4.464956402E-05
   211  1.696938786E-04
   212  1.503641687E-05
   213 -2.754333519E-05
   214 -1.299226921E-05
   215 -5.213728128E-06
   216  1.245573242E-05
   217  4.124574006E-03
   218 -1.294114900E-03
   219  1.045498655E-03
   220  1.673458241E-03
   221  3.878858102E-05
   222  2.896444763E-05
   223  2.075290114E-05
   224 -9.291287395E-07
   225 -2.486433999E-05
   226  2.360592505E-05
   227 -7.832293322E-05
   228 -8.610086049E-06
   229  9.620466120E-05
   230 -2.202199745E-04
   231 -2.463025676E-04
   232  1.153034938E-04
   233  2.761348806E-04
   234  2.159860457E-05
   235 -1.239326454E-05
   236 -6.001790784E-05
   237  8.058979659E-06
   238  5.303653236E-05
   239 -1.161487431E-02
   240  1.272416615E-03
   241  2.813836501E-03
   242 -2.089997562E-03
   243  2.987838007E-05
   244 -4.886919068E-04
   245 -1.266361593E-03
   246 -1.147445016E-04
   247  8.733896112E-05
   248  3.385180103E-05
   249  2.197745033E-04
   250  5.793036709E-05
   251 -7.105245797E-04
   252 -1.511668768E-03
   253 -7.234294184E-05
   254  1.421134665E-04
   255  9.916155143E-05
   256  7.275256524E-06
   257  1.167082602E-04
   258 -9.164148628E-04
   259 -6.578702993E-04
   260  1.181452511E-04
   261  1.477903035E-04
   262 -3.234689896E-05
   263 -4.484070989E-04
   264 -1.238805490E-04
   265  9.848041571E-04
   266  1.438772715E-03
   267 -1.209036719E-04
   268 -1.563688808E-04
   269  2.284760951E-05
   270  1.338247550E-03
   271 -5.039123709E-05
   272 -1.022514478E-03
   273 -1.684578960E-03
   274 -3.199618272E-04
   275  3.976178019E-05
   276  3.017050709E-04
   277  7.608614551E-03
   278  4.753280986E-05
   279 -1.328496108E-03
   280  1.860232304E-03
   281  2.252049448E-04
   282  8.507491136E-04
   283  8.449936957E-04
   284  1.006440064E-03
   285  2.884121380E-05
   286 -1.224202278E-03
   287  1.966170157E-03
   288 -1.132059458E-04
   289 -1.202421615E-03
   290  9.792202998E-05
   291  1.180532099E-03
   292 -1.744333021E-05
   293  2.273168588E-04
   294 -3.993585008E-04
   295 -5.346786577E-05
   296 -3.680954577E-05
   297 -2.682928041E-05
   298 -1.895408122E-03
   299  3.116956932E-05
   300 -1.006260390E-03
   301  1.437746846E-03
   302 -7.710988493E-04
   303  4.598196098E-04
   304 -2.816603967E-04
   305  9.076935495E-04
   306  3.635365199E-05
   307 -1.064843509E-03
   308  1.342874636E-03
   309  9.152604527E-05
   310 -9.000451177E-04
   311  2.684922931E-04
   312  8.874940049E-04
   313 -1.312272930E-05
   314  3.924318175E-04
   315 -2.298151050E-04
   316  4.536127888E-05
   317  2.593344257E-06
   318  1.205749037E-04
   319 -3.140863473E-03
   320 -9.403731345E-05
   321  1.440453239E-03
   322 -1.802127881E-03
   323 -7.773437894E-04
   324 -3.148682132E-04
   325  8.419331796E-04
   326  2.987760455E-04
   327  9.218423498E-05
   328  1.441197122E-04
   329 -3.462312839E-03
   330  3.917745900E-04
   331  8.762879750E-04
   332 -5.744433950E-04
   333 -1.343519157E-03
   334 -1.162112371E-04
   335  9.580460343E-04
   336  1.542966754E-03
   337 -1.158868455E-06
   338 -1.196924835E-04
   339  1.565763812E-04
   340  1.279510835E-03
   341  9.639400254E-05
   342 -7.217399318E-04
   343 -3.052498440E-04
   344  1.808436832E-05
   345  1.010915431E-04
   346 -1.107150782E-04
   347 -2.861656956E-04
   348  1.201805195E-05
   349  2.618827334E-05
   350  3.379862656E-04
   351 -5.949291138E-06
   352  3.186806867E-05
   353 -4.074286100E-06
   354 -1.779680340E-03
   355 -5.053388711E-06
   356  3.595438126E-06
   357  2.877109530E-04
   358  1.302395031E-05
   359 -2.219986138E-05
   360 -5.324504800E-06
   361  1.673014048E-04
   362 -3.127207797E-06
   363  6.643117353E-06
   364  2.927540986E-04
   365  1.160278805E-05
   366 -1.776929541E-05
   367 -1.162802211E-05
   368 -6.527508650E-05
Ene=   -1.0158238450E+01
Spin= Alpha
Occup=   2.0000000
     1  6.495599563E-05
     2  1.388763733E-04
     3 -4.563765513E-06
     4  2.670749220E-05
     5 -2.017577036E-06
     6 -1.392063309E-03
     7  1.176969889E-05
     8  2.993716920E-05
     9 -1.665641972E-05
    10  1.041122068E-02
    11  5.312785453E-04
    12 -4.747747949E-03
    13  5.900700521E-04
    14 -2.675490977E-05
    15 -1.212476749E-05
    16  7.259859567E-06
    17 -4.141642946E-05
    18 -3.259411085E-05
    19  4.015481542E-02
    20 -1.996145614E-03
    21 -2.887193454E-02
    22  8.145461420E-03
    23  3.265667964E-03
    24  2.684041709E-03
    25  2.853945411E-05
    26  2.404106146E-05
    27 -3.251253403E-05
    28  2.600161916E-04
    29 -1.148922777E-04
    30 -2.519097572E-04
    31  1.649251308E-04
    32 -5.448112665E-04
    33 -9.635262505E-04
    34 -4.967082232E-04
    35  9.761697719E-04
    36 -5.810272939E-05
    37 -5.282866047E-05
    38 -8.876582405E-05
    39 -1.241848372E-04
    40  2.758487433E-05
    41  1.922362610E-02
    42 -5.091742395E-03
    43 -1.101558148E-02
    44  7.247306657E-03
    45  7.101663619E-03
    46  5.819242490E-03
    47 -2.265355451E-05
    48  6.377038953E-05
    49 -3.173302197E-05
    50  6.560496144E-04
    51  1.677453023E-06
    52 -5.119626570E-04
    53  1.674450490E-04
    54 -1.568876009E-03
    55  1.488882249E-03
    56 -8.921981001E-04
    57  1.435115609E-03
    58 -1.145128226E-04
    59  1.995013482E-05
    60 -1.217870623E-04
    61 -1.408530717E-04
    62  6.834920122E-06
    63  2.793335599E-02
    64  4.222017575E-03
    65 -1.479109845E-02
    66  6.326905536E-03
    67  6.193526690E-03
    68  5.139303593E-03
    69 -1.488130433E-04
    70  1.692695612E-04
    71  9.974870826E-05
    72 -3.228451731E-04
    73  3.636592531E-04
    74 -1.974646187E-04
    75 -3.057561985E-04
    76 -8.807680943E-04
    77 -5.683330260E-04
    78 -5.107744985E-04
    79  5.724922552E-04
    80 -2.451022981E-05
    81  2.431678816E-04
    82  1.531858690E-04
    83  1.537022888E-05
    84 -1.139117097E-04
    85 -9.819316290E-02
    86 -1.015214866E-02
    87 -9.685631915E-03
    88  1.187064358E-02
    89 -2.573668451E-01
    90 -2.117517081E-01
    91 -6.299812188E-06
    92 -4.955985481E-05
    93  8.869611691E-05
    94 -9.240258330E-03
    95 -3.341084828E-05
    96  3.597518771E-04
    97 -9.192713354E-04
    98  1.221129701E-02
    99  3.752824299E-04
   100  3.102672530E-03
   101 -2.913704234E-03
   102 -3.673143227E-05
   103 -2.172581375E-04
   104 -2.272563222E-04
   105  5.592409475E-04
   106 -1.961418898E-04
   107  6.792736331E-02
   108  6.236901941E-04
   109  7.738207901E-03
   110 -9.582427416E-03
   111  8.464216439E-03
   112  6.996803626E-03
   113  2.445213515E-04
   114  1.700340819E-04
   115  1.206185906E-04
   116  4.372790288E-05
   117 -6.369670896E-04
   118 -3.759907916E-05
   119 -2.629146804E-04
   120 -5.389698726E-03
   121  2.289461527E-03
   122  3.322301102E-04
   123  1.457451610E-03
   124  2.470318479E-04
   125 -1.610127778E-04
   126  2.915941267E-04
   127 -9.418501550E-05
   128  2.139063034E-04
   129 -1.420148303E-01
   130  2.052583811E-02
   131 -1.481553272E-02
   132  1.162286048E-02
   133 -2.431994518E-01
   134 -2.000977685E-01
   135 -7.448795974E-05
   136 -6.443930120E-05
   137  1.596118002E-05
   138 -8.697755016E-03
   139  8.036893942E-04
   140  5.372415091E-04
   141 -3.971770904E-05
   142  1.149980605E-02
   143  1.986331396E-03
   144  3.401398711E-03
   145 -1.022155971E-03
   146  3.753857697E-04
   147 -3.277586383E-04
   148  3.331142769E-04
   149  8.623155606E-05
   150  2.307511572E-04
   151  6.546172153E-02
   152  7.361001366E-03
   153  9.099425023E-03
   154 -2.197406875E-03
   155  8.296028759E-03
   156  6.859218231E-03
   157 -1.487495092E-04
   158  8.677599231E-05
   159 -2.686876386E-04
   160  1.683639296E-05
   161  2.400953984E-04
   162  1.425973596E-04
   163  6.178039479E-04
   164 -5.056482854E-03
   165 -1.427911713E-03
   166 -4.755368654E-04
   167 -2.139649390E-03
   168 -1.182351733E-04
   169 -3.276823750E-05
   170 -2.439071935E-04
   171  3.207642812E-04
   172 -2.032275120E-04
   173 -1.386590203E-01
   174 -7.314472162E-03
   175 -2.048847102E-02
   176 -1.620915271E-02
   177 -4.373495415E-01
   178 -3.598042816E-01
   179  5.980096821E-05
   180 -9.941978176E-05
   181 -3.940495283E-05
   182 -1.612384286E-02
   183 -6.513424236E-04
   184  9.246264301E-04
   185  4.541267727E-04
   186  2.118130735E-02
   187 -2.976846876E-03
   188  6.163017907E-03
   189  1.672767620E-03
   190  1.037857159E-04
   191  7.658989682E-04
   192  4.735283320E-04
   193  2.877378074E-04
   194 -1.959010378E-04
   195  9.484596277E-02
   196 -6.992803452E-03
   197  1.448937328E-02
   198  3.960788738E-03
   199  6.895320077E-03
   200  5.651015601E-03
   201  1.717585778E-05
   202  7.004129387E-05
   203  9.609740070E-06
   204  6.297203457E-04
   205 -5.871480186E-05
   206 -5.096384337E-04
   207  9.623620440E-05
   208 -1.497167817E-03
   209 -1.192623268E-03
   210 -1.420235825E-03
   211 -1.217388694E-03
   212 -5.060582951E-05
   213  6.887580758E-06
   214 -6.283845685E-05
   215 -1.953593066E-04
   216  4.506698543E-05
   217  2.753225949E-02
   218 -2.963334665E-03
   219 -1.614297279E-02
   220 -9.773502451E-04
   221 -1.423032027E-04
   222 -1.064675686E-04
   223  4.900952999E-06
   224 -2.739128022E-05
   225  1.849130019E-06
   226 -8.481634548E-05
   227 -1.504594585E-05
   228  1.456764825E-04
   229 -1.929713744E-05
   230  7.945963756E-04
   231 -8.935836161E-05
   232 -3.691623270E-05
   233  8.623189928E-05
   234  3.332103819E-05
   235 -1.579229986E-06
   236  1.891096492E-05
   237  6.082365815E-05
   238  9.042924051E-06
   239  4.230849395E-02
   240 -5.128835303E-04
   241 -1.181659434E-02
   242  3.044383982E-03
   243 -2.388423263E-05
   244  3.844363752E-04
   245  9.376802083E-05
   246  6.555011446E-05
   247 -8.373127458E-05
   248 -5.865073061E-05
   249 -1.372044876E-03
   250 -2.870120592E-05
   251  4.224521046E-04
   252  1.378786013E-04
   253  8.026419227E-05
   254 -8.843383510E-05
   255 -4.744020575E-05
   256 -1.325763056E-03
   257 -1.055712175E-05
   258  3.591357347E-04
   259  3.859145384E-04
   260 -1.192620376E-04
   261 -5.120620429E-05
   262 -3.132849488E-05
   263 -1.448976589E-03
   264 -7.234811462E-05
   265  8.481438537E-04
   266  9.233986578E-04
   267 -1.832521868E-04
   268 -1.265128646E-04
   269 -8.131531506E-06
   270 -1.007523862E-03
   271  9.063814352E-05
   272  2.262547415E-04
   273  2.525340888E-03
   274  1.554913973E-04
   275  8.918938020E-05
   276 -1.706035757E-04
   277 -1.187070446E-03
   278  2.920287090E-05
   279  8.524303186E-04
   280 -1.515966231E-03
   281 -2.577249821E-04
   282 -6.654797667E-04
   283 -6.517732863E-04
   284 -2.589629557E-03
   285 -1.934095319E-04
   286  2.456638942E-03
   287  6.057448241E-04
   288  5.899069708E-05
   289  1.055461411E-03
   290 -4.267202377E-04
   291 -6.449113293E-04
   292  1.008715089E-04
   293  6.189236922E-04
   294  2.923928596E-03
   295 -3.301134005E-04
   296  1.426952620E-04
   297 -1.485344592E-04
   298 -4.148741602E-03
   299  3.227996503E-05
   300  7.948535120E-04
   301 -1.431128337E-03
   302  7.254071622E-04
   303 -4.224334162E-04
   304  3.708156099E-04
   305 -2.583013180E-03
   306 -1.944567222E-04
   307  2.427573168E-03
   308  7.265633317E-04
   309  2.109785525E-04
   310  1.043478974E-03
   311 -2.647899339E-04
   312 -6.055007695E-04
   313  1.000185212E-04
   314  5.906516671E-04
   315  2.890652156E-03
   316  9.922471788E-05
   317  2.323198897E-04
   318  2.816945608E-04
   319 -3.927410680E-03
   320 -6.620511879E-06
   321  1.559051143E-03
   322 -2.433402841E-03
   323 -1.045086868E-03
   324 -4.246178140E-04
   325  1.111247169E-03
   326 -2.785458404E-03
   327 -1.769156320E-04
   328  2.806751425E-03
   329 -7.673243747E-04
   330  1.577024837E-04
   331  1.620394293E-03
   332 -4.965495247E-04
   333 -1.333524468E-03
   334 -7.380107321E-05
   335  8.534364393E-04
   336  8.969694409E-04
   337  2.746850865E-05
   338 -8.289588911E-05
   339  2.047880328E-04
   340 -9.837395812E-04
   341 -7.131023731E-06
   342  3.254717182E-04
   343  3.166667551E-04
   344  3.382110710E-05
   345 -1.369788175E-05
   346  1.209360953E-04
   347 -1.466288047E-03
   348 -1.551182100E-06
   349 -3.963266801E-05
   350 -1.093225903E-03
   351  2.161651010E-05
   352  2.799321234E-06
   353 -2.123337623E-05
   354  1.672947042E-03
   355 -6.051951093E-06
   356 -4.505279724E-05
   357 -1.114261933E-03
   358  1.189906585E-05
   359  3.766957063E-06
   360  2.714785079E-05
   361  2.167637789E-03
   362 -6.393883714E-06
   363 -4.549345244E-05
   364 -1.113023815E-03
   365 -2.697215403E-05
   366 -5.458117404E-06
   367 -1.178430022E-05
   368  2.209027123E-03
Ene=   -1.0157853371E+01
Spin= Alpha
Occup=   2.0000000
     1 -7.650236269E-04
     2 -6.285917575E-04
     3 -1.836406921E-04
     4 -1.167452435E-04
     5 -3.439532855E-04
     6 -6.988008059E-05
     7  1.590582139E-04
     8  1.328635651E-04
     9  2.842751734E-04
    10  1.426365490E-03
    11 -1.944351675E-03
    12 -1.550562642E-03
    13 -3.506916477E-03
    14 -2.363744566E-04
    15 -7.796120748E-05
    16 -2.697700667E-04
    17  1.868086856E-04
    18 -1.346208849E-04
    19  2.092879536E-02
    20 -7.091579679E-03
    21 -1.685231911E-02
    22 -7.675105708E-03
    23 -9.165091355E-02
    24 -7.538686575E-02
    25  3.177149851E-05
    26  2.789388282E-05
    27  4.304510773E-06
    28 -3.609642844E-03
    29 -1.186094525E-04
    30 -1.557770841E-04
    31  1.507589949E-05
    32  4.781107806E-03
    33 -1.047508319E-03
    34 -1.897317436E-03
    35 -2.131625644E-03
    36  7.341680383E-06
    37 -7.083369406E-05
    38 -4.978132021E-05
    39 -8.556653759E-05
    40  3.706148026E-05
    41  1.551577725E-02
    42  1.213797854E-03
    43 -1.991427406E-03
    44 -9.254981428E-04
    45 -2.652082840E-01
    46 -2.181546953E-01
    47 -1.298909245E-05
    48  6.920334637E-05
    49 -6.524951925E-07
    50 -1.030187577E-02
    51 -6.716687277E-05
    52 -4.273022328E-04
    53  3.142072940E-05
    54  1.388131995E-02
    55 -3.065045727E-03
    56 -3.693732224E-03
    57 -1.895681900E-03
    58 -2.272329676E-04
    59  1.896173671E-04
    60 -2.289088960E-04
    61 -1.323498231E-04
    62 -1.121315479E-04
    63  5.039188739E-02
    64 -7.124150643E-03
    65 -4.770945218E-03
    66 -7.838952168E-04
    67  1.011376578E-03
    68  8.152153359E-04
    69 -5.313047794E-05
    70 -5.665272538E-05
    71 -3.191980653E-05
    72  3.749769625E-04
    73  1.973996133E-04
    74  5.910834705E-05
    75  4.678228793E-05
    76 -3.662425402E-03
    77  1.154540729E-03
    78 -6.169125836E-04
    79  3.157689822E-03
    80 -1.568230307E-04
    81  1.782915629E-05
    82  4.658843552E-05
    83 -5.808492352E-05
    84  6.407561982E-05
    85 -2.840833455E-02
    86 -3.062720420E-03
    87 -8.100855163E-04
    88  8.563434087E-03
    89 -7.533561692E-03
    90 -6.240346759E-03
    91 -7.993159067E-06
    92 -1.719668841E-05
    93  6.441608747E-05
    94  2.084903760E-04
    95  3.833378337E-05
    96  1.664823492E-04
    97 -4.933463191E-04
    98 -7.507764575E-04
    99  1.967086152E-04
   100 -1.581698360E-03
   101 -4.326101520E-04
   102  2.950039894E-05
   103 -4.386960119E-05
   104 -2.522462940E-05
   105  6.732377729E-05
   106 -1.732724450E-05
   107  7.888289956E-03
   108  6.335042641E-04
   109 -3.114860887E-03
   110 -2.008405257E-03
   111  3.020414272E-03
   112  2.455943650E-03
   113  1.879292425E-05
   114 -1.616786751E-04
   115 -1.709958325E-06
   116  7.404602722E-04
   117 -2.703494320E-04
   118  2.119062185E-04
   119  3.639077623E-06
   120 -7.868930898E-03
   121  1.358290783E-03
   122 -2.338586692E-03
   123  3.582853815E-03
   124 -1.467573053E-04
   125 -1.049515902E-04
   126  4.980178701E-06
   127 -2.386648806E-04
   128  9.526248678E-05
   129 -6.618172894E-02
   130  1.437269585E-02
   131 -6.392989691E-03
   132  9.474536716E-03
   133  6.617256227E-03
   134  5.477122271E-03
   135  6.253697535E-05
   136  1.770328056E-06
   137 -5.148991480E-05
   138 -1.575951151E-04
   139 -4.631085367E-04
   140 -1.078443771E-04
   141  3.306331712E-04
   142  5.306358557E-04
   143 -1.021623313E-03
   144  1.648000572E-03
   145  9.685387440E-04
   146 -3.303743533E-05
   147  1.213655231E-04
   148 -1.007226697E-05
   149 -8.703889354E-05
   150 -2.808783992E-05
   151 -5.203142452E-03
   152 -2.682481956E-03
   153  3.232491617E-03
   154  3.516208640E-03
   155 -5.694463902E-03
   156 -4.661273877E-03
   157  1.487694468E-05
   158  2.966013212E-04
   159 -4.320917665E-05
   160 -8.438219130E-04
   161 -9.010475743E-05
   162 -4.581383135E-04
   163 -3.178945301E-04
   164  1.036476112E-02
   165  1.687661631E-03
   166  4.942152758E-03
   167  1.424111294E-03
   168  1.750734245E-04
   169  6.865157886E-05
   170  3.684792687E-04
   171  2.884725963E-04
   172  4.002358889E-05
   173  9.729354287E-02
   174  6.873117225E-03
   175  1.593684901E-02
   176  1.725744956E-02
   177  3.419058039E-03
   178  2.828576697E-03
   179 -7.312587846E-05
   180  8.592820403E-08
   181 -4.626262173E-05
   182 -7.135489316E-05
   183  4.791533221E-04
   184 -6.523304875E-05
   185  2.829039401E-04
   186  2.321934420E-04
   187  1.773630773E-03
   188  8.476184757E-04
   189  1.095795755E-03
   190  6.663157701E-05
   191 -5.217391665E-05
   192  4.038156264E-05
   193 -1.032670231E-04
   194  7.596918023E-05
   195 -2.242266564E-03
   196  4.901817849E-03
   197  1.695600753E-03
   198  3.820025912E-03
   199  4.879073461E-01
   200  4.013564367E-01
   201  3.843660804E-06
   202 -9.039689498E-05
   203  4.243381903E-05
   204  1.873639600E-02
   205 -7.849247086E-05
   206  5.703543525E-04
   207 -6.121318134E-04
   208 -2.560973134E-02
   209 -1.882364874E-03
   210  3.256143689E-03
   211 -7.844219506E-03
   212 -1.363503911E-05
   213 -2.326131134E-04
   214 -2.264833323E-04
   215  7.577838230E-04
   216 -2.691488246E-04
   217 -9.941344468E-02
   218 -2.960072973E-03
   219  5.197131503E-03
   220 -1.655975791E-02
   221 -7.314148817E-05
   222 -5.963263697E-05
   223 -2.621191869E-06
   224 -1.532683526E-05
   225  1.209502746E-06
   226  1.551618248E-05
   227  8.806281340E-06
   228  8.599765777E-05
   229 -1.966713601E-05
   230 -1.915594381E-04
   231 -3.088702128E-04
   232 -3.724984750E-05
   233 -6.466561852E-04
   234  7.930901286E-05
   235  1.924438393E-05
   236  3.482518239E-05
   237  4.934418227E-08
   238  2.318470757E-06
   239  1.223839624E-02
   240 -6.812315338E-04
   241 -2.528228923E-03
   242 -3.575177422E-04
   243  1.595293995E-04
   244 -9.931328442E-04
   245 -2.064512981E-03
   246  6.083294889E-05
   247  9.089491932E-05
   248  2.910381840E-04
   249  2.822462590E-04
   250 -1.417285655E-04
   251  1.183167758E-03
   252 -5.855401256E-05
   253  2.320139708E-06
   254 -2.036646800E-04
   255 -3.545806823E-04
   256 -5.138216253E-04
   257 -1.141015543E-04
   258  1.398299518E-03
   259 -1.652768611E-03
   260 -1.772031792E-04
   261 -4.361473240E-04
   262 -8.007851628E-04
   263 -7.695059035E-04
   264  1.178260194E-04
   265 -2.770143094E-04
   266 -3.195733860E-03
   267 -2.826132038E-04
   268  1.010565604E-04
   269  7.500336127E-04
   270 -1.601169521E-04
   271  2.867292841E-06
   272  2.244064889E-04
   273 -8.275910561E-05
   274 -3.195231494E-05
   275  8.926936090E-06
   276 -1.538689412E-04
   277 -2.761196211E-03
   278 -1.014941091E-04
   279  9.641147226E-04
   280  2.119079153E-03
   281 -4.742875297E-05
   282 -1.937209707E-05
   283 -2.361600229E-04
   284  1.901221383E-03
   285  3.886993284E-05
   286 -1.466715263E-04
   287  5.984163095E-04
   288 -3.283123251E-07
   289  9.296028467E-05
   290  2.295653154E-05
   291 -1.924469726E-03
   292  1.537423144E-05
   293  5.379603132E-04
   294  4.088233461E-05
   295 -1.523601859E-04
   296  7.861450276E-05
   297 -1.782894773E-04
   298 -5.525497642E-03
   299  1.039802060E-04
   300 -9.762037664E-04
   301 -1.703660101E-03
   302 -2.356832116E-04
   303 -6.271123665E-05
   304 -2.653507662E-05
   305 -8.552999498E-04
   306 -3.939025004E-05
   307  1.038649911E-04
   308 -2.280568681E-04
   309  4.738123498E-05
   310 -8.641952112E-05
   311 -2.260627613E-05
   312  1.547576744E-03
   313 -3.914963390E-05
   314 -8.200065677E-04
   315 -4.896701875E-04
   316 -1.193512509E-04
   317 -2.390004716E-04
   318 -2.545889019E-04
   319  6.495934357E-03
   320  5.672888643E-05
   321 -5.303219169E-04
   322 -8.195184384E-04
   323  1.078950050E-04
   324 -6.752072017E-05
   325 -4.900161319E-05
   326 -2.243712380E-04
   327 -2.147828506E-05
   328  4.704876590E-05
   329 -3.580138713E-05
   330 -6.876409564E-05
   331 -4.272465244E-05
   332 -3.076997355E-05
   333  7.305946343E-04
   334 -3.263640077E-06
   335 -1.202463685E-03
   336  3.674435202E-03
   337  1.371497855E-03
   338  3.829934277E-05
   339 -8.584478845E-04
   340  9.858363119E-04
   341  6.632340107E-05
   342 -1.705545937E-03
   343  3.205848896E-03
   344 -1.570348488E-03
   345  4.347123631E-04
   346 -3.220488779E-04
   347  1.159053927E-03
   348  4.370671792E-05
   349 -2.210277451E-04
   350 -3.181086282E-04
   351  7.405539396E-05
   352  7.166858322E-05
   353  2.011042072E-05
   354 -5.826815182E-04
   355 -1.221894512E-04
   356  4.954899386E-04
   357  5.462495250E-04
   358 -6.754756184E-07
   359 -1.575570420E-04
   360  1.206466256E-05
   361  2.011128059E-03
   362  9.320761636E-05
   363 -4.347574498E-04
   364 -5.807598175E-04
   365 -4.316592909E-05
   366  1.458358896E-04
   367  6.198445022E-06
   368 -1.359201992E-03
Ene=   -1.0157850010E+01
Spin= Alpha
Occup=   2.0000000
     1 -1.025998618E-03
     2 -8.430137654E-04
     3  3.604699745E-04
     4 -1.119622541E-04
     5 -1.464643999E-04
     6 -9.357760381E-05
     7 -3.041429921E-04
     8  1.401643383E-04
     9  1.121992206E-04
    10  1.907228140E-03
    11  3.743140009E-03
    12 -1.615910667E-03
    13 -1.408849082E-03
    14  8.384893951E-05
    15 -4.061763159E-04
    16 -4.657790452E-05
    17 -7.353511915E-05
    18  8.588437277E-05
    19  2.788856761E-02
    20  1.080121258E-02
    21 -2.123313247E-02
    22  3.584136215E-05
    23 -3.695711480E-01
    24 -3.040016255E-01
    25  1.110356124E-05
    26  8.225313248E-05
    27 -4.201659957E-05
    28 -1.435187202E-02
    29  4.466437141E-05
    30 -5.820024346E-04
    31  1.238049680E-04
    32  1.934363026E-02
    33  3.790458830E-03
    34 -5.364027442E-03
    35 -1.389148683E-03
    36 -1.007663224E-04
    37 -3.955017693E-04
    38 -3.122282881E-04
    39 -2.242861075E-04
    40  1.280479881E-04
    41  7.079422431E-02
    42  6.743512958E-03
    43 -8.928093583E-03
    44 -4.666417046E-03
    45  3.982278111E-01
    46  3.275878945E-01
    47 -3.235304310E-05
    48 -6.740241140E-05
    49  3.270425420E-05
    50  1.525368066E-02
    51  4.718403099E-04
    52  5.290110550E-04
    53 -9.083615019E-05
    54 -2.091972684E-02
    55  6.335112481E-03
    56  3.442266833E-03
    57 -1.025908687E-03
    58  4.434257362E-04
    59 -2.974585496E-04
    60  4.173088748E-04
    61  1.264489905E-04
    62  2.408853186E-04
    63 -8.292549615E-02
    64  1.269324586E-02
    65  7.509296441E-03
    66  1.448922466E-03
    67  4.205833326E-03
    68  3.420344700E-03
    69 -1.556584843E-05
    70 -1.967535630E-04
    71  8.883773767E-05
    72  1.021671339E-03
    73  2.327950817E-04
    74  1.521238349E-04
    75 -3.443615487E-04
    76 -1.088366240E-02
    77 -3.271791879E-03
    78 -3.541992393E-03
    79  2.564795537E-03
    80 -1.506556936E-04
    81  1.144249785E-04
    82 -9.391226187E-05
    83 -3.424161734E-04
    84 -7.366280712E-05
    85 -9.180656290E-02
    86 -1.797324140E-02
    87 -5.058113686E-03
    88  1.685593578E-02
    89 -5.971413638E-04
    90 -4.973460373E-04
    91  8.282222642E-05
    92 -1.897213395E-05
    93 -1.012234385E-05
    94  3.225001582E-05
    95 -5.206203245E-04
    96  1.045143538E-04
    97  6.417617323E-05
    98 -1.450144149E-04
    99 -2.118693950E-03
   100  1.904803957E-04
   101  4.473474556E-04
   102 -5.581758233E-05
   103  1.330060376E-04
   104 -1.379609261E-05
   105  2.510838614E-06
   106 -3.646620929E-05
   107  1.631948977E-03
   108 -6.423752217E-03
   109  3.909035951E-04
   110  8.782938504E-04
   111 -4.673120544E-03
   112 -3.830840304E-03
   113  2.007211395E-07
   114  2.222565887E-04
   115 -1.186645364E-04
   116 -5.930269399E-04
   117  2.775537165E-04
   118 -2.474760796E-04
   119  2.925719237E-04
   120  7.702243690E-03
   121 -2.413918847E-03
   122  3.825504268E-03
   123  3.004126854E-04
   124  4.393734426E-05
   125  5.843694352E-05
   126  1.767334284E-04
   127  3.169870447E-04
   128 -1.965782360E-04
   129  7.510114119E-02
   130 -1.569708825E-02
   131  8.766166850E-03
   132 -4.540200447E-03
   133 -5.248254078E-03
   134 -4.349043216E-03
   135 -2.342029809E-05
   136 -4.318181097E-05
   137 -5.595426164E-05
   138  1.570475869E-04
   139  1.977048479E-04
   140  3.151576605E-04
   141  3.521536689E-04
   142 -5.761536724E-04
   143  2.654758869E-05
   144 -5.133203582E-04
   145  1.754497751E-03
   146  3.807785414E-05
   147  5.797426444E-05
   148  7.432052102E-05
   149 -2.392608433E-05
   150  3.673744204E-05
   151  5.889196015E-03
   152  5.422031465E-04
   153 -4.891523401E-04
   154  5.032402368E-03
   155 -1.767304118E-03
   156 -1.457732952E-03
   157  7.697291408E-05
   158  8.569414913E-05
   159 -2.767238144E-05
   160 -6.458525609E-05
   161 -2.124723794E-04
   162 -1.168100483E-04
   163 -3.934777556E-05
   164  1.620696206E-03
   165 -2.739063665E-03
   166  1.349281638E-03
   167  8.022482622E-04
   168  7.229373658E-05
   169 -1.574712257E-05
   170  1.329152827E-04
   171  3.719297989E-05
   172 -1.382831226E-04
   173  2.042441023E-02
   174 -2.792607350E-03
   175  3.528816385E-03
   176  3.500181247E-03
   177  9.227719762E-03
   178  7.637498820E-03
   179 -2.376022102E-05
   180  4.587424791E-05
   181  5.282416571E-05
   182 -2.160058991E-04
   183  2.057328563E-04
   184 -4.419041269E-04
   185 -3.540362935E-04
   186  7.402492186E-04
   187  3.104465087E-04
   188  1.323029405E-03
   189 -1.590019459E-03
   190 -4.703769578E-05
   191 -7.794458041E-05
   192 -1.176004354E-04
   193 -3.876319636E-05
   194  3.086053768E-05
   195 -7.093547904E-03
   196  2.381229468E-04
   197  1.802613995E-03
   198 -3.612867019E-03
   199  1.470348650E-01
   200  1.209572217E-01
   201 -2.547564686E-05
   202 -1.142258661E-05
   203  3.110678031E-05
   204  5.567622797E-03
   205  4.418171280E-05
   206  1.026635639E-04
   207 -3.167446661E-04
   208 -7.745247966E-03
   209  2.015825031E-03
   210  2.771379404E-04
   211 -3.045935849E-03
   212 -4.096722661E-05
   213 -4.492653617E-05
   214 -1.048607617E-04
   215  2.673376170E-04
   216 -9.500995768E-05
   217 -3.262437854E-02
   218 -9.558639506E-04
   219  1.512577950E-03
   220 -5.740561375E-03
   221 -9.969143515E-05
   222 -8.127475335E-05
   223  1.690512347E-06
   224 -2.019783398E-05
   225  4.195623346E-06
   226  2.033552194E-05
   227  3.277225896E-06
   228  1.148569068E-04
   229 -3.009719205E-05
   230 -2.518839726E-04
   231  6.479063486E-04
   232  2.445975983E-05
   233 -3.189684868E-04
   234  1.074223072E-05
   235  6.957113248E-05
   236  1.669991479E-05
   237  6.390504621E-05
   238  1.537246196E-05
   239  1.650503229E-02
   240  8.024334572E-04
   241 -3.276899859E-03
   242  4.279246711E-04
   243 -4.849330658E-05
   244  1.153507101E-03
   245 -3.040323807E-03
   246  1.043006109E-03
   247 -1.733020556E-04
   248  6.037696615E-04
   249 -7.779816082E-04
   250  5.205599168E-05
   251  4.276896697E-04
   252 -3.710095378E-03
   253 -6.110320083E-04
   254 -4.367860538E-04
   255 -8.894377605E-04
   256 -5.090408499E-04
   257 -7.096879954E-05
   258 -5.202932837E-04
   259  3.323492258E-03
   260 -4.436623724E-05
   261  6.228161264E-04
   262  1.134257531E-03
   263  6.271940690E-04
   264  1.356922765E-04
   265 -2.012442659E-03
   266  1.946770632E-03
   267  9.397519522E-04
   268  3.237149282E-06
   269 -1.070180162E-03
   270  1.180675277E-03
   271  2.170068797E-05
   272  7.456962298E-04
   273  6.317273021E-05
   274  2.368244360E-04
   275  9.191581621E-05
   276 -1.902743730E-04
   277 -7.637098190E-03
   278  2.419112179E-06
   279 -1.456833939E-05
   280  2.765505788E-04
   281 -3.107728541E-05
   282 -1.413110673E-05
   283  1.047717724E-05
   284  7.005694734E-04
   285 -5.021596886E-07
   286 -2.849948948E-05
   287  2.490316376E-04
   288  7.612268697E-05
   289 -3.430203130E-06
   290 -1.418731472E-05
   291 -2.604654492E-04
   292 -3.406212213E-05
   293 -6.375128208E-04
   294 -4.826348193E-04
   295  2.651672988E-04
   296 -1.472386344E-04
   297  2.806156436E-05
   298  4.610974885E-03
   299 -6.603488077E-05
   300  6.320653695E-04
   301  1.558489383E-03
   302  1.474620068E-04
   303  2.552535697E-05
   304  5.881454710E-05
   305  1.621191848E-03
   306  2.565002911E-05
   307 -1.126260588E-04
   308  5.280401919E-04
   309 -1.182313213E-05
   310  4.059555766E-05
   311 -7.246588545E-05
   312 -1.439910616E-03
   313 -1.576087495E-05
   314 -1.855600807E-04
   315 -3.018505699E-04
   316  1.045992617E-04
   317 -7.365030913E-05
   318 -9.918075596E-05
   319  6.027535769E-04
   320  1.433477828E-04
   321 -1.347159801E-03
   322 -2.359118445E-03
   323  2.185622336E-04
   324 -1.702084095E-04
   325 -1.921970691E-04
   326 -1.188052839E-03
   327 -5.446572172E-05
   328  1.452777027E-04
   329 -3.220624936E-04
   330 -2.756154157E-05
   331 -8.105237127E-05
   332  7.988226431E-05
   333  2.156789425E-03
   334  1.758434830E-04
   335 -1.702066445E-03
   336 -3.546839105E-04
   337  3.723535206E-04
   338  2.067029046E-05
   339 -5.496102874E-04
   340  8.073098553E-04
   341 -1.312171133E-04
   342  5.155174937E-04
   343  1.690854655E-03
   344 -4.268723364E-04
   345  1.492185225E-04
   346  1.094798277E-04
   347 -1.550464567E-05
   348  1.290284172E-04
   349 -6.007444421E-04
   350 -8.009456993E-04
   351  3.330784716E-05
   352  1.629422835E-04
   353 -1.030940572E-04
   354 -1.890052927E-03
   355 -1.867427708E-05
   356  3.725318722E-05
   357 -2.201147057E-05
   358 -7.439462409E-05
   359  4.281986535E-07
   360  2.636073178E-05
   361  4.247216368E-04
   362 -9.057101152E-05
   363  3.475065380E-04
   364  3.567345660E-04
   365 -7.729878080E-06
   366 -8.944496397E-05
   367  8.192190681E-05
   368  1.555157610E-03
Ene=   -1.0157839922E+01
Spin= Alpha
Occup=   2.0000000
     1  5.540628424E-03
     2  4.552413481E-03
     3  5.822879347E-05
     4  1.926200121E-04
     5 -1.396561479E-04
     6  5.084399422E-04
     7 -6.737639589E-05
     8 -4.052708987E-04
     9  1.875417086E-04
    10 -1.033634536E-02
    11  7.884008449E-04
    12  4.416591710E-03
    13 -2.144260622E-03
    14  1.388922882E-04
    15 -7.239853990E-05
    16  1.359641856E-04
    17  3.304889691E-04
    18 -4.996322207E-05
    19 -1.512407419E-01
    20  8.931250775E-03
    21  1.005824457E-01
    22 -3.134758581E-02
    23 -4.144855487E-01
    24 -3.409909589E-01
    25 -7.254340702E-05
    26  5.641386438E-05
    27  6.231380416E-05
    28 -1.543225556E-02
    29  7.923441134E-04
    30 -7.022718039E-04
    31 -6.380846657E-04
    32  2.192099974E-02
    33  4.831063011E-03
    34 -4.100735709E-03
    35 -4.135419141E-03
    36 -6.126191726E-05
    37 -8.528012683E-04
    38 -4.570302295E-04
    39 -2.162861468E-04
    40  1.968840427E-04
    41  1.000905833E-01
    42  1.167371824E-02
    43 -1.236289247E-02
    44 -8.844688442E-03
    45 -2.964063816E-01
    46 -2.438593538E-01
    47  9.945139269E-05
    48  9.072893902E-06
    49  3.453942405E-05
    50 -1.087908703E-02
    51 -1.041518232E-03
    52 -2.728405039E-04
    53 -2.536451592E-04
    54  1.573040077E-02
    55 -5.193499967E-03
    56 -1.330763098E-03
    57 -1.790599005E-03
    58 -4.764382483E-04
    59  4.250339819E-04
    60 -4.188384691E-04
    61 -4.076208420E-06
    62 -2.924609714E-04
    63  7.637400185E-02
    64 -1.348641566E-02
    65 -6.289217429E-03
    66 -2.154731551E-03
    67  5.130160654E-03
    68  4.267406258E-03
    69 -5.835035807E-05
    70 -2.651636698E-04
    71  1.059437693E-04
    72 -4.504537840E-04
    73  2.387296131E-04
    74  2.758532676E-04
    75 -2.728611347E-04
    76  4.539466980E-04
    77  3.191811654E-04
    78 -9.425053775E-04
    79  2.021679853E-04
    80 -1.567977734E-04
    81  7.000721077E-05
    82 -1.359103387E-04
    83 -2.949379583E-04
    84  3.847669437E-05
    85 -2.773967113E-02
    86  2.544305661E-04
    87 -2.413216164E-03
    88  6.392606568E-04
    89 -7.084714478E-03
    90 -5.851645081E-03
    91  2.370679069E-05
    92  1.992802734E-05
    93  3.422134562E-05
    94  1.026783954E-04
    95 -1.540771470E-04
    96  5.474853770E-05
    97 -3.514462465E-04
    98 -1.801096230E-04
    99 -6.288645171E-04
   100 -1.590137168E-03
   101 -3.149953862E-04
   102  4.356914328E-05
   103 -1.419321259E-05
   104 -1.966675397E-05
   105  2.205615128E-04
   106 -7.162469948E-05
   107  6.659414582E-04
   108 -9.678791102E-04
   109 -1.266504312E-03
   110  1.004687203E-03
   111  3.772818060E-03
   112  3.158931226E-03
   113  2.704954326E-05
   114 -2.119148659E-04
   115  5.590564049E-05
   116 -6.979277969E-04
   117 -1.611460369E-04
   118  2.695677637E-04
   119 -8.564218211E-05
   120  3.304899517E-03
   121 -1.267900427E-03
   122  4.268572111E-04
   123  2.335002185E-04
   124 -8.424608855E-05
   125 -4.434652741E-05
   126 -7.651962289E-05
   127 -2.211643985E-04
   128  1.158975890E-05
   129 -2.210067600E-03
   130 -6.250908538E-03
   131  6.534577828E-04
   132 -1.131455918E-03
   133 -5.993480156E-03
   134 -4.948123353E-03
   135 -2.716945164E-05
   136  9.115391446E-06
   137 -3.208148415E-05
   138  7.512840439E-05
   139  2.556031932E-04
   140  1.311221689E-04
   141  1.689395837E-04
   142 -8.280967058E-05
   143  4.754360993E-04
   144 -1.087107133E-03
   145  1.012608021E-03
   146  1.216041316E-04
   147 -3.683335439E-05
   148  1.455942511E-04
   149  9.583022506E-05
   150  6.112088828E-05
   151 -4.619515798E-04
   152 -1.170217306E-03
   153 -8.285088991E-04
   154  1.485466357E-03
   155  3.108615732E-03
   156  2.616487070E-03
   157 -1.129548042E-05
   158 -1.852102409E-04
   159  1.403974431E-05
   160 -8.184272023E-04
   161  1.888237562E-05
   162  2.545194243E-04
   163  5.896941365E-05
   164  4.692881444E-03
   165 -1.810893356E-05
   166  1.245476440E-03
   167  1.322518105E-03
   168 -1.083157780E-04
   169 -2.688674897E-05
   170 -6.867545133E-05
   171 -1.468317930E-04
   172  4.206040176E-07
   173  1.004303820E-02
   174  1.754114537E-03
   175  4.186499861E-03
   176  8.248603519E-03
   177 -3.966701963E-03
   178 -3.268784487E-03
   179  1.132337982E-05
   180  1.757058481E-05
   181 -2.384650756E-05
   182  9.743417391E-06
   183 -9.702635896E-05
   184  6.296675724E-05
   185  1.382200878E-04
   186  1.335416466E-04
   187 -3.191885229E-04
   188 -6.881997656E-04
   189  6.859382533E-04
   190  4.919123769E-05
   191  9.419855938E-05
   192  1.176915192E-04
   193  9.983918859E-05
   194 -4.553960599E-05
   195 -2.335073633E-03
   196  1.223999006E-03
   197 -7.865418848E-04
   198 -3.669396177E-04
   199 -2.389629099E-01
   200 -1.966064587E-01
   201 -2.998068661E-05
   202 -3.129948811E-05
   203 -9.570608869E-05
   204 -8.664317230E-03
   205  2.495078752E-04
   206  8.229019372E-05
   207  1.016691440E-03
   208  1.272043456E-02
   209  1.472378529E-03
   210  6.195069198E-04
   211  4.467717069E-03
   212  1.304410366E-04
   213  2.382589895E-04
   214  3.040249791E-04
   215 -5.526445706E-04
   216  2.293336524E-04
   217  6.535174244E-02
   218  2.510495780E-03
   219 -2.167448937E-03
   220  1.271997442E-02
   221  5.279732116E-04
   222  4.303452640E-04
   223  8.206145183E-06
   224  1.056005329E-04
   225 -3.068895511E-05
   226 -1.111804842E-04
   227 -4.615374536E-05
   228 -6.149523022E-04
   229  1.757217184E-04
   230  1.370332947E-03
   231  1.407270974E-05
   232 -8.605556221E-04
   233  9.650286807E-05
   234 -1.264544775E-04
   235  3.592340434E-06
   236 -1.543798984E-04
   237 -2.725543488E-04
   238  4.539197319E-05
   239 -8.886942472E-02
   240  1.344648468E-03
   241  1.650354287E-02
   242 -4.929884860E-03
   243 -9.415384920E-05
   244  2.105528996E-03
   245 -7.220748341E-04
   246  1.361455130E-03
   247 -4.041090549E-04
   248  6.617236455E-04
   249 -1.362945291E-03
   250 -1.170725082E-04
   251  2.271779389E-03
   252 -5.679196486E-04
   253 -4.821704631E-04
   254 -8.241120263E-04
   255 -1.265225502E-03
   256 -1.409555952E-03
   257 -1.359759195E-04
   258  2.125335372E-03
   259  5.183245608E-04
   260 -3.251066577E-04
   261 -6.706867623E-04
   262 -9.692179524E-04
   263 -1.240810515E-03
   264 -6.576348380E-05
   265  1.618292680E-03
   266  5.291995687E-05
   267 -7.683163481E-04
   268 -8.910354055E-05
   269  8.685504917E-04
   270 -1.056086980E-03
   271  5.756961862E-05
   272  3.146043419E-04
   273  1.351329830E-03
   274  1.418179388E-04
   275  1.713607238E-06
   276 -1.532620044E-04
   277  2.784570184E-03
   278 -1.649171550E-04
   279  1.514005178E-03
   280  1.340312388E-03
   281 -7.366451664E-05
   282  9.198508844E-05
   283 -3.701655506E-04
   284 -1.740389760E-03
   285  6.142878275E-05
   286 -3.912409033E-05
   287 -7.331107663E-04
   288  2.670876686E-05
   289  8.675619413E-05
   290  1.193728514E-05
   291 -1.175640829E-03
   292  4.910753593E-05
   293  1.016887972E-04
   294  1.272403371E-03
   295 -1.057713182E-04
   296 -8.144253872E-07
   297 -6.438961967E-05
   298  4.661077057E-03
   299 -1.490107418E-04
   300  1.364189209E-03
   301  1.062351110E-03
   302  3.037911783E-04
   303  1.734717651E-04
   304  4.587194342E-05
   305 -1.932588406E-03
   306  5.543593170E-05
   307 -1.981835257E-05
   308 -7.965924118E-04
   309 -2.168535295E-05
   310  6.181053603E-05
   311 -4.463928711E-05
   312 -9.481562722E-04
   313  4.505472484E-05
   314 -2.716793306E-06
   315  1.237550049E-03
   316  3.795319856E-05
   317  5.349353642E-06
   318  7.387260831E-05
   319  5.579644859E-03
   320 -1.169062687E-04
   321  1.061434284E-03
   322  4.584632409E-04
   323 -1.543638243E-04
   324  2.069827759E-04
   325  1.106803546E-04
   326 -2.364374068E-03
   327  4.314623148E-05
   328  1.974632895E-05
   329 -9.309222979E-04
   330  1.381576672E-05
   331  3.839666291E-05
   332 -2.979571174E-05
   333 -3.902900291E-04
   334 -7.520513327E-05
   335  1.549034248E-03
   336  5.633695396E-04
   337 -7.002532205E-04
   338 -1.064062813E-04
   339  6.866412242E-04
   340 -9.608669787E-04
   341 -1.224640007E-04
   342  1.889638967E-03
   343  8.763348295E-04
   344  8.863331039E-04
   345 -3.194896200E-04
   346  4.125538968E-04
   347 -1.089890092E-03
   348 -7.678628220E-06
   349  2.679410746E-04
   350  7.053772238E-04
   351 -5.310985933E-05
   352 -6.018174677E-05
   353  7.293125026E-05
   354 -6.122774548E-04
   355 -5.780213929E-05
   356  4.841656934E-04
   357  9.703562679E-04
   358 -4.289725901E-05
   359 -1.629147282E-04
   360 -3.834820591E-05
   361  1.754127415E-04
   362 -4.140153836E-05
   363  4.132790179E-04
   364  8.856529669E-04
   365  6.450189412E-05
   366 -1.158648963E-04
   367  7.419625745E-05
   368 -7.590191963E-05
Ene=   -1.0153520051E+01
Spin= Alpha
Occup=   2.0000000
     1  2.984726488E-03
     2  2.503589212E-03
     3 -3.228787856E-05
     4 -4.371583858E-04
     5  1.240871128E-04
     6 -6.400890735E-04
     7  6.015153330E-05
     8  8.138111645E-04
     9 -2.310156302E-04
    10  5.541247299E-04
    11 -1.683699988E-04
    12 -2.292981739E-03
    13  6.506452503E-04
    14 -2.278500623E-04
    15 -1.957827446E-05
    16 -2.652566602E-04
    17 -4.647503060E-04
    18  6.895786217E-05
    19 -9.165605265E-02
    20  2.871409970E-04
    21  3.551199715E-03
    22 -1.079331858E-03
    23 -2.983852948E-04
    24 -2.468352213E-04
    25 -2.480420338E-05
    26 -7.501094004E-06
    27  2.582901900E-05
    28  1.284374337E-05
    29  1.906910547E-04
    30  5.363266202E-05
    31 -1.978994843E-04
    32  1.165417486E-03
    33  1.152290166E-04
    34 -2.415297320E-03
    35  3.968545796E-04
    36  3.823063130E-05
    37 -1.360265707E-04
    38 -2.786383420E-05
    39  6.037442614E-05
    40  2.568675511E-05
    41  1.929591185E-02
    42  4.624327823E-03
    43 -2.376508643E-03
    44 -4.026113032E-03
    45 -3.011361428E-04
    46 -2.491315651E-04
    47  3.037450143E-05
    48 -1.501165920E-05
    49  1.373237801E-05
    50  1.318804332E-05
    51 -2.344427629E-04
    52  1.116183712E-04
    53 -1.046560414E-04
    54  1.161510266E-03
    55 -5.533687967E-04
    56 -2.323610341E-03
    57  5.450478208E-04
    58 -4.970915293E-05
    59  8.715205725E-05
    60 -3.683021964E-05
    61  8.341850841E-05
    62 -8.150755207E-05
    63  1.897046077E-02
    64 -6.257348863E-03
    65 -8.437711788E-04
    66 -1.607317793E-03
    67 -3.502490136E-05
    68 -4.223160022E-05
    69  4.882528170E-08
    70 -2.407613658E-05
    71  5.046646114E-06
    72  2.239959543E-04
    73  2.478244134E-05
    74  1.308513888E-04
    75 -5.198342664E-05
    76 -2.399517688E-03
    77 -1.208398160E-04
    78 -1.155475083E-03
    79  3.632368838E-04
    80 -1.194963617E-05
    81  4.496997773E-06
    82  1.244922752E-05
    83 -1.419995474E-05
    84 -1.870962972E-05
    85 -4.698011433E-03
    86 -9.170393238E-04
    87  2.241418165E-03
    88  4.165082471E-04
    89  7.860495854E-05
    90  7.254871729E-05
    91  5.552105325E-07
    92 -9.979524177E-06
    93  8.956705117E-06
    94 -1.709393696E-04
    95  1.999693629E-06
    96  5.103545048E-05
    97 -2.361059203E-05
    98  1.960549978E-03
    99 -5.226912354E-05
   100  6.608499398E-04
   101 -6.369230511E-04
   102  4.309327793E-05
   103  9.989964667E-06
   104  7.659562398E-06
   105  3.548090002E-05
   106 -7.866508147E-06
   107  1.512425043E-03
   108 -3.501642774E-04
   109 -2.475271368E-03
   110 -4.753480534E-05
   111 -3.543799487E-05
   112 -4.255659378E-05
   113 -4.121499050E-06
   114 -2.345303795E-05
   115  5.969663069E-06
   116  2.236944207E-04
   117 -9.663150104E-06
   118  1.352873992E-04
   119 -4.446730776E-05
   120 -2.396976440E-03
   121 -4.174678963E-05
   122 -1.165152700E-03
   123  3.456534575E-04
   124 -8.279520378E-06
   125 -6.018507763E-06
   126  3.512591738E-06
   127 -3.728262155E-06
   128  2.725889566E-05
   129 -4.442338364E-03
   130  1.508135590E-03
   131  1.946562657E-03
   132 -1.501781879E-04
   133  7.697670741E-05
   134  7.119134372E-05
   135 -6.657503111E-06
   136 -1.150701514E-05
   137  1.572339079E-06
   138 -1.707603381E-04
   139  1.257984589E-05
   140  5.316551613E-05
   141 -1.270511823E-05
   142  1.959387022E-03
   143  4.835309111E-04
   144  7.772694780E-04
   145 -8.979344970E-05
   146  3.587703509E-06
   147  6.425412082E-06
   148  2.372269423E-05
   149  4.942501737E-05
   150  1.657034893E-05
   151  1.432522452E-03
   152  5.272770671E-04
   153 -2.278024147E-03
   154  8.628906349E-04
   155 -3.661740192E-05
   156 -4.352277954E-05
   157 -1.151160652E-06
   158 -2.280976554E-05
   159  8.967354097E-06
   160  2.235224601E-04
   161  1.505115107E-05
   162  1.406219215E-04
   163 -1.908014246E-05
   164 -2.394984490E-03
   165 -9.827528417E-05
   166 -1.177098734E-03
   167  2.877950307E-04
   168  1.091772724E-05
   169  5.417792674E-07
   170 -2.686133275E-05
   171 -9.735309098E-07
   172 -5.703684263E-06
   173 -4.345507915E-03
   174 -2.054240890E-04
   175  1.595155325E-03
   176 -1.869523278E-03
   177  7.870740876E-05
   178  7.258884816E-05
   179  3.531182771E-06
   180 -1.286221292E-05
   181 -7.013795255E-07
   182 -1.704094325E-04
   183 -2.685722964E-06
   184  5.513867632E-05
   185 -9.173424096E-06
   186  1.957301759E-03
   187 -2.619578798E-04
   188  8.787467513E-04
   189  7.157911683E-05
   190  1.118083990E-05
   191 -1.123374385E-05
   192  3.607804337E-05
   193  3.308934901E-05
   194 -2.618443438E-05
   195  1.433816389E-03
   196 -6.907766667E-04
   197 -2.098233997E-03
   198  1.113273062E-03
   199 -3.006232760E-04
   200 -2.487252810E-04
   201 -9.020241476E-06
   202 -2.357805108E-05
   203 -2.650599482E-05
   204  1.325460650E-05
   205  6.915078859E-05
   206  1.774527686E-04
   207  2.054337453E-04
   208  1.161581751E-03
   209 -7.538114498E-05
   210 -2.220066803E-03
   211  1.032728044E-03
   212  6.114681266E-05
   213  5.303663631E-05
   214  1.225621426E-04
   215 -4.237066506E-05
   216  4.079744583E-05
   217  1.880661880E-02
   218  1.488562365E-03
   219  8.208150915E-04
   220  6.258697461E-03
   221 -5.629434871E-01
   222 -4.631372666E-01
   223  1.314272539E-06
   224  1.712243271E-05
   225 -4.860822965E-06
   226 -2.004175482E-02
   227 -8.707690873E-05
   228 -1.174647705E-03
   229  3.331715311E-04
   230  1.434622598E-02
   231 -2.476096689E-04
   232 -3.364848159E-03
   233  9.543007274E-04
   234 -3.090738931E-04
   235 -2.653710388E-05
   236 -3.597661600E-04
   237 -6.302266028E-04
   238  9.363930339E-05
   239  4.024173897E-02
   240 -4.448032519E-04
   241 -5.991140528E-03
   242  1.703386576E-03
   243 -8.200010191E-05
   244  7.048775532E-04
   245  1.420126031E-03
   246  1.999592264E-04
   247  9.290059162E-05
   248 -2.934252918E-05
   249  8.682540730E-04
   250 -8.193611347E-05
   251  7.048541457E-04
   252  1.422763633E-03
   253  1.799042590E-05
   254  5.357384737E-05
   255 -2.151438979E-04
   256  8.713496517E-04
   257 -8.182879494E-05
   258  7.042413142E-04
   259  1.427835076E-03
   260 -9.066417527E-05
   261  6.839506747E-05
   262 -1.913056064E-04
   263  8.580142108E-04
   264 -8.187566405E-05
   265  7.041773327E-04
   266  1.429527256E-03
   267 -1.633755495E-04
   268  1.424071019E-04
   269  5.039440995E-05
   270  8.715415022E-04
   271 -2.388578847E-05
   272  2.979652802E-04
   273  4.302140124E-04
   274  4.014650373E-05
   275  4.069261620E-05
   276 -4.796947718E-05
   277  8.550227029E-04
   278  1.486091390E-05
   279 -2.455072046E-04
   280  8.376900445E-04
   281  7.246683802E-06
   282  9.117717007E-06
   283  2.714231566E-05
   284  6.860783934E-05
   285  6.674050597E-06
   286  5.184136820E-05
   287  3.492810934E-04
   288  1.631068574E-07
   289  5.126262899E-06
   290 -2.518087605E-06
   291 -1.223598726E-03
   292 -2.396186029E-05
   293  2.986639724E-04
   294  4.261229160E-04
   295 -4.454847556E-05
   296  5.226346354E-05
   297 -2.941036857E-05
   298  8.651891513E-04
   299  1.487021028E-05
   300 -2.454944677E-04
   301  8.389701208E-04
   302 -2.804838018E-05
   303  1.497063369E-06
   304 -8.946302858E-06
   305  6.116206119E-05
   306  6.780023666E-06
   307  5.122068313E-05
   308  3.543200196E-04
   309  1.388155082E-06
   310  5.417569985E-06
   311 -1.247541258E-06
   312 -1.212380288E-03
   313 -2.402049790E-05
   314  2.990635040E-04
   315  4.244498442E-04
   316  1.605263444E-05
   317  6.538349302E-05
   318  3.248490198E-05
   319  8.624966052E-04
   320  1.480146501E-05
   321 -2.451069523E-04
   322  8.331113368E-04
   323  2.125914267E-05
   324 -5.225875694E-06
   325 -1.974560256E-05
   326  5.492054366E-05
   327  6.794615021E-06
   328  5.124397931E-05
   329  3.541692728E-04
   330 -3.480654361E-07
   331  5.688620484E-06
   332 -8.693281201E-07
   333 -1.195021273E-03
   334 -8.182028735E-05
   335  7.037766290E-04
   336  1.432476364E-03
   337 -8.568294250E-05
   338  1.591806645E-04
   339  1.297541439E-04
   340  8.660869712E-04
   341 -8.171156444E-05
   342  7.033248465E-04
   343  1.434536651E-03
   344  1.689745978E-04
   345  1.244920004E-04
   346  7.382123156E-05
   347  8.686714811E-04
   348 -2.121755473E-04
   349  2.919998531E-03
   350 -5.128676987E-03
   351 -1.414247116E-03
   352 -4.297937641E-05
   353  1.393892247E-03
   354 -2.354855488E-03
   355 -2.120993672E-04
   356  2.920128465E-03
   357 -5.125362168E-03
   358 -4.965482089E-04
   359 -9.766210171E-04
   360 -1.656832061E-03
   361 -2.348920131E-03
   362 -2.122174927E-04
   363  2.920018068E-03
   364 -5.127292171E-03
   365  1.799891461E-03
   366 -4.804255202E-04
   367  6.884656157E-04
   368 -2.353218077E-03
Ene=   -8.6963491915E-01
Spin= Alpha
Occup=   2.0000000
     1 -4.512397242E-02
     2 -6.945504096E-02
     3 -8.619881468E-04
     4 -1.171789707E-02
     5  3.325943739E-03
     6  1.774565588E-01
     7 -1.302546860E-03
     8 -1.770512317E-02
     9  5.027187493E-03
    10  1.155378787E-01
    11 -6.235781561E-04
    12 -8.564420372E-03
    13  2.438375355E-03
    14  3.475030327E-05
    15  3.462685194E-06
    16  4.055088022E-05
    17  7.173781795E-05
    18 -1.074001823E-05
    19 -3.081563793E-01
    20  1.009900882E-02
    21  1.341357130E-01
    22 -3.712842012E-02
    23 -3.516935059E-02
    24 -5.403370513E-02
    25  9.728016717E-03
    26 -1.109550232E-02
    27 -7.179418101E-03
    28  1.371846138E-01
    29  1.697760306E-02
    30 -1.948199359E-02
    31 -1.250703015E-02
    32  6.911474685E-02
    33  4.154631650E-03
    34 -7.240504938E-03
    35 -2.522120036E-03
    36 -7.487501267E-04
    37 -4.180359951E-03
    38 -1.647180320E-03
    39 -1.498408198E-03
    40  1.166392629E-04
    41  2.012778798E-01
    42  1.906476786E-02
    43 -2.586456273E-02
    44 -1.328634665E-02
    45 -3.517131215E-02
    46 -5.403675847E-02
    47 -1.430010120E-02
    48 -7.825954887E-03
    49 -1.904355030E-03
    50  1.371937745E-01
    51 -2.497648234E-02
    52 -1.377221390E-02
    53 -3.294896186E-03
    54  6.910145176E-02
    55 -6.514368967E-03
    56 -5.787304909E-03
    57 -1.784742135E-04
    58 -3.342172761E-03
    59  2.323883837E-03
    60 -2.452684044E-03
    61 -1.524621203E-04
    62 -6.321198996E-04
    63  2.002524624E-01
    64 -2.862941938E-02
    65 -1.907046936E-02
    66 -2.820905278E-03
    67 -3.944916740E-02
    68 -6.064199011E-02
    69  1.069221246E-02
    70  2.004728037E-03
    71 -1.089845169E-02
    72  1.541815203E-01
    73  1.762159999E-02
    74  3.296356443E-03
    75 -1.795606368E-02
    76  9.324671710E-02
    77  1.087763277E-02
    78  3.151875628E-04
    79 -1.076914774E-02
    80 -5.010379441E-04
    81  1.537910204E-03
    82  8.211103574E-05
    83 -8.859608927E-04
    84 -1.331236945E-04
    85 -1.957188157E-01
    86 -2.432251445E-02
    87 -5.310694043E-03
    88  2.475181553E-02
    89 -3.276282120E-02
    90 -5.033317800E-02
    91 -2.482590474E-03
    92  5.858428129E-03
    93 -1.494202160E-02
    94  1.279323769E-01
    95 -4.299452595E-03
    96  9.982806539E-03
    97 -2.577381764E-02
    98  6.121295855E-02
    99 -7.165777948E-04
   100  3.635582194E-03
   101 -5.493766377E-03
   102  9.081950000E-04
   103 -7.348166965E-04
   104 -1.881960256E-03
   105  3.401021330E-03
   106 -1.386807439E-03
   107  1.414712738E-01
   108 -2.984264592E-03
   109  8.378880819E-03
   110 -1.914270414E-02
   111 -3.945418648E-02
   112 -6.064967493E-02
   113 -1.333036715E-02
   114  5.272126179E-03
   115 -5.624161627E-03
   116  1.542010811E-01
   117 -2.196803043E-02
   118  8.681381645E-03
   119 -9.264194763E-03
   120  9.323875734E-02
   121 -1.388259527E-02
   122  3.699315330E-03
   123 -5.327332353E-03
   124  4.973771918E-04
   125 -9.851549679E-04
   126  2.453941897E-04
   127 -1.223188792E-03
   128  8.093327395E-04
   129 -1.952164849E-01
   130  3.007732917E-02
   131 -1.238380748E-02
   132  1.261354618E-02
   133 -3.276098482E-02
   134 -5.033039304E-02
   135  1.328755182E-02
   136  9.265329350E-03
   137  1.157989483E-03
   138  1.279251807E-01
   139  2.294158238E-02
   140  1.587044510E-02
   141  2.040230203E-03
   142  6.120008774E-02
   143  4.593299132E-03
   144  4.761789455E-03
   145 -9.843817472E-05
   146  1.736025217E-03
   147 -1.650423962E-03
   148  2.367016647E-03
   149  1.166213685E-03
   150  2.384584201E-03
   151  1.396142595E-01
   152  1.643282784E-02
   153  1.225125102E-02
   154  1.211296883E-03
   155 -3.945180748E-02
   156 -6.064603506E-02
   157  3.839800294E-03
   158  8.981210750E-03
   159  1.190300753E-02
   160  1.541929976E-01
   161  6.327121212E-03
   162  1.479659197E-02
   163  1.961589109E-02
   164  9.321835293E-02
   165  3.826074335E-03
   166  7.501933589E-03
   167  1.278442090E-02
   168 -9.193512349E-04
   169 -6.319615015E-04
   170 -1.406329515E-03
   171  2.218904931E-04
   172 -3.944800694E-04
   173 -1.980458394E-01
   174 -8.907592173E-03
   175 -2.171175312E-02
   176 -2.674629865E-02
   177 -3.276701652E-02
   178 -5.033954999E-02
   179 -8.782235973E-03
   180  1.227145969E-02
   181  6.006939305E-03
   182  1.279470311E-01
   183 -1.517779393E-02
   184  2.106265454E-02
   185  1.041439808E-02
   186  6.121498084E-02
   187 -2.848900395E-03
   188  5.774172481E-03
   189  1.544030030E-03
   190  7.974802523E-05
   191  2.619770670E-03
   192  2.686959761E-03
   193  9.921336668E-04
   194 -1.822035560E-03
   195  1.402161475E-01
   196 -1.091451867E-02
   197  1.595220998E-02
   198  7.309040537E-03
   199 -3.516888650E-02
   200 -5.403278027E-02
   201  2.874139595E-03
   202 -4.114971913E-03
   203  1.562624517E-02
   204  1.371795947E-01
   205  5.007981568E-03
   206 -7.296025942E-03
   207  2.731550605E-02
   208  6.913572101E-02
   209  1.104071338E-03
   210 -4.143524784E-03
   211  7.600911227E-03
   212  1.318700023E-03
   213  1.619411242E-03
   214  8.681122361E-04
   215 -4.008188258E-03
   216  1.355307202E-03
   217  2.067996923E-01
   218  5.727943604E-03
   219 -1.223971857E-02
   220  3.335284546E-02
   221 -1.705341524E-02
   222 -2.615701732E-02
   223 -8.193743133E-04
   224 -1.111660041E-02
   225  3.156353847E-03
   226  6.571498607E-02
   227 -1.412887938E-03
   228 -1.915842517E-02
   229  5.437246796E-03
   230  3.447102698E-02
   231 -3.292511059E-04
   232 -4.534042369E-03
   233  1.303961221E-03
   234 -1.629692250E-03
   235 -1.399924638E-04
   236 -1.898159141E-03
   237 -3.325867138E-03
   238  4.933888703E-04
   239 -7.993958487E-02
   240  1.064731241E-03
   241  1.496555821E-02
   242 -4.323134791E-03
   243  1.803356355E-02
   244  2.275521444E-02
   245 -2.817494715E-03
   246  4.479151522E-03
   247 -2.028568781E-03
   248  1.127488533E-03
   249 -5.270736957E-03
   250  1.803469724E-02
   251  2.275676505E-02
   252 -2.846008854E-03
   253 -4.919768533E-04
   254 -3.102773734E-03
   255 -3.947538298E-03
   256 -5.240850001E-03
   257  1.803354919E-02
   258  2.275464185E-02
   259 -2.823644850E-03
   260 -1.987464110E-03
   261 -2.899304540E-03
   262 -3.618635353E-03
   263 -5.287272833E-03
   264  1.803548733E-02
   265  2.275457945E-02
   266 -2.794015486E-03
   267 -3.972388502E-03
   268 -8.776763385E-04
   269  2.983743062E-03
   270 -5.301831351E-03
   271  1.798078510E-02
   272  2.213283838E-02
   273  1.902710519E-04
   274  3.637256252E-03
   275  5.519030229E-04
   276 -3.679413056E-03
   277 -1.354094370E-03
   278  1.659361457E-02
   279  2.043102130E-02
   280 -4.566180485E-03
   281 -1.152778344E-03
   282 -1.853967043E-03
   283 -4.098723971E-03
   284 -7.001394508E-03
   285  1.640928036E-02
   286  2.086953087E-02
   287 -4.374012329E-03
   288  1.271108407E-04
   289  4.197467144E-03
   290 -2.022702338E-03
   291 -4.616033292E-03
   292  1.798467844E-02
   293  2.214026853E-02
   294  2.016334089E-04
   295 -4.557644889E-03
   296  1.667669313E-03
   297 -1.880462017E-03
   298 -1.258932843E-03
   299  1.659239852E-02
   300  2.042005687E-02
   301 -4.435414983E-03
   302  4.340206306E-03
   303 -6.659676396E-04
   304  1.509307566E-03
   305 -7.024671729E-03
   306  1.641019483E-02
   307  2.086516373E-02
   308 -4.301119094E-03
   309  1.113591985E-03
   310  4.410644476E-03
   311 -1.014955469E-03
   312 -4.910992916E-03
   313  1.798368211E-02
   314  2.213578159E-02
   315  2.280477405E-04
   316  1.299187083E-03
   317  2.932610813E-03
   318  4.098160270E-03
   319 -1.363882375E-03
   320  1.659650344E-02
   321  2.042640367E-02
   322 -4.447320642E-03
   323 -3.346209339E-03
   324  3.798621742E-04
   325  3.198051587E-03
   326 -6.935981072E-03
   327  1.641258147E-02
   328  2.087209352E-02
   329 -4.358327955E-03
   330 -2.664489364E-04
   331  4.599042836E-03
   332 -7.122439523E-04
   333 -4.977404281E-03
   334  1.803274618E-02
   335  2.276797635E-02
   336 -2.983698156E-03
   337 -2.904061455E-03
   338 -6.469233011E-04
   339  4.074111220E-03
   340 -5.161256919E-03
   341  1.802889202E-02
   342  2.275992364E-02
   343 -2.968576782E-03
   344  4.051301767E-03
   345 -1.594247711E-03
   346  2.546235071E-03
   347 -5.106402394E-03
   348  9.160201012E-03
   349  1.056755083E-02
   350 -2.459271268E-03
   351 -1.504986607E-03
   352 -7.833735293E-04
   353  1.639217268E-03
   354 -6.136240729E-04
   355  9.161110798E-03
   356  1.056634975E-02
   357 -2.492527414E-03
   358 -5.636660053E-04
   359 -1.740570178E-03
   360 -1.489115869E-03
   361 -6.180671702E-04
   362  9.158866315E-03
   363  1.056880533E-02
   364 -2.468930929E-03
   365  1.791394811E-03
   366 -1.232062365E-03
   367  9.157268482E-04
   368 -6.376262286E-04
Ene=   -7.8576407238E-01
Spin= Alpha
Occup=   2.0000000
     1  6.504517380E-02
     2  1.005443781E-01
     3 -1.036124926E-03
     4 -1.398397505E-02
     5  3.973881510E-03
     6 -2.624123740E-01
     7 -1.629203549E-03
     8 -2.197826965E-02
     9  6.243339032E-03
    10 -1.651127813E-01
    11 -3.581774442E-04
    12 -4.867257119E-03
    13  1.381685901E-03
    14  8.988104958E-04
    15  7.604139324E-05
    16  1.045500131E-03
    17  1.833091142E-03
    18 -2.721856698E-04
    19  4.724280303E-01
    20 -1.770333663E-02
    21 -2.354093527E-01
    22  6.604852403E-02
    23  2.500389546E-02
    24  3.856215223E-02
    25 -1.433537266E-02
    26 -1.602526346E-02
    27  1.743445056E-02
    28 -9.911116986E-02
    29 -2.400313286E-02
    30 -2.413851080E-02
    31  2.862332230E-02
    32 -5.856675024E-02
    33 -9.337369667E-03
    34 -5.099516294E-03
    35  1.021083253E-02
    36 -3.046377238E-03
    37  5.897201519E-03
    38  3.157442763E-04
    39 -5.168156932E-03
    40 -1.317262425E-03
    41 -1.760835784E-01
    42 -2.044605124E-02
    43  2.279952795E-02
    44  1.535948911E-02
    45  2.501468811E-02
    46  3.857887061E-02
    47  1.563287791E-02
    48 -2.010176137E-02
    49  1.085441413E-02
    50 -9.915689257E-02
    51  2.662783194E-02
    52 -3.102555503E-02
    53  1.750715919E-02
    54 -5.856309951E-02
    55  1.106899074E-02
    56 -7.893180027E-03
    57  5.726355150E-03
    58  8.486089458E-04
    59 -4.018347479E-03
    60  4.529869709E-04
    61 -5.859000350E-03
    62  4.605416326E-03
    63 -1.752498415E-01
    64  2.994409533E-02
    65  1.590282016E-02
    66  3.946191859E-03
    67 -2.566583189E-02
    68 -3.963296682E-02
    69  6.158795091E-03
    70 -1.953747694E-02
    71 -1.894930026E-03
    72  1.029153266E-01
    73  1.078922130E-02
    74 -3.135571457E-02
    75 -3.928721150E-03
    76  6.181124796E-02
    77  5.116334035E-03
    78 -1.052962747E-02
    79 -2.758778436E-03
    80  1.174314212E-03
    81  2.558995290E-03
    82  4.222835971E-03
    83  3.344495989E-03
    84 -2.414202422E-03
    85 -1.877506925E-01
    86 -4.949943080E-02
    87  2.416922118E-02
    88  4.327324821E-02
    89 -3.330581400E-02
    90 -5.138982118E-02
    91 -2.585237229E-03
    92 -2.940104321E-03
    93 -9.948842819E-03
    94  1.329198391E-01
    95 -4.176072810E-03
    96 -2.634225074E-03
    97 -1.737586176E-02
    98  7.275059217E-02
    99 -1.479733298E-03
   100 -2.282228675E-03
   101 -5.369927753E-03
   102  8.454393747E-04
   103 -3.255981429E-04
   104  3.311730577E-04
   105  2.976286824E-03
   106 -7.612359184E-04
   107  1.939508263E-01
   108 -6.411090076E-03
   109  3.805327576E-03
   110 -3.162365488E-02
   111 -2.566067470E-02
   112 -3.962510305E-02
   113 -1.115469254E-02
   114 -1.718692340E-02
   115  1.910511566E-03
   116  1.028981393E-01
   117 -1.906073717E-02
   118 -2.730090984E-02
   119  2.630755075E-03
   120  6.176534186E-02
   121 -8.277240099E-03
   122 -8.713771572E-03
   123  2.015335559E-04
   124  2.735767353E-03
   125 -1.486784619E-03
   126  3.759434641E-03
   127  3.711369638E-03
   128  2.276443072E-03
   129 -1.892945587E-01
   130  6.761935148E-02
   131  8.396325396E-03
   132  1.792722933E-02
   133 -3.329964635E-02
   134 -5.138058316E-02
   135  1.022221093E-02
   136 -1.723691758E-04
   137  3.129916888E-03
   138  1.329023021E-01
   139  1.735161805E-02
   140  2.011343357E-03
   141  4.602791657E-03
   142  7.266956017E-02
   143  5.623325849E-03
   144 -7.158324898E-04
   145  1.956434973E-03
   146  1.653469369E-03
   147 -6.449108214E-04
   148  1.828301046E-03
   149  1.916067967E-03
   150  4.426605569E-04
   151  1.917612140E-01
   152  2.930490650E-02
   153  1.187211026E-02
   154  5.265215164E-03
   155 -2.565136233E-02
   156 -3.961056933E-02
   157  1.215764352E-03
   158 -1.451585968E-02
   159  1.453603123E-02
   160  1.028537033E-01
   161  2.268449528E-03
   162 -2.269740439E-02
   163  2.440316592E-02
   164  6.183901670E-02
   165  1.278273365E-03
   166 -6.632071423E-03
   167  9.946562956E-03
   168  2.374818828E-03
   169 -5.330013396E-04
   170 -6.609708510E-04
   171  5.771295115E-03
   172 -1.764735245E-03
   173 -1.816103171E-01
   174 -1.581853521E-02
   175 -8.665550028E-03
   176 -6.702960280E-02
   177 -3.329724187E-02
   178 -5.137675999E-02
   179 -7.697605607E-03
   180  2.263852522E-03
   181  7.066430696E-03
   182  1.328895457E-01
   183 -1.277061757E-02
   184  6.109104757E-03
   185  1.121882173E-02
   186  7.269509361E-02
   187 -4.300060139E-03
   188  6.382484044E-04
   189  4.146886091E-03
   190  9.043400214E-04
   191  1.263872126E-03
   192  1.804914186E-03
   193  2.046497689E-03
   194 -7.093850688E-04
   195  1.928764756E-01
   196 -2.053187877E-02
   197  1.872507874E-02
   198  1.655978863E-02
   199  2.501865204E-02
   200  3.858458921E-02
   201 -5.786459249E-03
   202 -2.472465478E-02
   203 -1.101189322E-02
   204 -9.916370127E-02
   205 -9.557543822E-03
   206 -3.883532609E-02
   207 -1.943936412E-02
   208 -5.864971889E-02
   209 -3.516118232E-03
   210 -1.100464153E-02
   211 -9.151675789E-03
   212 -3.384322185E-03
   213 -2.360435519E-03
   214 -7.272039403E-03
   215 -3.616094662E-04
   216 -1.598994346E-03
   217 -1.825326096E-01
   218 -6.339983958E-03
   219  8.922106239E-03
   220 -3.389492700E-02
   221  5.086358552E-02
   222  7.840481370E-02
   223  1.536129913E-03
   224  2.085108407E-02
   225 -5.920190827E-03
   226 -2.020919492E-01
   227  2.679652382E-03
   228  3.634836129E-02
   229 -1.031765288E-02
   230 -1.099594213E-01
   231  6.249020673E-04
   232  8.558247920E-03
   233 -2.442875205E-03
   234  2.738221909E-03
   235  2.348990106E-04
   236  3.189100822E-03
   237  5.587859522E-03
   238 -8.284343526E-04
   239  1.073735576E-01
   240 -1.688151887E-03
   241 -2.295509152E-02
   242  6.656684274E-03
   243 -1.697708427E-02
   244 -2.000857040E-02
   245 -4.593886989E-04
   246 -3.923660968E-03
   247  3.070517989E-04
   248 -4.978089051E-04
   249  7.125396685E-05
   250 -1.697748418E-02
   251 -2.000602216E-02
   252 -4.522709925E-04
   253  2.560959250E-04
   254  1.209875202E-03
   255  3.768900456E-03
   256 -5.216214097E-05
   257 -1.698329254E-02
   258 -2.001579636E-02
   259 -4.262719784E-04
   260  1.637634028E-03
   261  1.023327054E-03
   262  3.466642045E-03
   263  8.189988406E-05
   264 -1.698358176E-02
   265 -2.000913561E-02
   266 -5.116431048E-04
   267  3.307019086E-03
   268 -6.769913697E-04
   269 -2.086364976E-03
   270 -1.477859441E-04
   271  1.589807616E-02
   272  1.888915454E-02
   273 -7.337976169E-04
   274  2.779431839E-03
   275 -6.157296303E-04
   276 -2.592684926E-03
   277 -2.234510600E-02
   278  1.785972438E-02
   279  2.106481177E-02
   280 -1.705633265E-03
   281 -1.071374557E-03
   282 -2.416005177E-03
   283 -3.379653782E-03
   284  2.554809186E-03
   285  2.356561202E-02
   286  2.777379884E-02
   287 -4.747963386E-03
   288  1.946551269E-04
   289  4.858209229E-03
   290 -2.123506087E-03
   291 -3.320308832E-03
   292  1.589713559E-02
   293  1.888410242E-02
   294 -7.233748992E-04
   295 -3.656015880E-03
   296  2.600636405E-04
   297 -1.178729328E-03
   298 -2.242239791E-02
   299  1.785439049E-02
   300  2.106341046E-02
   301 -1.760303641E-03
   302  3.757671855E-03
   303 -1.372211374E-03
   304  1.549477659E-03
   305  2.326737994E-03
   306  2.356479771E-02
   307  2.775939650E-02
   308 -4.652077717E-03
   309  1.077871783E-03
   310  5.048635766E-03
   311 -1.221334219E-03
   312 -2.871289672E-03
   313  1.588931360E-02
   314  1.888854413E-02
   315 -8.818414173E-04
   316  9.424196707E-04
   317  1.253335001E-03
   318  3.515111004E-03
   319 -2.225652476E-02
   320  1.785224774E-02
   321  2.105896675E-02
   322 -1.758590662E-03
   323 -2.998872618E-03
   324 -4.531120313E-04
   325  3.033040610E-03
   326  2.470761897E-03
   327  2.356365346E-02
   328  2.776423541E-02
   329 -4.705311148E-03
   330 -1.575768067E-04
   331  5.216762457E-03
   332 -9.500361213E-04
   333 -2.976992512E-03
   334 -1.698298795E-02
   335 -2.002698240E-02
   336 -2.996057436E-04
   337  2.320470600E-03
   338 -8.900453317E-04
   339 -3.093324811E-03
   340 -1.226107350E-05
   341 -1.698305941E-02
   342 -2.002451178E-02
   343 -3.404362420E-04
   344 -3.530276095E-03
   345 -9.287947343E-05
   346 -1.809004469E-03
   347 -1.379349547E-04
   348 -3.188174919E-02
   349 -3.809691604E-02
   350  6.645380578E-03
   351  4.837146842E-03
   352  1.863868862E-03
   353 -5.130964292E-03
   354  6.321167837E-03
   355 -3.188397411E-02
   356 -3.809247470E-02
   357  6.639042695E-03
   358  1.780450839E-03
   359  4.973078805E-03
   360  5.029684684E-03
   361  6.246054339E-03
   362 -3.187892420E-02
   363 -3.809198367E-02
   364  6.625582606E-03
   365 -5.867427621E-03
   366  3.320859967E-03
   367 -2.781236040E-03
   368  6.251169710E-03
Ene=   -7.6582703056E-01
Spin= Alpha
Occup=   2.0000000
     1  5.132316917E-06
     2  7.900754552E-06
     3  2.768372841E-02
     4 -3.769851636E-03
     5 -6.081048747E-03
     6 -1.945969845E-05
     7  4.395586871E-02
     8 -5.986119745E-03
     9 -9.656882891E-03
    10 -1.949849999E-05
    11  2.291751500E-02
    12 -3.121547964E-03
    13 -5.033444548E-03
    14 -2.519888802E-03
    15  6.442432062E-03
    16  1.104678258E-04
    17  2.013539798E-04
    18 -4.717856758E-03
    19  5.393776532E-04
    20 -6.941176330E-02
    21  8.986467229E-03
    22  1.420093900E-02
    23  4.338176089E-02
    24  6.700674478E-02
    25  7.618919191E-03
    26  1.740700950E-02
    27 -3.448346591E-03
    28 -1.740441762E-01
    29  1.014505159E-02
    30  2.955302558E-02
    31 -5.394374853E-03
    32 -9.165559523E-02
    33  4.190464228E-03
    34  9.450870511E-03
    35 -5.264921933E-03
    36  1.791685805E-03
    37 -2.118849940E-04
    38  2.050429755E-03
    39  5.612659872E-03
    40 -1.480168496E-03
    41 -2.628472538E-01
    42 -1.542759330E-02
    43  2.991957328E-02
    44  2.401391403E-02
    45 -4.337049774E-02
    46 -6.698936856E-02
    47  3.643928295E-03
    48 -1.894067826E-02
    49  9.723251266E-04
    50  1.739994297E-01
    51  3.557146373E-03
    52 -3.141971827E-02
    53  2.383913902E-03
    54  9.163001505E-02
    55  3.428675157E-03
    56 -1.048079267E-02
    57  3.575155883E-03
    58 -1.877078286E-03
    59  4.459393929E-04
    60 -1.929098822E-03
    61 -5.749749820E-03
    62  8.016213156E-04
    63  2.648150179E-01
    64 -3.179485527E-02
    65 -2.320680746E-02
    66 -1.389158198E-02
    67  5.658089617E-02
    68  8.742378682E-02
    69  9.138249658E-03
    70 -6.351665363E-03
    71  1.260496125E-02
    72 -2.275960119E-01
    73  1.227855982E-02
    74 -1.054541944E-02
    75  2.251752886E-02
    76 -1.344431988E-01
    77 -3.406255545E-03
    78 -4.915805755E-03
    79  1.871129410E-02
    80 -1.280643089E-03
    81 -1.858568349E-03
    82 -8.658975727E-04
    83  5.164823536E-03
    84 -1.652046753E-03
    85  2.702389575E-01
    86  4.247185352E-02
    87  2.628121546E-02
    88 -7.582587274E-02
    89  1.566687770E-06
    90  2.363304676E-06
    91  3.280974702E-02
    92 -4.466758719E-03
    93 -7.206074097E-03
    94 -3.234085512E-06
    95  5.216453053E-02
    96 -7.102098610E-03
    97 -1.145785703E-02
    98 -3.877904245E-05
    99  2.108395687E-02
   100 -2.871932430E-03
   101 -4.615379792E-03
   102  3.630220046E-03
   103 -9.190121085E-03
   104  4.971519490E-04
   105 -1.101832431E-03
   106  3.868667689E-03
   107 -3.233550298E-04
   108 -5.918275652E-03
   109  6.825641752E-04
   110  1.501214676E-03
   111 -5.657769543E-02
   112 -8.741866481E-02
   113  4.426975895E-03
   114  4.495572249E-03
   115 -1.558702059E-02
   116  2.275802134E-01
   117  4.164036765E-03
   118  8.296021053E-03
   119 -2.613577285E-02
   120  1.344336130E-01
   121 -9.445284190E-03
   122  6.654368292E-03
   123 -1.584881174E-02
   124  1.268584143E-03
   125  1.889077852E-03
   126  8.495941420E-04
   127 -5.140832079E-03
   128  1.706044313E-03
   129 -2.702611425E-01
   130  6.195100402E-02
   131 -4.039285019E-02
   132  5.298008840E-02
   133  4.318433450E-02
   134  6.669143956E-02
   135  7.577553677E-04
   136 -1.348953818E-02
   137 -1.408078666E-02
   138 -1.731598434E-01
   139 -1.282456272E-03
   140 -2.194313446E-02
   141 -2.298549031E-02
   142 -9.264348865E-02
   143  1.347781608E-03
   144 -6.775071506E-03
   145 -9.363493236E-03
   146 -2.524451742E-03
   147 -2.076508256E-03
   148 -4.378084875E-03
   149  2.668797621E-03
   150 -1.635658559E-03
   151 -1.582686862E-01
   152 -1.278726943E-02
   153 -9.610074495E-03
   154  2.341146750E-03
   155 -1.965090804E-06
   156 -3.090518971E-06
   157  2.764706616E-02
   158 -3.762575874E-03
   159 -6.073099852E-03
   160  1.014628919E-05
   161  4.420217191E-02
   162 -6.017253771E-03
   163 -9.707497280E-03
   164 -1.574437918E-05
   165  1.956462105E-02
   166 -2.657354506E-03
   167 -4.311222833E-03
   168 -3.059136817E-03
   169  7.676257979E-03
   170 -9.173381916E-04
   171  1.546502776E-03
   172 -1.031596668E-03
   173  8.915080917E-04
   174 -3.931744493E-02
   175  6.032757943E-03
   176  8.382541548E-03
   177 -4.318927586E-02
   178 -6.669903382E-02
   179  9.906382936E-03
   180  1.203888860E-02
   181  1.173900686E-02
   182  1.731790647E-01
   183  1.394323386E-02
   184  2.021911615E-02
   185  2.020321616E-02
   186  9.265920746E-02
   187  6.769832716E-03
   188  5.689353174E-03
   189  7.587133282E-03
   190  2.380391978E-03
   191  2.429397557E-03
   192  4.270546741E-03
   193 -2.515646040E-03
   194  1.875903402E-03
   195  1.599179061E-01
   196 -1.015576808E-02
   197  1.297712528E-02
   198  2.542124097E-03
   199 -4.185474533E-07
   200 -7.186140957E-07
   201  1.053254508E-02
   202 -1.437350264E-03
   203 -2.314465908E-03
   204  1.746068489E-06
   205  1.476993259E-02
   206 -2.012148562E-03
   207 -3.246727924E-03
   208  1.212922487E-05
   209  1.164673576E-03
   210 -1.717925627E-04
   211 -2.532997236E-04
   212 -9.103297654E-04
   213  2.303738816E-03
   214 -1.188787734E-04
   215  2.680000293E-04
   216 -1.000773907E-03
   217 -4.315191527E-03
   218  2.064916907E-02
   219 -2.451155750E-03
   220 -5.371194657E-03
   221  4.444055455E-06
   222  6.885976191E-06
   223  4.144545105E-03
   224 -5.628985564E-04
   225 -9.111864294E-04
   226 -1.871202150E-05
   227  6.155904445E-03
   228 -8.333834633E-04
   229 -1.351335097E-03
   230 -3.096863372E-06
   231  1.571314867E-03
   232 -2.301058996E-04
   233 -3.587473833E-04
   234 -1.608973900E-04
   235  4.437647453E-04
   236  2.462418139E-04
   237 -2.826739049E-04
   238 -1.367936542E-03
   239 -4.228695135E-04
   240  4.721816998E-03
   241 -4.714484101E-04
   242 -1.023447270E-03
   243 -3.113896150E-02
   244 -3.750732935E-02
   245  8.824791827E-03
   246 -5.591169626E-03
   247  3.046749841E-03
   248 -2.451780306E-03
   249  5.582206189E-03
   250 -2.623427762E-02
   251 -3.037128946E-02
   252  6.071616426E-03
   253  1.841015832E-03
   254  3.736306625E-03
   255  4.196751298E-03
   256 -2.581957500E-04
   257  2.622387804E-02
   258  3.036038732E-02
   259 -6.105096405E-03
   260 -1.070891144E-03
   261 -3.839855378E-03
   262 -4.363501249E-03
   263  3.273362049E-04
   264  3.113309125E-02
   265  3.750171882E-02
   266 -8.895473360E-03
   267 -4.658378211E-03
   268 -1.650828346E-03
   269  4.702103208E-03
   270 -5.425719926E-03
   271 -3.844614421E-02
   272 -4.887064497E-02
   273 -9.321430432E-04
   274 -5.807810247E-03
   275 -1.088835121E-03
   276  6.777739069E-03
   277  2.508101024E-02
   278 -4.667452057E-07
   279  1.728206922E-06
   280  9.003051437E-06
   281  1.489442554E-03
   282 -2.030174438E-04
   283 -3.273461844E-04
   284 -7.408378977E-05
   285 -4.081509535E-07
   286  2.516257414E-06
   287  1.480384042E-05
   288  1.486114413E-03
   289 -2.019938526E-04
   290 -3.267225301E-04
   291 -1.290642904E-04
   292  3.844761335E-02
   293  4.887315966E-02
   294  8.975108192E-04
   295 -7.593636136E-03
   296  2.913407634E-03
   297 -3.834459778E-03
   298 -2.508518530E-02
   299 -3.089682163E-02
   300 -3.634744219E-02
   301  5.277631344E-03
   302 -5.869212889E-03
   303  1.311302926E-03
   304 -3.003427561E-03
   305  1.559718128E-03
   306 -2.597245184E-02
   307 -3.048196133E-02
   308  3.403029199E-03
   309 -2.379972169E-04
   310 -5.826280696E-03
   311  8.764032718E-04
   312  8.905276917E-03
   313  2.198820971E-06
   314  3.153268565E-06
   315 -3.093648338E-06
   316  1.174113270E-03
   317 -1.590958458E-04
   318 -2.572337220E-04
   319 -2.062189330E-05
   320  3.090129607E-02
   321  3.636033901E-02
   322 -5.361495968E-03
   323 -4.233523719E-03
   324  6.298532327E-05
   325  5.222653130E-03
   326 -1.559263213E-03
   327  2.597559132E-02
   328  3.048710994E-02
   329 -3.438394664E-03
   330  9.182800295E-04
   331  5.734227937E-03
   332 -1.026347041E-03
   333 -8.687688175E-03
   334  4.907906891E-03
   335  7.133876833E-03
   336 -2.685747050E-03
   337 -1.818021743E-04
   338 -3.454678773E-04
   339  1.025193227E-03
   340 -5.970088044E-03
   341 -4.903467847E-03
   342 -7.149895967E-03
   343  2.906050734E-03
   344 -4.931774032E-04
   345  4.380657634E-04
   346 -8.769271299E-04
   347  5.832100895E-03
   348  2.106538018E-03
   349  1.702290163E-03
   350  2.451389192E-04
   351 -3.232491750E-05
   352  7.619815653E-06
   353  2.326805763E-04
   354  1.521535124E-04
   355 -2.827357785E-06
   356 -9.409024068E-06
   357  7.748211910E-05
   358  2.771678722E-04
   359 -3.718148789E-05
   360 -6.009443800E-05
   361 -9.887439848E-06
   362 -2.111138478E-03
   363 -1.713688732E-03
   364 -2.116116352E-04
   365 -1.271896461E-04
   366  1.495612262E-05
   367 -1.982127653E-04
   368 -2.140169062E-04
Ene=   -7.6582439260E-01
Spin= Alpha
Occup=   2.0000000
     1 -6.020306081E-06
     2 -9.389751290E-06
     3  6.864221330E-03
     4  7.115985946E-03
     5  2.683136928E-02
     6  2.484969856E-05
     7  1.089725917E-02
     8  1.129877774E-02
     9  4.260302925E-02
    10  1.074290046E-05
    11  5.691288587E-03
    12  5.864607623E-03
    13  2.221804444E-02
    14 -1.117881634E-03
    15 -2.352154499E-03
    16 -6.419976366E-03
    17  3.927170462E-03
    18 -2.597751288E-03
    19  7.767674281E-04
    20 -1.765086579E-02
    21 -1.971197496E-02
    22 -6.647833621E-02
    23 -2.504337311E-02
    24 -3.868179901E-02
    25  4.295204950E-03
    26 -8.168123846E-03
    27  1.086393900E-02
    28  1.004775474E-01
    29  6.335699053E-03
    30 -1.442161912E-02
    31  1.555706757E-02
    32  5.285232002E-02
    33 -1.472569283E-03
    34 -5.225616429E-03
    35  4.026611417E-03
    36 -2.429883289E-03
    37  5.148743160E-04
    38 -3.014583166E-03
    39 -1.730193627E-03
    40 -5.213578461E-04
    41  1.498363873E-01
    42  2.599454299E-02
    43 -1.292950583E-02
    44  3.441132869E-03
    45 -2.504667549E-02
    46 -3.868679193E-02
    47 -1.368928320E-03
    48 -7.398632202E-03
    49  1.210598972E-02
    50  1.004887031E-01
    51 -2.818104899E-03
    52 -1.318010127E-02
    53  1.756473397E-02
    54  5.288074351E-02
    55  1.613218138E-03
    56 -5.662953144E-03
    57  3.356455019E-03
    58 -1.429987797E-03
    59 -2.010897944E-03
    60 -2.809555755E-03
    61 -2.119389679E-03
    62  2.407698345E-04
    63  1.528312643E-01
    64 -2.518679443E-02
    65 -6.338817741E-03
    66  1.461465570E-02
    67 -3.265919181E-02
    68 -5.046194292E-02
    69  1.753769876E-02
    70  8.597523045E-03
    71  1.601333394E-02
    72  1.313673553E-01
    73  2.938417994E-02
    74  1.397227881E-02
    75  2.423546781E-02
    76  7.764303640E-02
    77  1.813176025E-02
    78  6.325045283E-03
    79  5.691900908E-03
    80 -5.509421658E-03
    81  2.055204321E-03
    82 -4.120073445E-03
    83  2.258466523E-03
    84 -1.867469791E-03
    85 -1.553298164E-01
    86 -5.692275935E-02
    87 -2.169460620E-02
    88  1.081576692E-02
    89 -4.986514121E-02
    90 -7.700889843E-02
    91 -2.039450712E-04
    92  9.049478108E-03
    93 -6.557015933E-03
    94  1.999489306E-01
    95 -9.971546957E-04
    96  1.419239081E-02
    97 -1.335314559E-02
    98  1.069746628E-01
    99 -6.358486674E-05
   100  3.852402697E-03
   101 -2.781941049E-03
   102 -1.129681961E-03
   103 -1.358767133E-03
   104 -1.912022211E-03
   105  2.579807727E-03
   106 -1.184193219E-03
   107  1.841728612E-01
   108 -2.347829178E-03
   109  8.724356782E-03
   110 -1.634761314E-02
   111 -3.266773719E-02
   112 -5.047521100E-02
   113 -6.553229844E-03
   114  1.187305523E-02
   115  2.130435631E-02
   116  1.314042002E-01
   117 -1.216051341E-02
   118  1.962449747E-02
   119  3.335840760E-02
   120  7.762381829E-02
   121 -1.188110291E-02
   122  1.040767985E-02
   123  1.230077291E-02
   124 -1.984806889E-03
   125 -6.791330322E-03
   126 -3.071035716E-03
   127  4.856867364E-04
   128 -6.464616377E-04
   129 -1.584288228E-01
   130  4.935998422E-02
   131 -3.652253352E-02
   132 -1.210393954E-02
   133  2.493959586E-02
   134  3.851529014E-02
   135 -1.037409196E-02
   136  3.218100157E-03
   137  2.782826591E-02
   138 -1.000025025E-01
   139 -1.792924138E-02
   140  4.830942089E-03
   141  4.390071857E-02
   142 -5.349686777E-02
   143 -6.167209739E-03
   144  3.143429210E-03
   145  1.768190718E-02
   146  5.032371279E-06
   147  7.865633378E-03
   148  4.123926752E-03
   149 -3.218449926E-03
   150 -1.415167407E-05
   151 -9.042980220E-02
   152 -5.288164995E-03
   153 -7.458164103E-03
   154 -5.121067740E-03
   155  6.533512239E-02
   156  1.009498249E-01
   157 -7.701720631E-04
   158 -9.875984581E-03
   159  2.626507914E-03
   160 -2.628044338E-01
   161 -2.195198738E-03
   162 -1.800311730E-02
   163  1.182590733E-03
   164 -1.552668424E-01
   165 -4.555312478E-03
   166 -1.501130690E-02
   167 -1.148909401E-02
   168  2.952920838E-03
   169  1.264790731E-03
   170  3.129210281E-03
   171  1.615336859E-03
   172  2.893977363E-04
   173  3.102182239E-01
   174  2.417641690E-02
   175  7.555443572E-02
   176  6.414957880E-02
   177  2.493545725E-02
   178  3.850907735E-02
   179  2.135952445E-02
   180 -1.099236389E-03
   181  2.086485816E-02
   182 -9.999007122E-02
   183  3.499976979E-02
   184 -2.369381613E-03
   185  3.228457951E-02
   186 -5.344495110E-02
   187  1.349261472E-02
   188  4.782219628E-04
   189  1.339938081E-02
   190  4.279912934E-03
   191 -2.948664073E-03
   192  4.761663630E-03
   193 -4.579679228E-03
   194  4.314862478E-03
   195 -8.885385012E-02
   196  3.440816646E-04
   197 -8.083017989E-03
   198 -6.364774581E-03
   199  5.008247652E-02
   200  7.735649015E-02
   201  2.474103932E-03
   202  2.117459520E-02
   203 -1.846479221E-03
   204 -2.009268646E-01
   205  3.538935652E-03
   206  3.493191899E-02
   207 -5.529916243E-03
   208 -1.058345667E-01
   209  2.027225357E-03
   210  1.316033407E-02
   211  1.144114834E-03
   212  3.295893616E-03
   213  5.439313427E-04
   214  3.434373954E-03
   215  5.384798333E-03
   216 -7.083523619E-04
   217 -3.062144436E-01
   218 -7.810191054E-03
   219  1.369385362E-02
   220 -4.408701018E-02
   221 -8.283214300E-06
   222 -1.278942862E-05
   223  1.027316790E-03
   224  1.061847512E-03
   225  4.017725204E-03
   226  3.170643184E-05
   227  1.526303712E-03
   228  1.577582304E-03
   229  5.967407741E-03
   230  3.533001565E-05
   231  3.809126306E-04
   232  3.851910044E-04
   233  1.530716668E-03
   234  6.384145958E-04
   235 -1.505579129E-05
   236 -1.251396949E-03
   237  3.448291434E-04
   238 -3.761612801E-04
   239  1.721574597E-03
   240  1.169975697E-03
   241  9.035945150E-04
   242  4.627031800E-03
   243  1.231058004E-02
   244  1.340399591E-02
   245 -1.879453956E-03
   246  2.310058714E-03
   247 -8.983876553E-04
   248  1.562466617E-03
   249  3.540562782E-03
   250  2.081220526E-02
   251  2.577055344E-02
   252 -6.683849042E-03
   253 -7.016079140E-04
   254 -3.137435436E-03
   255 -3.138491399E-03
   256 -6.571131630E-03
   257  2.081035395E-02
   258  2.577959354E-02
   259 -6.757945142E-03
   260 -1.479594250E-03
   261 -3.031977925E-03
   262 -2.967605123E-03
   263 -6.603672499E-03
   264  1.231345076E-02
   265  1.340902179E-02
   266 -1.901855046E-03
   267 -1.607096571E-03
   268 -3.650258626E-04
   269  2.423377759E-03
   270  3.653084575E-03
   271  2.219230991E-02
   272  2.820863197E-02
   273  5.169535803E-04
   274  4.320703415E-03
   275  8.378709750E-04
   276 -2.923561233E-03
   277 -1.448574763E-02
   278  3.567927066E-02
   279  4.198180335E-02
   280 -6.140105770E-03
   281 -1.928569215E-03
   282 -3.698985133E-03
   283 -6.486074929E-03
   284 -1.858529730E-03
   285  2.999134609E-02
   286  3.519318153E-02
   287 -3.905294821E-03
   288  4.670161423E-04
   289  6.466187295E-03
   290 -1.880971362E-03
   291 -1.011009570E-02
   292  2.219935082E-02
   293  2.821543026E-02
   294  5.366671981E-04
   295 -4.770973889E-03
   296  2.075675858E-03
   297 -9.269879173E-04
   298 -1.467462145E-02
   299 -1.784413135E-02
   300 -2.098572787E-02
   301  3.017236692E-03
   302 -3.880208758E-03
   303  1.257272100E-03
   304 -1.017642872E-04
   305  9.245519550E-04
   306 -1.500117259E-02
   307 -1.760758646E-02
   308  1.957690361E-03
   309 -6.271140803E-04
   310 -2.866677760E-03
   311  2.135498285E-03
   312  5.110963990E-03
   313 -4.439803513E-02
   314 -5.644330250E-02
   315 -1.019151353E-03
   316 -2.581309053E-03
   317 -6.055583498E-03
   318 -8.000372912E-03
   319  2.891854206E-02
   320 -1.784209054E-02
   321 -2.098128642E-02
   322  3.007497555E-03
   323  3.673252771E-03
   324  2.290750114E-04
   325 -1.760406110E-03
   326  9.449049419E-04
   327 -1.499830556E-02
   328 -1.760255311E-02
   329  1.927519787E-03
   330  6.966465271E-04
   331 -3.046633174E-03
   332  1.844678817E-03
   333  5.067194690E-03
   334 -3.311748788E-02
   335 -3.918709833E-02
   336  8.676839260E-03
   337  5.036905850E-03
   338  1.655395575E-03
   339 -5.080731223E-03
   340  2.940350692E-03
   341 -3.311194653E-02
   342 -3.918440881E-02
   343  8.645078197E-03
   344 -6.074134927E-03
   345  3.168896874E-03
   346 -2.641306962E-03
   347  2.907535237E-03
   348 -1.211101768E-03
   349 -9.818154417E-04
   350 -8.323940487E-05
   351  2.466668862E-04
   352  4.490717915E-05
   353  9.973093806E-05
   354 -1.075968023E-04
   355  2.441402719E-03
   356  1.975598774E-03
   357  3.099323035E-04
   358 -5.408458972E-05
   359 -1.165742690E-04
   360 -1.747171178E-04
   361  2.049875180E-04
   362 -1.212314175E-03
   363 -9.838151994E-04
   364 -1.032817802E-04
   365 -1.634985504E-04
   366  1.009763875E-04
   367  1.894670776E-04
   368 -1.042627961E-04
Ene=   -6.7822482485E-01
Spin= Alpha
Occup=   2.0000000
     1 -4.733646535E-03
     2 -7.270409320E-03
     3 -4.556862022E-03
     4 -6.167282379E-02
     5  1.750340907E-02
     6  1.766185091E-02
     7 -6.839531886E-03
     8 -9.255878215E-02
     9  2.626880184E-02
    10  7.148397767E-03
    11 -5.709287235E-03
    12 -7.730739661E-02
    13  2.193735947E-02
    14  5.582279278E-03
    15  4.787427612E-04
    16  6.500980049E-03
    17  1.138664940E-02
    18 -1.688853069E-03
    19  3.061975552E-01
    20 -1.665014163E-03
    21 -2.883851986E-02
    22  7.755876311E-03
    23 -3.070259446E-02
    24 -4.766296441E-02
    25  1.921087442E-03
    26 -8.124661458E-03
    27 -1.621869493E-04
    28  1.271272917E-01
    29  3.327911536E-03
    30 -1.250322354E-02
    31 -6.122752547E-04
    32  6.816430039E-02
    33 -1.798944675E-03
    34 -5.676698824E-03
    35  2.956011159E-03
    36  3.409272835E-04
    37 -5.335991687E-04
    38  2.218020035E-03
    39  1.476182762E-03
    40 -1.830267494E-03
    41 -5.009982735E-02
    42 -7.425176255E-03
    43  3.233867262E-02
    44  2.397962409E-04
    45 -3.068535978E-02
    46 -4.763613087E-02
    47 -3.823930027E-03
    48 -7.348587573E-03
    49  1.097693154E-03
    50  1.270539314E-01
    51 -6.357952318E-03
    52 -1.119112193E-02
    53  1.511148801E-03
    54  6.816746314E-02
    55  1.332074099E-03
    56 -6.135914872E-03
    57  2.271569065E-03
    58 -4.697147052E-06
    59  2.251606893E-04
    60  1.347186693E-03
    61  2.602573651E-03
    62  1.488733709E-03
    63 -5.115079544E-02
    64  1.516255712E-02
    65  2.907129370E-02
    66 -4.200003532E-03
    67  1.305761183E-03
    68  1.969499540E-03
    69 -2.534396292E-03
    70  2.973717320E-02
    71 -3.801937042E-03
    72 -3.807353260E-03
    73 -4.378897865E-03
    74  4.665916276E-02
    75 -5.572757356E-03
    76 -1.242909409E-02
    77 -7.003491105E-03
    78  1.710123721E-02
    79  3.255960062E-03
    80 -1.551205662E-03
    81 -2.375931319E-03
    82 -3.992320426E-03
    83 -3.858228140E-03
    84  1.973712972E-03
    85 -1.992432545E-03
    86 -1.149705892E-02
    87 -8.077570253E-03
    88  1.325172869E-02
    89  2.060849439E-02
    90  3.196963420E-02
    91  1.569635871E-03
    92  1.225183972E-02
    93 -4.356805504E-04
    94 -8.481979571E-02
    95  2.312269239E-03
    96  1.752312936E-02
    97 -3.105486104E-04
    98 -4.400114903E-02
    99  4.984312619E-04
   100  8.951506966E-03
   101 -3.364761866E-03
   102 -2.841983350E-04
   103 -2.629991488E-04
   104 -2.030633318E-03
   105 -6.525959268E-04
   106 -2.821860555E-04
   107  1.195445982E-02
   108  6.943470941E-04
   109  1.745367416E-02
   110 -8.624140367E-03
   111  1.307205808E-03
   112  1.971558629E-03
   113  8.238203013E-03
   114  2.826007555E-02
   115 -6.175525976E-03
   116 -3.809406526E-03
   117  1.343864523E-02
   118  4.421496836E-02
   119 -9.497842171E-03
   120 -1.246769172E-02
   121  1.186686541E-02
   122  1.453523311E-02
   123 -8.638838172E-04
   124 -2.972056766E-03
   125  1.286773038E-03
   126 -3.733390198E-03
   127 -3.984188426E-03
   128 -1.560884496E-03
   129 -5.039984949E-03
   130  1.402090979E-02
   131 -1.158805729E-02
   132  7.897663742E-03
   133  2.062642206E-02
   134  3.199734118E-02
   135 -2.042104766E-03
   136  1.147340377E-02
   137 -4.121519314E-03
   138 -8.488910170E-02
   139 -3.222700056E-03
   140  1.632880666E-02
   141 -5.960843615E-03
   142 -4.409391205E-02
   143  1.434934182E-03
   144  9.157227167E-03
   145 -2.364192162E-03
   146 -4.703671249E-04
   147 -6.664642161E-04
   148 -1.606948968E-04
   149 -1.346215198E-03
   150  1.508555875E-03
   151  1.177621840E-02
   152  4.728092232E-03
   153  1.848828481E-02
   154 -4.193646439E-03
   155  1.310282561E-03
   156  1.976516852E-03
   157  5.464055252E-04
   158  2.660486880E-02
   159 -1.404218954E-02
   160 -3.827139368E-03
   161  7.173921462E-04
   162  4.147628789E-02
   163 -2.250559792E-02
   164 -1.242081484E-02
   165 -1.644753931E-03
   166  1.163698838E-02
   167 -1.466504251E-02
   168 -2.218170057E-03
   169  5.109407639E-04
   170 -1.285061402E-04
   171 -5.910001154E-03
   172  1.625813821E-03
   173 -1.508920534E-03
   174 -4.502610069E-03
   175 -1.518439230E-02
   176 -1.096309766E-02
   177  2.060822848E-02
   178  3.196928512E-02
   179  3.018081323E-03
   180  1.078446750E-02
   181 -5.236961254E-03
   182 -8.482001676E-02
   183  4.530928587E-03
   184  1.527384199E-02
   185 -7.669741230E-03
   186 -4.396878976E-02
   187  1.076269205E-04
   188  9.366752981E-03
   189 -2.054496922E-03
   190 -1.020429392E-03
   191  7.769219463E-04
   192  1.244838867E-04
   193 -1.626566464E-03
   194 -6.896340141E-04
   195  1.361464107E-02
   196 -1.260897786E-03
   197  1.975105753E-02
   198 -2.686243515E-03
   199 -3.069972420E-02
   200 -4.765862666E-02
   201  2.859294763E-04
   202 -6.456915057E-03
   203  5.290003041E-03
   204  1.271186033E-01
   205  5.694375991E-04
   206 -9.689291394E-03
   207  8.578706263E-03
   208  6.814558143E-02
   209 -8.962671115E-04
   210 -6.587416777E-03
   211 -1.882245434E-05
   212  2.585743626E-03
   213  5.584385663E-04
   214 -1.635248536E-04
   215  1.881208301E-03
   216 -5.423743459E-04
   217 -5.329341479E-02
   218 -1.293862215E-03
   219  2.606517679E-02
   220 -2.132581633E-02
   221  8.831126747E-02
   222  1.369457615E-01
   223 -9.306147910E-04
   224 -1.256070341E-02
   225  3.561332770E-03
   226 -3.628851078E-01
   227 -9.739602871E-04
   228 -1.311680062E-02
   229  3.719429095E-03
   230 -1.925162577E-01
   231 -1.927358134E-03
   232 -2.616947882E-02
   233  7.420975654E-03
   234 -7.025189159E-04
   235 -6.010246997E-05
   236 -8.170803771E-04
   237 -1.431525181E-03
   238  2.132189380E-04
   239 -2.029509529E-01
   240  3.769403259E-03
   241  5.052380452E-02
   242 -1.430274428E-02
   243  2.117483705E-02
   244  2.701984392E-02
   245 -1.937439782E-03
   246  3.802443867E-03
   247 -1.823242782E-03
   248  1.443756761E-03
   249 -3.627814212E-03
   250  2.117559413E-02
   251  2.701740284E-02
   252 -1.904397498E-03
   253 -8.722540251E-04
   254 -2.833842924E-03
   255 -3.328408871E-03
   256 -3.522167672E-03
   257  2.115805233E-02
   258  2.699680020E-02
   259 -1.855553076E-03
   260 -1.330298746E-03
   261 -2.770060147E-03
   262 -3.224859037E-03
   263 -3.667536742E-03
   264  2.116147821E-02
   265  2.699589588E-02
   266 -1.841664552E-03
   267 -3.195425398E-03
   268 -8.700524497E-04
   269  2.979003480E-03
   270 -3.543686106E-03
   271 -2.965127595E-03
   272 -4.451181530E-03
   273 -2.199641233E-03
   274 -6.669119948E-04
   275  1.304765386E-03
   276  3.775822128E-04
   277 -9.260861225E-03
   278 -1.213614492E-02
   279 -1.493869372E-02
   280  6.506979852E-05
   281  6.127204734E-04
   282  1.857825642E-03
   283  1.638309026E-03
   284  2.706067328E-03
   285 -2.364578150E-02
   286 -2.841034133E-02
   287  6.400467304E-03
   288 -1.825099085E-04
   289 -3.736619094E-03
   290  1.484962439E-03
   291  8.031628176E-03
   292 -2.967056179E-03
   293 -4.465688326E-03
   294 -2.126927924E-03
   295  1.073074920E-03
   296  1.067046386E-03
   297 -4.353514456E-06
   298 -9.464708708E-03
   299 -1.215113741E-02
   300 -1.495357584E-02
   301  2.634789418E-05
   302 -1.961842588E-03
   303  1.302609746E-03
   304 -9.885697760E-04
   305  2.700866292E-03
   306 -2.366153473E-02
   307 -2.842709077E-02
   308  6.379226700E-03
   309 -6.853506405E-04
   310 -3.847763450E-03
   311  9.716049691E-04
   312  8.139182313E-03
   313 -2.970054062E-03
   314 -4.459389906E-03
   315 -2.231327274E-03
   316 -1.705662161E-04
   317  7.985576175E-04
   318 -1.274801765E-03
   319 -9.373554377E-03
   320 -1.213450606E-02
   321 -1.493073276E-02
   322 -1.613782856E-05
   323  1.639636250E-03
   324  8.120331272E-04
   325 -1.778161210E-03
   326  2.672993230E-03
   327 -2.364786154E-02
   328 -2.841129691E-02
   329  6.372077815E-03
   330  1.840203253E-05
   331 -3.941387652E-03
   332  8.161136552E-04
   333  8.303494975E-03
   334  2.117497853E-02
   335  2.701029069E-02
   336 -1.809922944E-03
   337 -2.869386501E-03
   338 -7.990763282E-04
   339  3.315799081E-03
   340 -3.581861422E-03
   341  2.116982877E-02
   342  2.700809017E-02
   343 -1.826281947E-03
   344  3.670500053E-03
   345 -1.690347743E-03
   346  1.879479717E-03
   347 -3.691181659E-03
   348 -7.229791858E-02
   349 -9.132151740E-02
   350  1.237617394E-02
   351  9.844391445E-03
   352  1.193789560E-03
   353 -9.892512933E-03
   354  1.843681325E-03
   355 -7.230008780E-02
   356 -9.132362049E-02
   357  1.239574275E-02
   358  3.498625771E-03
   359  7.648445475E-03
   360  1.120114885E-02
   361  1.880153572E-03
   362 -7.229393496E-02
   363 -9.132340581E-02
   364  1.242666561E-02
   365 -1.237918463E-02
   366  4.218786671E-03
   367 -5.014990468E-03
   368  1.924715459E-03
Ene=   -6.6524112547E-01
Spin= Alpha
Occup=   2.0000000
     1  1.047953017E-06
     2  1.620009071E-06
     3  2.897701841E-02
     4  8.261634544E-03
     5  3.666129439E-02
     6 -3.082339531E-06
     7  4.542688439E-02
     8  1.295188816E-02
     9  5.747556448E-02
    10 -2.075054813E-05
    11  2.453107956E-02
    12  6.997658921E-03
    13  3.103531684E-02
    14 -5.481623013E-03
    15  1.742631147E-04
    16 -6.306012362E-03
    17  5.664954765E-03
    18 -4.155974492E-03
    19 -9.526227295E-04
    20  1.628753626E-02
    21  4.935080303E-03
    22  2.155591552E-02
    23 -6.878102876E-03
    24 -1.069086095E-02
    25 -4.906598271E-04
    26  1.365132539E-03
    27  8.578972236E-04
    28  2.854234153E-02
    29 -3.040332139E-04
    30  1.596005607E-03
    31  1.196640244E-03
    32  1.707562283E-02
    33 -4.070508228E-03
    34  2.205592401E-04
    35 -2.752245817E-03
    36 -3.202171540E-03
    37 -2.486955279E-04
    38  1.510582683E-03
    39  1.097329371E-03
    40  2.245949038E-03
    41 -7.142986144E-03
    42 -7.705790146E-03
    43  1.277593403E-03
    44 -5.388473528E-03
    45 -5.160282121E-02
    46 -8.020758293E-02
    47  9.386279527E-03
    48  7.691658028E-03
    49  7.708345775E-04
    50  2.141293475E-01
    51  1.042127095E-02
    52  8.796829224E-03
    53  1.003774088E-03
    54  1.282042716E-01
    55  9.629111969E-03
    56  4.048045217E-03
    57 -1.395229675E-03
    58 -9.420680626E-04
    59 -1.265429993E-03
    60  1.757663562E-03
    61 -3.364624842E-04
    62 -1.305428473E-03
    63 -3.721866887E-02
    64  1.543433448E-02
    65  1.314783749E-02
    66 -5.250864521E-03
    67  1.009766769E-04
    68  1.574788166E-04
    69 -3.210191736E-02
    70 -1.939642397E-03
    71 -3.212550126E-02
    72 -4.194354322E-04
    73 -5.096603126E-02
    74 -3.098732297E-03
    75 -5.097106372E-02
    76 -3.777557252E-04
    77 -2.029769070E-02
    78 -1.149010970E-03
    79 -2.044239169E-02
    80  4.291454807E-03
    81 -1.823240395E-03
    82  5.991336832E-03
    83 -6.077442154E-03
    84  5.178194025E-03
    85  3.613736870E-03
    86  9.138802656E-03
    87  2.645147258E-03
    88  7.796921347E-03
    89  5.829103589E-02
    90  9.060288712E-02
    91 -2.228027348E-03
    92  4.460709326E-03
    93 -1.153977102E-02
    94 -2.420026641E-01
    95 -2.560915771E-03
    96  4.667016271E-03
    97 -1.236445940E-02
    98 -1.507189930E-01
    99 -1.179226397E-03
   100  4.936628037E-03
   101 -8.271730766E-03
   102  3.063471456E-04
   103  5.541424069E-04
   104 -8.989826210E-04
   105  1.065466210E-03
   106  1.252749749E-03
   107 -2.201203464E-03
   108 -5.537610975E-04
   109  5.168896750E-03
   110 -1.596009839E-02
   111  7.660256281E-04
   112  1.194046035E-03
   113  2.147330976E-02
   114  2.582008914E-02
   115 -3.064855550E-02
   116 -3.161070552E-03
   117  3.418469105E-02
   118  4.081927258E-02
   119 -4.856272288E-02
   120 -3.075487158E-03
   121  1.328759467E-02
   122  1.694503622E-02
   123 -1.971756296E-02
   124 -4.169930613E-03
   125  6.107696764E-03
   126 -1.131498422E-03
   127 -7.998183621E-03
   128  3.589543002E-04
   129  1.591181870E-02
   130 -4.470013535E-03
   131  8.388415707E-03
   132  3.984818272E-03
   133 -5.143083408E-02
   134 -7.993988641E-02
   135 -9.004937165E-03
   136 -6.360436823E-03
   137 -1.218985699E-03
   138  2.135209198E-01
   139 -9.636570201E-03
   140 -6.773794635E-03
   141 -1.553228763E-03
   142  1.329899051E-01
   143 -6.178106550E-03
   144 -5.940898865E-03
   145 -1.414979499E-04
   146 -1.630300992E-03
   147 -8.227132680E-04
   148  1.130406216E-03
   149 -5.155458453E-04
   150 -1.529757501E-03
   151  2.495714274E-03
   152 -1.311691380E-02
   153 -6.909003019E-03
   154  1.382471280E-03
   155 -8.661655604E-04
   156 -1.350120580E-03
   157 -1.726460616E-02
   158 -3.183189472E-02
   159  2.747878858E-02
   160  3.574122964E-03
   161 -2.735725924E-02
   162 -5.030562883E-02
   163  4.368530492E-02
   164  3.470686560E-03
   165 -1.109478598E-02
   166 -2.095574598E-02
   167  1.719541548E-02
   168  3.689035970E-03
   169 -4.739129878E-03
   170  2.548429338E-03
   171  8.776126055E-03
   172 -2.714874956E-04
   173 -2.261738107E-02
   174  3.434674456E-03
   175 -9.502856951E-03
   176 -2.466605135E-03
   177 -6.851054696E-03
   178 -1.064854543E-02
   179  3.170435670E-04
   180 -1.210667198E-03
   181 -1.054263755E-03
   182  2.843849280E-02
   183  9.077774307E-05
   184 -1.339081310E-03
   185 -1.400833166E-03
   186  1.775332237E-02
   187  4.255204054E-04
   188 -9.894405560E-04
   189 -3.894921527E-04
   190 -3.240153336E-03
   191 -3.494071425E-04
   192  1.396026164E-03
   193  1.071243338E-03
   194  2.221596108E-03
   195  9.425500789E-04
   196  4.630252408E-03
   197 -6.858019737E-04
   198  3.004266947E-03
   199  5.846938037E-02
   200  9.088084286E-02
   201  2.080925286E-03
   202 -5.925543290E-03
   203  1.226243037E-02
   204 -2.426324647E-01
   205  2.445863101E-03
   206 -6.812181896E-03
   207  1.369727303E-02
   208 -1.451852806E-01
   209  1.500490994E-04
   210 -2.621223407E-03
   211  1.139343595E-02
   212  4.393623791E-04
   213  8.737791062E-04
   214 -6.836287421E-04
   215 -1.134412021E-05
   216  1.630207265E-03
   217  4.673508468E-02
   218 -1.055283202E-03
   219 -1.282469226E-02
   220  2.044646263E-02
   221  1.261206487E-05
   222  1.963247727E-05
   223  6.970524243E-03
   224  1.986612650E-03
   225  8.818897354E-03
   226 -5.319821775E-05
   227  1.009748990E-02
   228  2.877923000E-03
   229  1.277285214E-02
   230 -1.917394167E-05
   231  3.433334361E-03
   232  9.791220310E-04
   233  4.361210410E-03
   234  8.466690562E-04
   235  2.952000748E-04
   236 -1.935439261E-03
   237  4.331565318E-04
   238 -1.644147082E-03
   239  5.041514111E-04
   240 -7.438495475E-03
   241 -2.318076564E-03
   242 -9.417098842E-03
   243  5.773631858E-03
   244  5.720468212E-03
   245 -7.512302094E-04
   246  9.065109460E-04
   247 -2.111917932E-04
   248  4.571713445E-04
   249 -6.365522583E-04
   250  6.307173520E-03
   251  8.775578720E-03
   252  4.058584993E-04
   253 -2.965734376E-04
   254 -6.830141574E-04
   255 -9.591694034E-04
   256 -1.054484724E-03
   257  4.548002746E-02
   258  5.531552072E-02
   259 -1.326290515E-03
   260 -1.775953603E-03
   261 -4.535895883E-03
   262 -6.936082749E-03
   263 -5.847418768E-03
   264  4.516218282E-02
   265  5.350061522E-02
   266 -2.007753850E-03
   267 -5.615562437E-03
   268 -4.294733320E-04
   269  6.191946322E-03
   270 -5.666209366E-03
   271 -8.160289121E-05
   272 -5.955366590E-05
   273 -7.111591359E-05
   274 -1.638266946E-03
   275 -1.058761227E-04
   276 -1.621524873E-03
   277  4.227003800E-04
   278 -5.069059327E-02
   279 -6.132942403E-02
   280 -2.109985227E-03
   281  2.375849876E-03
   282  5.659445555E-03
   283  7.312365986E-03
   284  5.348122714E-03
   285 -5.082281468E-02
   286 -6.029901176E-02
   287 -9.769406280E-05
   288 -8.276646501E-04
   289 -9.174000880E-03
   290  2.104138050E-03
   291  4.736349001E-03
   292 -6.107985562E-04
   293 -4.518510340E-04
   294 -5.141418113E-04
   295  1.160117039E-03
   296  1.238230807E-03
   297 -1.513086751E-03
   298  1.946075485E-03
   299  4.472298078E-02
   300  5.411811855E-02
   301  1.791207102E-03
   302  7.250928782E-03
   303 -2.972564720E-03
   304  3.089050967E-03
   305 -4.850805855E-03
   306  4.483814601E-02
   307  5.319725587E-02
   308  6.387284119E-05
   309  1.759243045E-04
   310  7.966526927E-03
   311 -2.448512774E-03
   312 -4.091574424E-03
   313  6.888486808E-04
   314  4.934240366E-04
   315  7.078793523E-04
   316 -8.497287066E-04
   317 -1.512150334E-03
   318  1.453461464E-03
   319 -2.107561741E-03
   320  5.958204214E-03
   321  7.207847676E-03
   322  2.616949154E-04
   323 -7.772508413E-04
   324 -1.588609609E-04
   325  7.931333577E-04
   326 -6.297118217E-04
   327  5.971534542E-03
   328  7.087717062E-03
   329 -1.120931415E-05
   330  5.342674085E-05
   331  1.034795538E-03
   332 -4.099505887E-04
   333 -7.353424832E-04
   334 -5.124448601E-02
   335 -6.102351348E-02
   336  2.067699403E-03
   337  7.032453852E-03
   338  6.419289401E-04
   339 -6.366765366E-03
   340  6.440060038E-03
   341 -5.146039109E-02
   342 -6.226309427E-02
   343  1.553860414E-03
   344 -8.646905308E-03
   345  2.818404265E-03
   346 -3.010802844E-03
   347  6.542198095E-03
   348 -7.463096723E-04
   349 -7.838796648E-04
   350 -1.066414311E-04
   351  6.377294509E-04
   352  1.547630350E-04
   353  5.267520420E-04
   354 -1.075989250E-03
   355  6.263320472E-03
   356  6.577807634E-03
   357  9.110780312E-04
   358  1.459455752E-04
   359 -6.116161632E-04
   360 -5.565043931E-04
   361  9.546007271E-03
   362 -5.547715364E-03
   363 -5.829003455E-03
   364 -8.426666230E-04
   365 -6.551324934E-04
   366  4.950164112E-04
   367  1.916312610E-04
   368 -8.361726770E-03
Ene=   -6.6523010369E-01
Spin= Alpha
Occup=   2.0000000
     1 -1.983718469E-06
     2 -3.033209396E-06
     3  3.742851979E-02
     4 -1.049541657E-02
     5 -2.721563652E-02
     6  6.222100431E-06
     7  5.867809780E-02
     8 -1.645347763E-02
     9 -4.266685170E-02
    10  3.315426879E-05
    11  3.167776697E-02
    12 -8.888711498E-03
    13 -2.304160464E-02
    14 -1.735492768E-03
    15  1.041886998E-02
    16  2.001965412E-03
    17 -9.704795912E-04
    18 -1.635157970E-03
    19  1.816493500E-03
    20  2.144354605E-02
    21 -6.266478306E-03
    22 -1.555537382E-02
    23  6.354586964E-02
    24  9.877106958E-02
    25  7.578803504E-03
    26 -1.198900340E-02
    27 -4.816851303E-03
    28 -2.636881263E-01
    29  8.463491992E-03
    30 -1.356469013E-02
    31 -5.286782028E-03
    32 -1.578948342E-01
    33  7.063807772E-03
    34 -8.526144649E-03
    35 -5.839777708E-03
    36 -6.595953480E-04
    37 -8.549730525E-04
    38  2.769896702E-04
    39 -2.604088976E-04
    40 -2.419655319E-04
    41  4.621295330E-02
    42  9.775528006E-03
    43 -2.209072791E-02
    44 -6.347695502E-03
    45 -3.773247574E-02
    46 -5.864875221E-02
    47  7.026377225E-03
    48  5.462791801E-03
    49  2.338487506E-05
    50  1.565773652E-01
    51  7.922008473E-03
    52  6.133450173E-03
    53 -2.695423716E-04
    54  9.372722295E-02
    55  5.423872188E-03
    56  4.593592367E-03
    57  4.404853492E-03
    58  2.658597274E-03
    59  1.064682516E-03
    60 -1.911184717E-03
    61  1.406329387E-04
    62  9.711203158E-04
    63 -2.848890230E-02
    64  8.301097007E-03
    65  1.298398466E-02
    66  6.526726488E-03
    67 -9.454408102E-04
    68 -1.473655370E-03
    69  4.313079479E-03
    70 -4.522527921E-02
    71 -1.573388068E-03
    72  3.898980182E-03
    73  6.966509872E-03
    74 -7.161546596E-02
    75 -2.649824275E-03
    76  3.811709423E-03
    77  2.338372897E-03
    78 -2.927090778E-02
    79 -4.953652711E-04
    80  4.174746773E-03
    81  3.673669789E-03
    82  6.121322075E-03
    83  7.082314088E-03
    84 -8.956444735E-04
    85 -2.013201387E-02
    86 -2.366442607E-03
    87 -7.014777651E-03
    88  5.672478104E-03
    89 -2.574034130E-02
    90 -4.000874031E-02
    91  2.293313438E-04
    92 -1.866031348E-03
    93  5.264166937E-03
    94  1.068642945E-01
    95 -7.549515031E-05
    96 -1.895150544E-03
    97  5.727990066E-03
    98  6.656970011E-02
    99  4.143724179E-04
   100 -2.166474359E-03
   101  3.675274139E-03
   102 -7.626291743E-04
   103  1.198675076E-03
   104 -7.472445664E-04
   105  1.031561221E-03
   106  3.507524288E-03
   107  2.200574819E-03
   108  6.074696584E-03
   109 -2.894094158E-03
   110  5.498122678E-03
   111  5.614981754E-04
   112  8.750101125E-04
   113  1.433516391E-04
   114  3.472002699E-02
   115  2.934671711E-02
   116 -2.311951063E-03
   117  2.996866330E-04
   118  5.498932099E-02
   119  4.663674934E-02
   120 -2.298542630E-03
   121 -1.258010433E-04
   122  2.242862612E-02
   123  1.841234378E-02
   124 -4.321235267E-03
   125 -5.364400091E-03
   126 -8.523554947E-03
   127 -5.404587162E-04
   128 -5.674191490E-04
   129  1.131393030E-02
   130  1.390081172E-03
   131  1.934573798E-03
   132 -1.140085407E-02
   133 -3.760961423E-02
   134 -5.845755928E-02
   135 -6.830951579E-03
   136 -4.405303887E-03
   137 -8.044706056E-05
   138  1.561462375E-01
   139 -7.439079113E-03
   140 -4.563087545E-03
   141  1.581148114E-04
   142  9.720983733E-02
   143 -4.575715920E-03
   144 -4.291229128E-03
   145  3.924969224E-05
   146  2.146374271E-03
   147  1.442141877E-03
   148 -2.303767562E-03
   149 -2.641636173E-05
   150  8.020704258E-04
   151  8.032951451E-04
   152 -8.041444912E-03
   153 -6.852457751E-03
   154 -5.047605899E-03
   155  3.810625338E-04
   156  5.938951112E-04
   157 -4.048788526E-02
   158  2.060631717E-02
   159 -1.569182955E-03
   160 -1.571318456E-03
   161 -6.428279582E-02
   162  3.261162593E-02
   163 -2.522411740E-03
   164 -1.533920014E-03
   165 -2.560135771E-02
   166  1.339133391E-02
   167 -8.906079378E-04
   168  2.402596911E-03
   169 -8.130630747E-03
   170 -6.844177329E-04
   171 -4.962986898E-03
   172  4.910748795E-03
   173  9.534170424E-03
   174  1.173351802E-02
   175  2.218278112E-03
   176 -1.800028779E-03
   177  6.334842103E-02
   178  9.846374919E-02
   179 -7.500650396E-03
   180  1.022373652E-02
   181  5.071738170E-03
   182 -2.630014773E-01
   183 -8.127254694E-03
   184  1.084072591E-02
   185  5.487941631E-03
   186 -1.637745780E-01
   187 -4.804330255E-03
   188  8.988100341E-03
   189  2.810042741E-03
   190 -4.434531445E-04
   191  1.739089115E-04
   192  8.661450179E-04
   193  2.399543005E-04
   194 -4.202258849E-04
   195 -2.962996764E-03
   196 -9.767157802E-03
   197  1.309156242E-02
   198  7.660779939E-03
   199 -2.582356182E-02
   200 -4.013848796E-02
   201 -4.160369145E-04
   202  2.548177630E-03
   203 -5.525893410E-03
   204  1.071633154E-01
   205 -1.456005148E-04
   206  2.881051343E-03
   207 -6.253554843E-03
   208  6.410922611E-02
   209 -5.109742807E-03
   210  1.826356302E-03
   211 -3.930778392E-03
   212 -7.980811132E-04
   213  9.998856372E-04
   214 -8.450469768E-04
   215  1.508030779E-03
   216  3.391783387E-03
   217 -2.014161972E-02
   218 -9.119326557E-03
   219  6.811320455E-03
   220 -6.808798119E-03
   221  1.288974937E-05
   222  1.991610302E-05
   223  9.003979710E-03
   224 -2.525964944E-03
   225 -6.546857216E-03
   226 -5.114387295E-05
   227  1.304172330E-02
   228 -3.658080849E-03
   229 -9.483095909E-03
   230 -5.449384382E-05
   231  4.445494537E-03
   232 -1.237705683E-03
   233 -3.231352894E-03
   234 -7.413656242E-04
   235  8.693532352E-04
   236  1.319563474E-03
   237 -7.187615823E-04
   238 -1.969416284E-03
   239 -2.181588517E-04
   240 -9.636300434E-03
   241  2.755318278E-03
   242  6.963729408E-03
   243 -5.584186699E-02
   244 -6.716648874E-02
   245  1.977439524E-03
   246 -9.121507583E-03
   247  2.777756995E-03
   248 -4.107109113E-03
   249  7.063021475E-03
   250 -5.578721208E-02
   251 -6.684213841E-02
   252  2.118154562E-03
   253  3.059176980E-03
   254  5.387231291E-03
   255  8.307806881E-03
   256  7.041740314E-03
   257  3.292437491E-02
   258  3.854480520E-02
   259 -1.674203167E-03
   260 -1.199646187E-03
   261 -3.212572787E-03
   262 -5.029575243E-03
   263 -4.042260720E-03
   264  3.335707559E-02
   265  4.102370044E-02
   266 -7.090532001E-04
   267 -4.228415417E-03
   268 -3.940007586E-04
   269  4.560909393E-03
   270 -4.331443353E-03
   271  7.529589939E-04
   272  5.553330431E-04
   273  6.447580828E-04
   274  2.948794019E-04
   275 -2.228808186E-03
   276 -1.684061773E-04
   277 -2.334081968E-03
   278  2.238565606E-02
   279  2.708909417E-02
   280  8.796692873E-04
   281 -1.051145788E-03
   282 -2.498884947E-03
   283 -3.228598077E-03
   284 -2.336933160E-03
   285  2.244239510E-02
   286  2.662839439E-02
   287  6.758643314E-06
   288  2.612097060E-04
   289  4.065250832E-03
   290 -9.059682194E-04
   291 -2.009761295E-03
   292 -4.481979556E-04
   293 -3.277725404E-04
   294 -3.970715233E-04
   295  5.782573943E-05
   296  1.709969498E-03
   297  1.521714672E-03
   298  1.230774669E-03
   299  3.270577237E-02
   300  3.957397765E-02
   301  1.313231091E-03
   302  5.301580393E-03
   303 -2.173607484E-03
   304  2.260889240E-03
   305 -3.626745741E-03
   306  3.279087129E-02
   307  3.890281610E-02
   308  1.086995156E-04
   309  9.506140212E-05
   310  5.860899405E-03
   311 -1.678491223E-03
   312 -2.851435482E-03
   313 -3.037956588E-04
   314 -2.185355190E-04
   315 -2.999773541E-04
   316 -2.067936133E-03
   317  1.000578750E-03
   318 -1.054182711E-04
   319  8.877199486E-04
   320 -5.508643652E-02
   321 -6.665890342E-02
   322 -2.188537342E-03
   323  7.179580938E-03
   324  1.469162541E-03
   325 -7.344746755E-03
   326  5.984790269E-03
   327 -5.523125262E-02
   328 -6.553036915E-02
   329 -7.526693779E-05
   330 -1.129315586E-03
   331 -9.709290185E-03
   332  3.145541125E-03
   333  5.003914332E-03
   334  2.292657273E-02
   335  2.863372329E-02
   336 -2.717033112E-04
   337 -3.124676164E-03
   338 -3.351197123E-04
   339  2.932663842E-03
   340 -3.006821160E-03
   341  2.243325609E-02
   342  2.582090381E-02
   343 -1.357808140E-03
   344  3.767079347E-03
   345 -1.183083494E-03
   346  1.224904755E-03
   347 -2.615577581E-03
   348  6.808423903E-03
   349  7.149738659E-03
   350  1.009235284E-03
   351 -4.700572052E-04
   352 -2.639423357E-04
   353  6.439442517E-04
   354  1.035262335E-02
   355 -2.782711782E-03
   356 -2.928237295E-03
   357 -4.053874703E-04
   358  8.269705785E-04
   359  1.506663408E-04
   360  5.268754480E-05
   361 -4.175146572E-03
   362 -4.058081235E-03
   363 -4.266375416E-03
   364 -5.989969873E-04
   365 -1.916533839E-04
   366  6.894195767E-05
   367 -8.178251159E-04
   368 -6.178103193E-03
Ene=   -5.8237476430E-01
Spin= Alpha
Occup=   2.0000000
     1  7.690238997E-06
     2  1.198017659E-05
     3  5.270907516E-02
     4 -3.372464723E-04
     5  1.249752420E-02
     6 -3.034431963E-05
     7  7.974882102E-02
     8 -5.102575276E-04
     9  1.890939653E-02
    10 -6.739361508E-05
    11  4.744965827E-02
    12 -2.915435940E-04
    13  1.125083366E-02
    14 -3.046748084E-03
    15  3.585434081E-03
    16 -1.836842650E-03
    17  2.139529075E-03
    18 -1.690514200E-03
    19 -2.252808936E-03
    20 -7.895310963E-02
    21  1.279418079E-03
    22 -1.829931744E-02
    23  1.730877455E-02
    24  2.700018241E-02
    25  1.422832643E-02
    26 -2.106307920E-02
    27  2.817104831E-02
    28 -7.336072513E-02
    29  2.010077857E-02
    30 -3.150644181E-02
    31  4.177865900E-02
    32 -3.894580630E-02
    33  1.346437143E-02
    34 -1.799297947E-02
    35  2.058076258E-02
    36 -2.552495887E-03
    37 -4.405649708E-04
    38 -3.572942575E-03
    39 -2.861960750E-03
    40  1.403649564E-04
    41  6.151137800E-03
    42  3.465189706E-02
    43 -7.854854558E-03
    44  2.903379387E-02
    45 -3.142741520E-02
    46 -4.902399994E-02
    47 -1.509063702E-03
    48  4.623060200E-02
    49 -1.663786115E-02
    50  1.332012329E-01
    51 -3.347277725E-03
    52  6.913311999E-02
    53 -2.512769723E-02
    54  7.070501638E-02
    55  4.111541845E-03
    56  3.783990100E-02
    57 -1.195541045E-02
    58  3.759388364E-03
    59 -2.269065578E-04
    60  4.575302970E-03
    61  6.786563801E-03
    62 -5.852620738E-05
    63 -1.194988219E-02
    64  1.662093923E-02
    65  2.173702473E-02
    66 -4.955419524E-03
    67 -3.220289165E-02
    68 -5.034363332E-02
    69  1.741204137E-02
    70 -3.359926277E-03
    71  4.556698262E-02
    72  1.386486661E-01
    73  2.914280670E-02
    74 -4.904352494E-03
    75  6.706263346E-02
    76  8.825319749E-02
    77  7.941982779E-03
    78 -2.292986305E-03
    79  3.808428608E-02
    80 -1.360418707E-03
    81 -1.148956118E-03
    82 -2.944699530E-03
    83  4.160827871E-03
    84 -2.215698945E-03
    85 -2.770253870E-01
    86 -8.691838880E-02
    87  8.211336056E-03
    88  4.450377857E-02
    89 -1.539485113E-02
    90 -2.401182770E-02
    91 -5.763529627E-02
    92  1.180892005E-02
    93  2.572149201E-02
    94  6.518450257E-02
    95 -8.885943691E-02
    96  1.779397932E-02
    97  3.844570270E-02
    98  3.791700709E-02
    99 -4.293810494E-02
   100  1.061349806E-02
   101  2.172973896E-02
   102 -3.425698513E-03
   103  9.596286113E-03
   104 -2.131734225E-04
   105 -1.676253082E-03
   106 -3.050607880E-03
   107 -1.043024779E-01
   108 -2.381083561E-02
   109  1.308463522E-03
   110  4.517383842E-02
   111  5.845319598E-02
   112  9.138140291E-02
   113 -2.593307305E-02
   114  2.393882140E-02
   115 -1.846150394E-02
   116 -2.516713970E-01
   117 -3.377746859E-02
   118  3.472439621E-02
   119 -2.587980410E-02
   120 -1.601307743E-01
   121 -3.025123636E-02
   122  2.001456280E-02
   123 -1.768697074E-02
   124  5.586049877E-04
   125 -1.936973600E-03
   126  1.898273463E-04
   127 -3.790409930E-03
   128  2.100812711E-03
   129  5.070240901E-01
   130 -1.628965082E-01
   131  1.667663740E-02
   132 -5.240640252E-02
   133  3.427922016E-02
   134  5.346614574E-02
   135  2.708308079E-02
   136  9.374621744E-04
   137  1.233980199E-02
   138 -1.451399660E-01
   139  3.912752934E-02
   140  1.555147948E-03
   141  1.818069015E-02
   142 -8.446212752E-02
   143  2.611623384E-02
   144 -1.501769281E-03
   145  1.168532143E-02
   146  4.261129678E-03
   147 -2.002196965E-03
   148  4.082362439E-03
   149  1.664670600E-03
   150  1.126840191E-03
   151  2.309007782E-01
   152  8.034478445E-02
   153  2.861173222E-02
   154  1.758052214E-02
   155 -2.625619631E-02
   156 -4.104704258E-02
   157  4.126244068E-02
   158 -2.077983435E-02
   159 -1.934502916E-02
   160  1.130481199E-01
   161  6.376168933E-02
   162 -3.018641424E-02
   163 -2.716405302E-02
   164  7.191806120E-02
   165  2.888804565E-02
   166 -1.774829547E-02
   167 -1.888451714E-02
   168 -8.007634754E-04
   169  5.378415767E-03
   170  1.479410906E-03
   171  7.576468464E-04
   172 -1.839910426E-03
   173 -2.290676343E-01
   174 -4.719652668E-02
   175 -2.406455376E-02
   176 -6.319263937E-02
   177 -1.888080566E-02
   178 -2.944879751E-02
   179 -2.893137063E-02
   180 -1.235858100E-02
   181 -5.216530155E-02
   182  7.993862464E-02
   183 -4.549681812E-02
   184 -1.872728594E-02
   185 -7.920504070E-02
   186  4.654351954E-02
   187 -1.946438760E-02
   188 -8.904848229E-03
   189 -4.203877901E-02
   190 -5.109675331E-03
   191 -1.284863845E-03
   192 -7.428909984E-03
   193  3.019128041E-03
   194 -3.822956056E-03
   195 -1.300134870E-01
   196  1.039534675E-02
   197 -3.100861465E-02
   198 -4.733463282E-02
   199  1.411679287E-02
   200  2.202124711E-02
   201  2.538196683E-02
   202 -2.542453535E-02
   203 -2.496568245E-03
   204 -5.983929421E-02
   205  3.673623987E-02
   206 -3.799530515E-02
   207 -3.962999103E-03
   208 -3.169921455E-02
   209  2.075034165E-02
   210 -2.004871262E-02
   211  4.725098569E-04
   212 -2.207897477E-03
   213  1.607444763E-03
   214 -1.423682430E-03
   215 -3.224388899E-03
   216 -1.114470043E-05
   217  1.034886571E-02
   218  4.588247503E-02
   219 -1.525770546E-02
   220  1.363986977E-04
   221 -2.138369979E-06
   222 -3.256218954E-06
   223  1.887988865E-02
   224 -1.175879253E-04
   225  4.475900297E-03
   226  7.757025219E-06
   227  2.691599261E-02
   228 -1.686179131E-04
   229  6.379938610E-03
   230  1.932117307E-05
   231  9.875579647E-03
   232 -5.618220900E-05
   233  2.351548021E-03
   234  5.933492974E-04
   235  4.920491554E-04
   236 -5.541425627E-04
   237 -4.108751362E-04
   238 -2.810058322E-03
   239  2.275040133E-04
   240  1.556554595E-02
   241 -2.283244056E-04
   242  3.663104612E-03
   243 -3.593253055E-02
   244 -4.439416801E-02
   245  5.604020598E-03
   246 -4.476656942E-03
   247  1.110441535E-03
   248 -3.679899666E-04
   249  1.172720939E-02
   250 -5.715957870E-03
   251 -8.910128260E-03
   252 -4.193546366E-03
   253  9.688702074E-04
   254 -5.760905090E-04
   255  2.100160391E-03
   256 -6.365767331E-03
   257  3.675374932E-02
   258  4.715708165E-02
   259 -9.424153664E-04
   260 -1.870940207E-03
   261 -1.123608047E-03
   262 -5.371765012E-03
   263 -4.442392942E-03
   264  3.887043673E-02
   265  4.964527685E-02
   266 -1.608630817E-03
   267 -4.700470999E-03
   268  1.433563103E-03
   269  3.387110655E-03
   270 -5.730950694E-03
   271  4.197530119E-02
   272  5.140519285E-02
   273  6.243046355E-03
   274  5.942564101E-03
   275  4.757280643E-04
   276 -2.794250481E-03
   277 -2.918633348E-02
   278  2.254489511E-02
   279  2.772646452E-02
   280  2.737758918E-04
   281 -3.851692132E-03
   282 -1.291960101E-03
   283 -1.738784279E-03
   284 -8.326551884E-03
   285  1.365176103E-02
   286  1.859209016E-02
   287  4.020676650E-03
   288 -2.772552231E-03
   289  2.757700258E-03
   290  5.579735615E-04
   291 -5.872178332E-03
   292 -7.619540345E-02
   293 -9.330235500E-02
   294 -1.139928330E-02
   295  1.023873259E-02
   296 -2.787186801E-03
   297  3.761876832E-03
   298  5.323614955E-02
   299 -5.020245013E-02
   300 -6.173922573E-02
   301 -6.145904628E-04
   302 -6.034837229E-03
   303  2.211892331E-03
   304 -2.263957186E-03
   305  1.879157856E-02
   306 -3.039558811E-02
   307 -4.140118155E-02
   308 -9.044564694E-03
   309  7.426921728E-04
   310 -4.839682552E-03
   311  1.930345424E-03
   312  1.315295322E-02
   313  3.422718435E-02
   314  4.190759420E-02
   315  5.157547529E-03
   316  3.554148293E-03
   317  2.183534842E-03
   318  3.710044858E-03
   319 -2.392522157E-02
   320  2.765602945E-02
   321  3.399436209E-02
   322  4.698159317E-04
   323 -4.687038665E-03
   324 -8.256636193E-04
   325  5.474131222E-04
   326 -1.031091691E-02
   327  1.674003644E-02
   328  2.279468799E-02
   329  5.049881342E-03
   330 -1.368382115E-03
   331  2.102389250E-03
   332 -3.293879671E-03
   333 -7.485266165E-03
   334 -8.143000811E-04
   335 -2.737458417E-03
   336 -4.782313909E-03
   337  1.393001150E-03
   338 -1.286851031E-03
   339 -1.167166559E-04
   340 -7.369482760E-03
   341 -3.314777209E-02
   342 -4.071835932E-02
   343  5.699486544E-03
   344 -3.309652728E-03
   345  5.165956037E-04
   346 -2.475447430E-03
   347  1.207757910E-02
   348  6.967100520E-03
   349  8.996184858E-03
   350  1.442548274E-03
   351  2.657235220E-04
   352 -2.965290964E-04
   353  1.402754960E-03
   354 -5.564050906E-03
   355  5.679098411E-03
   356  7.330887149E-03
   357  1.158821466E-03
   358  1.006521260E-03
   359 -7.987408255E-04
   360 -6.140875423E-04
   361 -4.528299467E-03
   362 -1.263619371E-02
   363 -1.630463469E-02
   364 -2.682136786E-03
   365 -1.032189169E-03
   366  1.093445644E-03
   367 -7.316937604E-04
   368  1.013689935E-02
Ene=   -5.8237421681E-01
Spin= Alpha
Occup=   2.0000000
     1  5.236446678E-06
     2  8.265949552E-06
     3  1.189692039E-02
     4 -1.523951358E-02
     5 -5.060424445E-02
     6 -2.273632262E-05
     7  1.799995705E-02
     8 -2.305572373E-02
     9 -7.656782735E-02
    10 -3.719244705E-05
    11  1.070979431E-02
    12 -1.375740686E-02
    13 -4.555005406E-02
    14  1.514036926E-03
    15  4.318922294E-03
    16  2.502157114E-03
    17 -2.218430815E-03
    18  9.071713274E-04
    19 -1.959417515E-03
    20 -1.780119931E-02
    21  2.032724524E-02
    22  7.419093428E-02
    23  2.629260933E-02
    24  4.101445876E-02
    25 -1.844737482E-02
    26 -4.064938554E-02
    27  1.887319451E-03
    28 -1.114433441E-01
    29 -2.777244296E-02
    30 -6.045893339E-02
    31  3.926130552E-03
    32 -5.912671129E-02
    33 -1.145595054E-02
    34 -3.423307332E-02
    35 -1.272569229E-03
    36 -2.107107977E-03
    37 -1.144347717E-03
    38 -3.211506216E-03
    39 -6.216852921E-03
    40  1.860588798E-03
    41  1.803922904E-02
    42 -1.148569151E-02
    43 -2.719610007E-02
    44 -2.328199224E-02
    45  1.846604839E-03
    46  2.880908824E-03
    47  8.905180226E-03
    48 -1.169200215E-02
    49 -2.833130256E-02
    50 -7.834906368E-03
    51  1.302794979E-02
    52 -1.712753851E-02
    53 -4.118280223E-02
    54 -4.095190072E-03
    55  6.778295208E-03
    56 -9.375400844E-03
    57 -2.262454837E-02
    58  4.006840668E-05
    59  1.560292465E-03
    60  8.505693402E-04
    61 -1.208170075E-03
    62  1.690538878E-04
    63  4.585049348E-03
    64  1.288852622E-02
    65 -1.627231315E-02
    66 -4.712489336E-02
    67 -4.891289501E-02
    68 -7.646675133E-02
    69 -3.942704930E-02
    70 -1.934477567E-02
    71  1.960733232E-03
    72  2.105932087E-01
    73 -5.636372449E-02
    74 -2.919485771E-02
    75 -8.647651122E-04
    76  1.340351112E-01
    77 -3.619486501E-02
    78 -1.397607540E-02
    79  8.581223711E-03
    80  2.873298579E-03
    81 -3.198254635E-03
    82  2.303971467E-03
    83  8.578826073E-04
    84  1.781927485E-03
    85 -4.286157494E-01
    86 -9.130106091E-02
    87  2.065033694E-02
    88  1.110265577E-01
    89  3.068998823E-02
    90  4.786838122E-02
    91 -3.688936948E-02
    92 -2.884978936E-03
    93 -1.794101048E-02
    94 -1.299540141E-01
    95 -5.611916922E-02
    96 -3.723843519E-03
    97 -2.541328239E-02
    98 -7.552444038E-02
    99 -2.938342206E-02
   100 -5.573889385E-03
   101 -1.806974957E-02
   102 -1.919646410E-03
   103  3.027609211E-03
   104 -6.959975317E-04
   105  5.900496069E-03
   106 -3.587228007E-03
   107  2.083718084E-01
   108 -3.169774419E-02
   109  7.997929511E-03
   110 -7.260880235E-02
   111 -3.433866034E-03
   112 -5.368213238E-03
   113  1.601343211E-02
   114 -1.615853278E-02
   115 -4.711620258E-02
   116  1.478639912E-02
   117  2.412038704E-02
   118 -2.457374118E-02
   119 -7.210846039E-02
   120  9.378531305E-03
   121  1.240585969E-02
   122 -1.197108701E-02
   123 -3.423006151E-02
   124  5.861885380E-04
   125  4.638512842E-03
   126  3.477024695E-03
   127 -2.201377143E-03
   128  2.771666770E-04
   129 -3.671072990E-02
   130  1.397234549E-03
   131  7.797740618E-03
   132  3.392547207E-02
   133 -2.010482014E-03
   134 -3.135491536E-03
   135 -2.104024664E-02
   136  1.974946444E-02
   137  6.398458246E-02
   138  8.504661902E-03
   139 -3.218482467E-02
   140  3.034319002E-02
   141  9.837377682E-02
   142  5.032099087E-03
   143 -1.627562535E-02
   144  1.508936126E-02
   145  4.836355004E-02
   146  1.031717208E-03
   147  8.601395792E-03
   148  6.121137638E-03
   149 -4.592872637E-03
   150  7.546485464E-04
   151 -1.169046216E-02
   152 -1.482183900E-02
   153  9.074964641E-03
   154  3.283614684E-02
   155  5.233850468E-02
   156  8.182226473E-02
   157  3.080252053E-02
   158  2.604094090E-02
   159  1.372536569E-02
   160 -2.253469158E-01
   161  4.558559905E-02
   162  3.667882488E-02
   163  1.621167729E-02
   164 -1.433575038E-01
   165  2.529380417E-02
   166  2.410316814E-02
   167  1.940556854E-02
   168 -3.077891662E-03
   169  1.132396340E-03
   170 -3.489611206E-03
   171 -2.118179209E-04
   172 -1.752457902E-03
   173  4.522020672E-01
   174  2.337014024E-02
   175  5.675820283E-02
   176  1.415468947E-01
   177 -2.867359533E-02
   178 -4.472231301E-02
   179  4.450275860E-02
   180  3.406485345E-04
   181  1.106189212E-02
   182  1.213887720E-01
   183  6.680774433E-02
   184  9.279222196E-04
   185  1.845856394E-02
   186  7.082001923E-02
   187  3.747324327E-02
   188  9.769858345E-04
   189  4.609567441E-03
   190  1.699417708E-03
   191 -4.616832721E-03
   192  1.176458623E-03
   193 -5.660109485E-03
   194  3.568267413E-03
   195 -1.883302313E-01
   196  6.125964963E-02
   197 -3.524160368E-02
   198 -2.379449891E-02
   199 -2.814052425E-02
   200 -4.389691138E-02
   201  1.814472895E-02
   202  4.130690536E-02
   203 -1.013543593E-02
   204  1.192732926E-01
   205  2.682115618E-02
   206  6.209165586E-02
   207 -1.409511641E-02
   208  6.328875188E-02
   209  1.332216196E-02
   210  3.253320040E-02
   211 -1.293978175E-02
   212  2.805438904E-03
   213  8.239763350E-04
   214  2.607484937E-03
   215  6.924800327E-03
   216 -1.632722322E-03
   217 -1.789285170E-02
   218  2.046110226E-02
   219  1.411367569E-02
   220 -2.477776253E-02
   221 -5.135141399E-06
   222 -7.951360099E-06
   223  4.261212281E-03
   224 -5.453903222E-03
   225 -1.812811162E-02
   226  1.854731050E-05
   227  6.074558018E-03
   228 -7.773822003E-03
   229 -2.584092396E-02
   230  5.917251477E-05
   231  2.228704680E-03
   232 -2.884145678E-03
   233 -9.506792108E-03
   234 -1.516906867E-03
   235  4.442413922E-05
   236  2.384899193E-03
   237 -7.194135503E-04
   238 -6.774184875E-04
   239  2.744208720E-03
   240  3.442461264E-03
   241 -5.154617701E-03
   242 -1.462462324E-02
   243 -2.168850068E-02
   244 -2.879562314E-02
   245 -2.399754663E-03
   246 -3.986972454E-03
   247 -8.219451180E-04
   248 -1.052275187E-03
   249 -1.712509165E-03
   250 -4.158204282E-02
   251 -5.215771513E-02
   252  4.089994798E-03
   253  3.512382816E-04
   254  1.999991905E-03
   255  5.411580966E-03
   256  1.018549769E-02
   257 -2.027752942E-02
   258 -2.404128527E-02
   259  5.841535560E-03
   260  1.558639212E-03
   261  1.368524401E-03
   262  1.085801372E-03
   263  1.088073982E-02
   264  1.583720851E-02
   265  1.836876052E-02
   266 -5.866484033E-03
   267 -1.543830291E-03
   268 -1.007683990E-03
   269  2.699522524E-04
   270 -1.055025204E-02
   271  6.375560298E-02
   272  7.805660554E-02
   273  9.690996292E-03
   274  5.696663765E-03
   275  3.129402682E-06
   276 -7.640833294E-03
   277 -4.428050379E-02
   278 -4.495267160E-02
   279 -5.528043362E-02
   280 -5.020783256E-04
   281 -2.504565191E-05
   282  3.625461960E-03
   283  5.159371142E-03
   284  1.668662061E-02
   285 -2.721554928E-02
   286 -3.707310875E-02
   287 -8.073048844E-03
   288 -2.122892609E-03
   289 -4.458369916E-03
   290  5.676679002E-04
   291  1.133041333E-02
   292  4.478326532E-03
   293  5.465440353E-03
   294  8.311736126E-04
   295  1.314894702E-04
   296 -5.826772489E-04
   297 -2.656735152E-03
   298 -3.121952384E-03
   299  2.939840060E-03
   300  3.623907249E-03
   301 -4.592735992E-05
   302 -6.342047637E-04
   303  8.758341041E-04
   304  3.415917726E-03
   305 -1.277822892E-03
   306  1.782123898E-03
   307  2.422129042E-03
   308  5.197754725E-04
   309 -1.023355145E-03
   310  1.281103877E-03
   311  3.148545403E-03
   312 -7.353073493E-04
   313 -6.822221051E-02
   314 -8.354985118E-02
   315 -1.014587548E-02
   316 -1.372366473E-03
   317 -5.130255246E-03
   318 -8.649721780E-03
   319  4.777006962E-02
   320  4.199562019E-02
   321  5.165449139E-02
   322  3.760198971E-04
   323 -2.629811392E-03
   324 -2.843088135E-04
   325  5.413184041E-03
   326 -1.560322038E-02
   327  2.541949090E-02
   328  3.462693885E-02
   329  7.428553111E-03
   330  2.379571808E-03
   331  4.154852449E-03
   332 -4.522961761E-04
   333 -1.091605229E-02
   334  4.196654814E-02
   335  5.285079682E-02
   336 -3.616150689E-03
   337 -3.544810882E-03
   338  1.218351279E-03
   339  4.630329608E-03
   340 -9.753607362E-03
   341  2.575035642E-02
   342  3.380205894E-02
   343  1.663029365E-03
   344  4.458469336E-03
   345  7.105905224E-04
   346  1.172707906E-03
   347  7.978795795E-06
   348  1.057980726E-02
   349  1.365095613E-02
   350  2.205853400E-03
   351 -1.298834915E-03
   352 -8.177031170E-04
   353  3.910655692E-04
   354 -8.367781048E-03
   355 -1.131358671E-02
   356 -1.460579476E-02
   357 -2.290490788E-03
   358  9.164980869E-04
   359  1.193945751E-03
   360  5.810869414E-04
   361  9.217583792E-03
   362  7.511338765E-04
   363  9.644141303E-04
   364  1.775721044E-04
   365  4.360778694E-04
   366 -4.457676857E-04
   367 -1.202598879E-03
   368 -5.175060758E-04
Ene=   -5.5880250238E-01
Spin= Alpha
Occup=   2.0000000
     1  6.176823059E-02
     2  9.668445718E-02
     3  9.947689895E-04
     4  1.357293802E-02
     5 -3.847884802E-03
     6 -2.677658136E-01
     7  1.507948873E-03
     8  2.055410288E-02
     9 -5.828310122E-03
    10 -1.989368590E-01
    11  8.479918808E-04
    12  1.169725621E-02
    13 -3.318738791E-03
    14 -8.096821497E-04
    15 -7.052927187E-05
    16 -9.433600089E-04
    17 -1.653321061E-03
    18  2.451762923E-04
    19  6.215674092E-01
    20  1.023310761E-03
    21  1.283711301E-02
    22 -3.418217010E-03
    23 -1.584704777E-02
    24 -2.471456640E-02
    25 -4.617231254E-02
    26 -1.434702968E-02
    27  4.826889718E-02
    28  6.602733934E-02
    29 -6.892922881E-02
    30 -2.367591202E-02
    31  7.253605932E-02
    32  5.816209231E-02
    33 -3.213671665E-02
    34 -1.151863647E-02
    35  3.392056395E-02
    36 -3.113454078E-03
    37  9.091688097E-03
    38 -1.719868039E-03
    39 -6.361586349E-03
    40  1.061761459E-03
    41 -8.523172320E-02
    42 -4.032043488E-02
    43 -2.497621100E-02
    44  4.479378295E-02
    45 -1.584242991E-02
    46 -2.470738880E-02
    47  5.661389589E-02
    48 -2.834458037E-02
    49  2.570036018E-02
    50  6.600699903E-02
    51  8.413474881E-02
    52 -4.452070619E-02
    53  3.892857011E-02
    54  5.817099217E-02
    55  3.914195928E-02
    56 -2.123397013E-02
    57  1.826741865E-02
    58  2.782622367E-03
    59 -5.708238547E-03
    60  5.272829458E-05
    61 -9.352280902E-03
    62  3.026420242E-03
    63 -8.410576198E-02
    64  4.719394200E-02
    65 -3.721948851E-02
    66  2.544026645E-02
    67 -2.208825934E-02
    68 -3.457683795E-02
    69 -2.745249669E-02
    70  3.863535073E-02
    71  1.871154215E-02
    72  9.545906109E-02
    73 -3.885297908E-02
    74  5.916015550E-02
    75  2.553236817E-02
    76  6.307211672E-02
    77 -2.508272031E-02
    78  2.738502465E-02
    79  1.878435343E-02
    80 -1.078103181E-03
    81 -2.920554063E-03
    82 -1.715789365E-03
    83 -2.150689901E-03
    84  1.867569302E-04
    85 -1.367128820E-01
    86 -1.588114026E-02
    87 -5.499291983E-02
    88  2.730085565E-02
    89  1.865630862E-02
    90  2.914850377E-02
    91  3.326453114E-03
    92  2.539047629E-02
    93 -6.301463767E-04
    94 -8.005800256E-02
    95  4.807410148E-03
    96  3.690661133E-02
    97 -1.040935441E-03
    98 -4.103221134E-02
    99  2.741618348E-03
   100  2.786515476E-02
   101 -4.852812832E-03
   102 -2.458641030E-03
   103 -2.107838472E-03
   104 -8.852893216E-04
   105  4.130099606E-03
   106 -1.407111284E-03
   107  5.569176229E-02
   108  3.750729059E-03
   109  4.929991720E-02
   110 -1.402019327E-02
   111 -2.210121614E-02
   112 -3.459711633E-02
   113  4.159145611E-02
   114  2.923183444E-02
   115  3.560645875E-03
   116  9.551375458E-02
   117  5.961574458E-02
   118  4.575059330E-02
   119  3.925924306E-03
   120  6.311823091E-02
   121  3.668270163E-02
   122  1.895844273E-02
   123  5.223135374E-03
   124 -2.859871242E-03
   125  1.542685965E-03
   126 -2.298280098E-03
   127 -1.187611417E-03
   128 -2.008640466E-04
   129 -1.381337216E-01
   130  1.125377170E-02
   131 -5.877218101E-02
   132  2.136286145E-02
   133  1.865368093E-02
   134  2.914440988E-02
   135 -4.502593900E-03
   136  2.370158208E-02
   137 -8.614147044E-03
   138 -8.004585029E-02
   139 -6.421262534E-03
   140  3.448302245E-02
   141 -1.249403310E-02
   142 -4.103238512E-02
   143 -9.266728724E-04
   144  2.708747044E-02
   145 -8.565177920E-03
   146  3.992224780E-03
   147 -2.810694120E-03
   148  2.448022560E-03
   149 -6.717611162E-04
   150  1.649375487E-04
   151  5.595784591E-02
   152  3.630377813E-03
   153  4.941594562E-02
   154 -1.412202009E-02
   155 -2.209880820E-02
   156 -3.459333789E-02
   157 -7.762027109E-03
   158  1.856930881E-02
   159 -4.682025167E-02
   160  9.550214389E-02
   161 -1.077113407E-02
   162  3.054465784E-02
   163 -6.792435951E-02
   164  6.313390290E-02
   165 -7.468268254E-03
   166  9.418156377E-03
   167 -3.984589283E-02
   168  4.176326190E-04
   169  1.073340890E-03
   170 -8.911752071E-05
   171 -3.845126632E-03
   172  1.079956589E-03
   173 -1.364915520E-01
   174 -7.908095922E-03
   175 -6.290530577E-02
   176  1.393473640E-03
   177  1.866314069E-02
   178  2.915906912E-02
   179  6.442597930E-03
   180  2.221520878E-02
   181 -1.100877657E-02
   182 -8.008387516E-02
   183  9.276592195E-03
   184  3.235262615E-02
   185 -1.592872606E-02
   186 -4.106840040E-02
   187  4.196574538E-03
   188  2.639059524E-02
   189 -9.682149260E-03
   190  8.161644164E-04
   191  5.119962359E-03
   192  1.174603792E-03
   193  1.334757955E-03
   194  5.328641333E-04
   195  5.492522676E-02
   196  3.836764532E-03
   197  4.917102816E-02
   198 -1.387135256E-02
   199 -1.584447587E-02
   200 -2.471068178E-02
   201 -1.684847246E-02
   202 -4.421763513E-02
   203 -4.929612827E-02
   204  6.601770537E-02
   205 -2.526009169E-02
   206 -6.815840907E-02
   207 -7.275213304E-02
   208  5.815892077E-02
   209 -1.180159519E-02
   210 -3.223629200E-02
   211 -3.374296740E-02
   212 -7.664477685E-03
   213 -4.072208959E-03
   214 -7.647454082E-03
   215 -6.007762970E-04
   216 -1.668897748E-03
   217 -8.458508813E-02
   218 -1.534125958E-02
   219 -5.026442042E-02
   220 -3.818564257E-02
   221 -2.852055472E-02
   222 -4.443219100E-02
   223  4.219363650E-03
   224  5.721430939E-02
   225 -1.623727117E-02
   226  1.176231988E-01
   227  6.111227344E-03
   228  8.288011147E-02
   229 -2.352187843E-02
   230  9.212353049E-02
   231  3.114744361E-03
   232  4.220914464E-02
   233 -1.197697537E-02
   234  4.229462474E-03
   235  3.636520084E-04
   236  4.924944367E-03
   237  8.629609907E-03
   238 -1.280841105E-03
   239 -7.700432507E-02
   240  1.067592302E-03
   241  1.434276271E-02
   242 -4.020144474E-03
   243  2.868136498E-02
   244  3.642339119E-02
   245  3.766077294E-03
   246  1.804860096E-03
   247 -2.195089866E-03
   248  3.782097805E-03
   249 -3.281131744E-04
   250  2.868480587E-02
   251  3.643072342E-02
   252  3.745335020E-03
   253 -3.165890435E-03
   254 -3.269523801E-03
   255 -1.292829193E-03
   256 -3.807547545E-04
   257  2.868167312E-02
   258  3.642792593E-02
   259  3.730815625E-03
   260  1.402881414E-03
   261 -3.891999637E-03
   262 -2.295664072E-03
   263 -2.476360660E-04
   264  2.867869506E-02
   265  3.642853838E-02
   266  3.698730433E-03
   267 -5.814777330E-04
   268 -1.870086899E-03
   269  4.306908845E-03
   270 -4.175788577E-04
   271  3.968438539E-02
   272  4.910960426E-02
   273  4.899244186E-03
   274  3.486063748E-03
   275  2.779925689E-03
   276 -4.003883540E-03
   277 -1.368990362E-02
   278 -7.003528836E-03
   279 -1.163648542E-02
   280 -6.122526550E-03
   281  4.329687534E-04
   282  1.845618562E-03
   283  8.241144121E-04
   284 -9.753993528E-03
   285 -3.509977646E-02
   286 -4.299616820E-02
   287  3.376003091E-03
   288 -1.053240187E-04
   289 -3.816587096E-03
   290  1.883257163E-03
   291  1.739872085E-02
   292  3.970727004E-02
   293  4.912687304E-02
   294  4.950127248E-03
   295 -3.990885299E-03
   296  3.798492564E-03
   297 -2.361911061E-03
   298 -1.372703047E-02
   299 -6.999160373E-03
   300 -1.162943150E-02
   301 -6.163969108E-03
   302 -1.168432124E-03
   303  1.498866315E-03
   304 -8.107290509E-04
   305 -9.807914591E-03
   306 -3.509901739E-02
   307 -4.299356505E-02
   308  3.378251508E-03
   309 -1.054789371E-03
   310 -4.021482973E-03
   311  9.130862559E-04
   312  1.750656078E-02
   313  3.970521354E-02
   314  4.913227083E-02
   315  4.875340580E-03
   316  1.353002479E-03
   317  4.953525784E-03
   318  3.093436862E-03
   319 -1.375634981E-02
   320 -7.008750889E-03
   321 -1.164748803E-02
   322 -6.088038210E-03
   323  1.072268087E-03
   324  1.194921142E-03
   325 -1.303186673E-03
   326 -9.722420386E-03
   327 -3.510836359E-02
   328 -4.300442392E-02
   329  3.405712049E-03
   330  2.728595748E-04
   331 -4.202759837E-03
   332  6.224199797E-04
   333  1.735813439E-02
   334  2.868273213E-02
   335  3.642733519E-02
   336  3.741487930E-03
   337 -3.847796640E-03
   338 -2.575794046E-03
   339  9.730249588E-04
   340 -2.940361294E-04
   341  2.868445051E-02
   342  3.643288661E-02
   343  3.728991173E-03
   344  3.109351187E-03
   345 -3.523344523E-03
   346 -5.535026711E-04
   347 -3.456528621E-04
   348  4.154758861E-02
   349  5.295285131E-02
   350 -2.814533777E-03
   351 -4.431689783E-03
   352  1.894223842E-03
   353  3.938527356E-03
   354  1.796631753E-03
   355  4.154895040E-02
   356  5.295692140E-02
   357 -2.836041948E-03
   358 -1.458518319E-03
   359 -1.130112815E-03
   360 -5.944168506E-03
   361  1.706304742E-03
   362  4.155315735E-02
   363  5.295597898E-02
   364 -2.790637787E-03
   365  5.981615552E-03
   366  4.762294071E-04
   367  1.653693406E-03
   368  1.764957961E-03
Ene=   -5.1652621629E-01
Spin= Alpha
Occup=   2.0000000
     1 -2.404370031E-03
     2 -3.579582321E-03
     3 -2.518422658E-03
     4 -3.415312348E-02
     5  9.694687675E-03
     6  6.375082532E-03
     7 -3.462441494E-03
     8 -4.697033617E-02
     9  1.333683907E-02
    10  5.143925117E-02
    11 -4.264960432E-03
    12 -5.781483087E-02
    13  1.639747076E-02
    14 -3.379688782E-03
    15 -2.892609401E-04
    16 -3.937605791E-03
    17 -6.896642590E-03
    18  1.022741875E-03
    19  2.833109949E-01
    20  1.803744559E-02
    21  2.346839324E-01
    22 -6.579283125E-02
    23  1.374844960E-02
    24  2.144929107E-02
    25  2.695385475E-02
    26 -5.254317793E-02
    27 -1.528036846E-02
    28 -5.489529689E-02
    29  3.775946881E-02
    30 -7.536212788E-02
    31 -2.103779103E-02
    32 -9.376204048E-02
    33  9.343004507E-03
    34 -2.303353161E-02
    35 -4.255043222E-03
    36 -3.064280817E-03
    37 -4.363013684E-03
    38 -8.837929788E-04
    39 -4.827062471E-03
    40 -2.251715003E-03
    41  5.517652910E-03
    42 -2.726366376E-02
    43 -6.469274517E-02
    44  4.039741694E-02
    45  1.374577907E-02
    46  2.144514680E-02
    47 -4.328113227E-02
    48 -4.298153196E-02
    49  1.506644483E-04
    50 -5.488526432E-02
    51 -6.092865121E-02
    52 -6.192676649E-02
    53  6.436773078E-04
    54 -9.373154547E-02
    55 -1.580400381E-02
    56 -1.962231049E-02
    57  1.279461326E-03
    58 -5.627813960E-03
    59  1.881772954E-03
    60 -3.052484848E-03
    61 -1.797423567E-03
    62  3.134077692E-03
    63  4.708373669E-03
    64  2.425522057E-02
    65 -7.197175146E-02
    66  2.949680897E-02
    67 -1.901056560E-02
    68 -2.962136400E-02
    69  3.369810423E-02
    70  1.001554793E-02
    71 -3.512623021E-02
    72  7.895258480E-02
    73  4.791868148E-02
    74  1.472421881E-02
    75 -5.005106482E-02
    76  1.023943563E-01
    77  4.938632023E-02
    78  1.093375461E-02
    79 -5.068972596E-02
    80  1.350791759E-03
    81 -5.516898905E-03
    82 -4.228570584E-04
    83  2.421297266E-03
    84  2.722823920E-04
    85  9.860025480E-02
    86  5.680689767E-02
    87 -5.061085171E-02
    88 -4.476929781E-02
    89  1.755730843E-02
    90  2.738482844E-02
    91 -1.068841776E-02
    92  2.937932542E-02
    93 -6.686688786E-02
    94 -7.058325447E-02
    95 -1.525965197E-02
    96  4.185319638E-02
    97 -9.540568072E-02
    98 -1.116456614E-01
    99 -3.960037380E-03
   100  1.846114538E-02
   101 -2.953071211E-02
   102  4.176789714E-03
   103 -3.791188924E-04
   104 -4.867251327E-03
   105  5.497137286E-03
   106 -2.624872527E-03
   107 -1.500516778E-01
   108  9.236588711E-03
   109  1.233502592E-02
   110  3.430269859E-02
   111 -1.901327442E-02
   112 -2.962563078E-02
   113 -4.138929050E-02
   114  2.024146511E-02
   115 -1.863228017E-02
   116  7.896489570E-02
   117 -5.877407310E-02
   118  2.925405473E-02
   119 -2.661420491E-02
   120  1.023924816E-01
   121 -6.127234725E-02
   122  2.600419294E-02
   123 -2.637640771E-02
   124 -2.203750239E-03
   125  3.447359723E-03
   126 -1.155938253E-03
   127  3.804960251E-03
   128 -2.414757039E-03
   129  9.691157567E-02
   130 -8.085962677E-02
   131 -3.203167754E-02
   132 -1.425031167E-02
   133  1.756081455E-02
   134  2.739081157E-02
   135  5.882019845E-02
   136  4.439620445E-02
   137  4.093435742E-03
   138 -7.061030899E-02
   139  8.393695476E-02
   140  6.329227759E-02
   141  5.865997338E-03
   142 -1.115310645E-01
   143  2.492178560E-02
   144  2.466967160E-02
   145 -1.322219149E-04
   146  1.314328415E-03
   147 -2.357416825E-03
   148  4.247822644E-03
   149  3.143526824E-03
   150  6.573381108E-03
   151 -1.449640012E-01
   152 -3.445635493E-02
   153  2.533848250E-03
   154 -1.158843648E-02
   155 -1.901461619E-02
   156 -2.962795761E-02
   157  1.226536977E-02
   158  3.183169191E-02
   159  3.613453318E-02
   160  7.898025838E-02
   161  1.746495699E-02
   162  4.572490354E-02
   163  5.120404725E-02
   164  1.022749931E-01
   165  1.777047322E-02
   166  4.304882199E-02
   167  5.429319931E-02
   168  3.228945991E-03
   169  2.274738147E-03
   170  4.345853258E-03
   171 -1.378353661E-03
   172  1.424623096E-03
   173  8.681236871E-02
   174  1.689834955E-02
   175 -1.206087746E-02
   176  8.413061795E-02
   177  1.756193820E-02
   178  2.739272381E-02
   179 -3.844507802E-02
   180  5.763555916E-02
   181  2.546014839E-02
   182 -7.061851489E-02
   183 -5.486795455E-02
   184  8.218446941E-02
   185  3.635797199E-02
   186 -1.114995656E-01
   187 -1.556432219E-02
   188  3.020138109E-02
   189  8.764795175E-03
   190 -7.401116026E-04
   191  3.142103742E-03
   192  6.154355700E-03
   193  1.056930441E-03
   194 -5.386997702E-03
   195 -1.441043042E-01
   196  2.609555686E-02
   197 -5.309590139E-03
   198 -2.480631214E-02
   199  1.374619683E-02
   200  2.144630298E-02
   201  6.905131749E-03
   202 -3.213558644E-02
   203  5.138158975E-02
   204 -5.489901271E-02
   205  9.590793866E-03
   206 -4.668755495E-02
   207  7.263434120E-02
   208 -9.362748426E-02
   209  2.151600305E-03
   210 -1.580051103E-02
   211  1.961147261E-02
   212  2.511916053E-03
   213  1.949130700E-03
   214 -3.267172481E-03
   215 -5.987072851E-03
   216  9.904854549E-04
   217  1.280714937E-02
   218 -1.271099229E-02
   219 -8.041015490E-02
   220 -6.945013490E-03
   221 -1.279358591E-02
   222 -2.005286900E-02
   223  2.004846660E-03
   224  2.718716834E-02
   225 -7.718183271E-03
   226  5.538899739E-02
   227  2.854176967E-03
   228  3.872245169E-02
   229 -1.099411909E-02
   230  5.656784399E-02
   231  1.551826839E-03
   232  2.098601887E-02
   233 -5.946521114E-03
   234  1.566267964E-03
   235  1.351641925E-04
   236  1.824012163E-03
   237  3.195821340E-03
   238 -4.747453150E-04
   239 -1.975907971E-01
   240  2.017614036E-03
   241  2.709502239E-02
   242 -7.775253988E-03
   243 -3.995358891E-02
   244 -5.123118216E-02
   245 -1.536909601E-02
   246 -4.097498576E-03
   247 -4.891788487E-04
   248 -2.934988693E-03
   249  5.309544657E-03
   250 -3.995421047E-02
   251 -5.122611223E-02
   252 -1.543294498E-02
   253  2.795550610E-03
   254  9.999844638E-04
   255  4.102020459E-03
   256  5.286736705E-03
   257 -3.995168607E-02
   258 -5.122599626E-02
   259 -1.541078198E-02
   260 -5.009478433E-04
   261  1.449281663E-03
   262  4.826063276E-03
   263  5.195779514E-03
   264 -3.995057349E-02
   265 -5.123096165E-02
   266 -1.532417053E-02
   267  2.250779983E-03
   268 -1.354021369E-03
   269 -4.328740492E-03
   270  5.387569560E-03
   271 -1.649501675E-02
   272 -1.820255222E-02
   273  1.033891302E-02
   274 -1.277192511E-03
   275  2.305108416E-04
   276  1.202647640E-03
   277  1.734361337E-02
   278 -4.744608128E-02
   279 -6.194736017E-02
   280 -2.299849020E-02
   281  1.339106728E-03
   282  5.408621367E-03
   283  2.743411241E-03
   284 -1.669502164E-02
   285 -5.243519237E-02
   286 -6.665617590E-02
   287 -2.139234388E-02
   288 -1.010390401E-03
   289 -6.180720162E-03
   290 -7.698736588E-04
   291  6.732727736E-03
   292 -1.649407870E-02
   293 -1.820629104E-02
   294  1.037905295E-02
   295  1.671618586E-03
   296 -1.705861749E-04
   297  5.552139041E-04
   298  1.721822047E-02
   299 -4.745015530E-02
   300 -6.195054286E-02
   301 -2.300569282E-02
   302 -3.745682879E-03
   303  4.309921309E-03
   304 -2.445277933E-03
   305 -1.632243624E-02
   306 -5.243190228E-02
   307 -6.663305231E-02
   308 -2.157807672E-02
   309  1.989079874E-03
   310 -5.531714263E-03
   311  2.291219413E-03
   312  6.238667063E-03
   313 -1.648715766E-02
   314 -1.821464724E-02
   315  1.056091694E-02
   316 -4.359092386E-04
   317 -6.259946033E-04
   318 -1.596429740E-03
   319  1.691232560E-02
   320 -4.745395598E-02
   321 -6.195504208E-02
   322 -2.304323097E-02
   323  3.370314312E-03
   324  3.341222261E-03
   325 -4.008077882E-03
   326 -1.644159454E-02
   327 -5.243391708E-02
   328 -6.663726372E-02
   329 -2.155147487E-02
   330 -2.207904321E-03
   331 -4.960814950E-03
   332  3.213302953E-03
   333  6.457564202E-03
   334 -3.995022988E-02
   335 -5.121864512E-02
   336 -1.547245583E-02
   337  4.606714519E-03
   338 -8.450626239E-04
   339 -1.923890466E-03
   340  5.372123320E-03
   341 -3.995334156E-02
   342 -5.121716093E-02
   343 -1.550817989E-02
   344 -5.038769611E-03
   345  4.694110076E-04
   346  1.931741784E-04
   347  5.174368612E-03
   348  1.839102486E-02
   349  2.367181735E-02
   350 -8.127231142E-03
   351 -2.255130725E-03
   352  1.444786419E-03
   353  1.902361252E-03
   354  2.482826677E-03
   355  1.838847764E-02
   356  2.366499315E-02
   357 -8.140374973E-03
   358 -7.188681683E-04
   359 -1.169962477E-04
   360 -3.203128798E-03
   361  2.453875372E-03
   362  1.839431103E-02
   363  2.366712349E-02
   364 -8.075445670E-03
   365  3.124316561E-03
   366  7.124172692E-04
   367  7.219324654E-04
   368  2.581032085E-03
Ene=   -4.5169104805E-01
Spin= Alpha
Occup=   2.0000000
     1 -3.812743558E-02
     2 -6.004302289E-02
     3  1.054053108E-03
     4  1.338711077E-02
     5 -3.971119745E-03
     6  1.703328688E-01
     7  1.625276302E-03
     8  2.076986441E-02
     9 -6.139663784E-03
    10  1.411264758E-01
    11 -4.872892779E-04
    12 -7.995694273E-03
    13  2.026268603E-03
    14 -3.072822644E-03
    15 -2.873129511E-04
    16 -3.528110946E-03
    17 -6.211370161E-03
    18  9.045031422E-04
    19 -6.393169616E-02
    20  7.560130470E-03
    21  1.185978599E-01
    22 -3.405744465E-02
    23  1.816292281E-02
    24  2.857324992E-02
    25  2.928484946E-02
    26 -3.336971651E-02
    27 -2.186343583E-02
    28 -7.949495324E-02
    29  4.122223456E-02
    30 -4.601880314E-02
    31 -3.098176950E-02
    32 -5.841620776E-02
    33  3.214651293E-02
    34 -3.854535847E-02
    35 -2.354220121E-02
    36  1.202270481E-03
    37 -9.381071430E-03
    38 -7.577074637E-03
    39 -3.721364110E-04
    40  5.765554380E-03
    41  2.170873150E-02
    42  1.677886823E-04
    43 -1.466216112E-02
    44  3.222262667E-03
    45  1.821038911E-02
    46  2.864825894E-02
    47 -4.331439029E-02
    48 -2.368246698E-02
    49 -6.170682700E-03
    50 -7.970549081E-02
    51 -6.080893176E-02
    52 -3.240856785E-02
    53 -8.930705619E-03
    54 -5.865255266E-02
    55 -4.780607111E-02
    56 -2.789065732E-02
    57 -6.175866216E-03
    58 -4.825894602E-03
    59  6.091464599E-03
    60 -6.614189790E-03
    61 -7.904879516E-04
    62 -8.719944630E-03
    63  2.646829308E-02
    64 -3.517965016E-03
    65 -1.445430064E-02
    66  3.448119572E-03
    67 -1.647892320E-02
    68 -2.590439264E-02
    69 -5.302102231E-02
    70  1.759753887E-02
    71  4.811906641E-02
    72  7.107054294E-02
    73 -7.442446360E-02
    74  2.553989234E-02
    75  6.736228966E-02
    76  8.054336536E-02
    77 -5.261240836E-02
    78  1.327050241E-02
    79  4.864859581E-02
    80  4.981968308E-03
    81 -3.706773132E-03
    82 -4.672423296E-03
    83  6.260044263E-03
    84  6.957908511E-03
    85 -6.291054183E-02
    86 -1.350406682E-02
    87 -1.354666938E-02
    88  1.591413034E-02
    89  7.319629561E-03
    90  1.142695241E-02
    91  1.447204048E-02
    92  3.492388242E-02
    93  4.420900753E-02
    94 -3.096700097E-02
    95  2.053146937E-02
    96  4.992533998E-02
    97  6.248819832E-02
    98 -1.527045465E-02
    99  1.385637272E-02
   100  3.434795251E-02
   101  4.161066740E-02
   102 -4.335540713E-03
   103 -2.521307520E-03
   104  3.265474802E-03
   105  5.300062928E-03
   106 -8.143211326E-04
   107  5.959436854E-02
   108  7.396704285E-04
   109  2.697901899E-02
   110 -1.376068829E-02
   111 -1.652945760E-02
   112 -2.598383744E-02
   113  7.061328017E-02
   114  7.898733810E-04
   115  2.083385980E-02
   116  7.130096218E-02
   117  9.925111271E-02
   118  1.933687181E-03
   119  2.902725354E-02
   120  8.059319442E-02
   121  6.935229643E-02
   122 -3.325807889E-03
   123  2.171770412E-02
   124  2.346768526E-03
   125  3.488255163E-03
   126 -1.688392519E-03
   127  2.900465812E-03
   128 -1.093221017E-02
   129 -6.557732815E-02
   130  1.545241106E-02
   131 -1.772045700E-02
   132  9.852622175E-03
   133  7.354830216E-03
   134  1.148258252E-02
   135 -4.972766696E-02
   136  2.128192418E-02
   137 -2.147509577E-02
   138 -3.112492211E-02
   139 -7.040418684E-02
   140  3.059853047E-02
   141 -3.054886943E-02
   142 -1.541074831E-02
   143 -4.708142622E-02
   144  2.142671638E-02
   145 -2.077302394E-02
   146  6.074526953E-03
   147 -2.340564704E-03
   148  2.513087934E-03
   149  1.702517868E-04
   150 -4.004996800E-03
   151  5.868007184E-02
   152  7.674309890E-03
   153  2.872232063E-02
   154 -6.647671248E-03
   155 -1.657641510E-02
   156 -2.605785189E-02
   157 -1.756388816E-02
   158 -1.816093475E-02
   159 -6.905712287E-02
   160  7.151634117E-02
   161 -2.460915023E-02
   162 -2.468355735E-02
   163 -9.723358008E-02
   164  8.065369919E-02
   165 -1.760606430E-02
   166 -2.200292061E-02
   167 -6.692987801E-02
   168 -2.812141035E-03
   169  6.132730793E-04
   170  1.155837473E-02
   171  6.133791629E-06
   172  2.631393393E-03
   173 -6.487820609E-02
   174 -5.508408143E-03
   175 -2.182525669E-02
   176 -1.085623240E-02
   177  7.397222155E-03
   178  1.154965694E-02
   179  4.004555080E-02
   180  9.346663998E-03
   181 -4.120954535E-02
   182 -3.131778779E-02
   183  5.675914613E-02
   184  1.369184996E-02
   185 -5.850555793E-02
   186 -1.555704029E-02
   187  3.807123268E-02
   188  1.012110728E-02
   189 -3.944983410E-02
   190  2.952835087E-03
   191  5.268207575E-03
   192 -3.013185416E-04
   193  4.107200359E-03
   194  3.396782007E-03
   195  5.928639184E-02
   196 -2.269901064E-03
   197  2.975989655E-02
   198 -4.387784428E-03
   199  1.825211619E-02
   200  2.871409499E-02
   201  8.962110738E-03
   202 -1.240386854E-02
   203  4.756974116E-02
   204 -7.988959244E-02
   205  1.266478751E-02
   206 -1.655517373E-02
   207  6.660544022E-02
   208 -5.885538690E-02
   209  9.661540914E-03
   210 -1.553596794E-02
   211  5.282801589E-02
   212 -1.348442949E-03
   213  2.868233782E-03
   214  8.391475271E-03
   215 -8.992028454E-03
   216  4.465266078E-03
   217  2.240379153E-02
   218 -4.440238710E-04
   219 -1.428484387E-02
   220  5.499389691E-03
   221  4.016051930E-04
   222  5.529723158E-04
   223 -3.611340725E-03
   224 -4.949261741E-02
   225  1.395325286E-02
   226 -4.138651332E-04
   227 -5.364708013E-03
   228 -7.353380589E-02
   229  2.073411501E-02
   230  2.133666896E-02
   231 -3.769337115E-03
   232 -5.122581958E-02
   233  1.449162592E-02
   234 -3.264280354E-03
   235 -2.927120743E-04
   236 -3.791789337E-03
   237 -6.643325975E-03
   238  9.817384554E-04
   239 -8.973129929E-02
   240  1.119755059E-03
   241  1.465549529E-02
   242 -4.215487306E-03
   243 -4.298799264E-02
   244 -5.849079399E-02
   245 -3.611483131E-03
   246 -4.209511134E-03
   247 -7.746296084E-05
   248 -2.871783545E-03
   249 -1.392173925E-04
   250 -4.320651932E-02
   251 -5.878471933E-02
   252 -3.702485796E-03
   253  2.637720470E-03
   254  1.421884024E-03
   255  4.140254780E-03
   256 -3.223032617E-04
   257 -4.350233739E-02
   258 -5.917337094E-02
   259 -3.902597010E-03
   260 -2.365390441E-04
   261  1.834445925E-03
   262  4.797877218E-03
   263 -2.753365667E-04
   264 -4.302491119E-02
   265 -5.853434127E-02
   266 -3.671276965E-03
   267  2.473964206E-03
   268 -9.965275895E-04
   269 -4.360379265E-03
   270 -8.920387550E-05
   271  7.264228646E-02
   272  9.422644912E-02
   273  2.785746629E-02
   274  4.866646038E-03
   275  1.800218368E-03
   276 -5.153118383E-03
   277 -4.488505535E-03
   278  3.626827944E-02
   279  4.783223315E-02
   280  9.902217102E-03
   281 -9.937498511E-04
   282 -2.022760011E-03
   283 -3.262242166E-03
   284 -2.335829799E-03
   285 -2.633050191E-02
   286 -3.488402580E-02
   287 -1.112333960E-02
   288  7.086269093E-04
   289 -1.178008370E-03
   290  3.962687473E-03
   291  8.946009939E-03
   292  7.260098850E-02
   293  9.419916509E-02
   294  2.792176525E-02
   295 -5.920170896E-03
   296  3.269244259E-03
   297 -2.787118219E-03
   298 -4.551638513E-03
   299  3.624230872E-02
   300  4.779021794E-02
   301  9.882648797E-03
   302  3.565340191E-03
   303 -1.020286229E-03
   304  1.387609200E-03
   305 -2.528968945E-03
   306 -2.657907644E-02
   307 -3.521813124E-02
   308 -1.113592441E-02
   309 -3.598349396E-03
   310 -2.134822469E-03
   311 -4.251749420E-04
   312  9.180894162E-03
   313  7.256254994E-02
   314  9.417108084E-02
   315  2.801144930E-02
   316  1.793443065E-03
   317  4.939039349E-03
   318  5.091935467E-03
   319 -4.440266615E-03
   320  3.620032497E-02
   321  4.772424366E-02
   322  9.932383084E-03
   323 -2.806257092E-03
   324 -1.354245811E-04
   325  2.779594883E-03
   326 -2.443267209E-03
   327 -2.683953453E-02
   328 -3.555923565E-02
   329 -1.126630704E-02
   330  2.422036171E-03
   331 -2.982452319E-03
   332 -1.739213712E-03
   333  8.802529725E-03
   334 -4.327455661E-02
   335 -5.887454398E-02
   336 -3.703223796E-03
   337  4.596015890E-03
   338 -5.392901079E-04
   339 -2.233930317E-03
   340 -3.221332469E-04
   341 -4.353687107E-02
   342 -5.922909331E-02
   343 -3.804516011E-03
   344 -5.092612461E-03
   345  7.895725896E-04
   346 -1.332229603E-04
   347 -1.729864905E-04
   348 -1.711960146E-02
   349 -2.600698327E-02
   350 -7.063782928E-03
   351  1.306876158E-03
   352 -1.909351341E-03
   353 -8.779305474E-04
   354 -1.475127932E-03
   355 -1.725291861E-02
   356 -2.620388876E-02
   357 -7.144943389E-03
   358  3.706079548E-04
   359 -9.400353048E-04
   360  2.258351905E-03
   361 -1.354696354E-03
   362 -1.720363604E-02
   363 -2.612151236E-02
   364 -7.193082826E-03
   365 -1.994897869E-03
   366 -1.454923260E-03
   367 -1.594096852E-04
   368 -1.501351299E-03
Ene=   -4.5012475362E-01
Spin= Alpha
Occup=   2.0000000
     1 -1.007573472E-04
     2 -1.585878414E-04
     3  2.650641969E-02
     4  9.964768459E-03
     5  4.168086026E-02
     6  4.482618796E-04
     7  3.777557543E-02
     8  1.420219651E-02
     9  5.940363328E-02
    10  4.231251063E-04
    11  3.774385996E-02
    12  1.417143812E-02
    13  5.937480940E-02
    14  1.113769550E-02
    15  2.146351467E-03
    16 -2.623117689E-03
    17 -4.442828643E-03
    18 -2.470737192E-03
    19 -2.000624349E-03
    20  9.669914500E-03
    21  7.680111820E-03
    22  1.683429100E-02
    23  3.116989258E-03
    24  4.918062055E-03
    25  8.028997715E-02
    26  4.887720564E-03
    27  6.517857047E-02
    28 -1.376235693E-02
    29  1.143112122E-01
    30  7.190189768E-03
    31  9.325860991E-02
    32 -1.544959908E-02
    33  7.041004482E-02
    34  1.016236845E-03
    35  5.870786671E-02
    36  1.176128426E-03
    37 -1.724707132E-03
    38  1.996926365E-03
    39 -2.645977616E-03
    40  2.497809425E-03
    41 -2.295083481E-02
    42  8.384299843E-03
    43  3.101004364E-03
    44  2.052039378E-02
    45  1.091226406E-02
    46  1.721808326E-02
    47 -6.830778152E-02
    48 -5.774077544E-03
    49  5.756575787E-02
    50 -4.818210562E-02
    51 -9.608817210E-02
    52 -7.821901181E-03
    53  8.245598320E-02
    54 -5.443132742E-02
    55 -6.002013348E-02
    56 -1.695315369E-02
    57  5.452768533E-02
    58 -3.439346646E-03
    59  4.196540617E-03
    60 -1.294828264E-03
    61 -2.739878901E-03
    62 -1.066879569E-03
    63 -6.708963072E-02
    64  2.024489057E-02
    65 -2.321864035E-03
    66  2.184294543E-02
    67 -3.425547674E-03
    68 -5.393391180E-03
    69  3.049820961E-02
    70  7.255343026E-03
    71  2.146050797E-02
    72  1.563407572E-02
    73  4.381771323E-02
    74  1.035608232E-02
    75  3.047504667E-02
    76  4.876238161E-03
    77  3.152116224E-02
    78  7.128871065E-03
    79  2.023770946E-02
    80 -7.971421055E-03
    81 -1.461081755E-03
    82  6.522524995E-03
    83  2.240985273E-03
    84  9.164092425E-03
    85  1.523039689E-02
    86  6.708817431E-03
    87 -3.375646785E-03
    88 -1.852129020E-03
    89  1.226454633E-02
    90  1.938308447E-02
    91  1.077914741E-04
    92  7.051172672E-02
    93 -4.955543481E-02
    94 -5.533837727E-02
    95  6.298767258E-04
    96  9.933949290E-02
    97 -6.891456636E-02
    98 -4.689714329E-02
    99  2.307621390E-03
   100  7.106146872E-02
   101 -5.382918959E-02
   102  1.433907525E-03
   103 -2.148670251E-03
   104 -6.513219434E-04
   105  6.259202530E-03
   106 -1.802110054E-03
   107 -1.333084071E-01
   108  1.274111719E-02
   109  8.731180792E-03
   110  4.807564079E-02
   111 -1.199084307E-02
   112 -1.887947054E-02
   113 -2.763614202E-02
   114  1.819996817E-02
   115  1.397771591E-02
   116  5.475986982E-02
   117 -4.047709703E-02
   118  2.620356905E-02
   119  1.963744224E-02
   120  1.659638080E-02
   121 -3.278843046E-02
   122  1.908246468E-02
   123  1.201292619E-02
   124 -3.617984476E-03
   125 -1.265212018E-03
   126  6.957416322E-03
   127 -9.114334590E-04
   128 -6.708607363E-03
   129  4.181275379E-02
   130 -2.153000115E-02
   131 -8.282677861E-03
   132 -1.535392963E-03
   133 -9.508396138E-03
   134 -1.502825204E-02
   135 -2.702548741E-02
   136 -6.009208217E-02
   137  1.348107351E-02
   138  4.291972978E-02
   139 -3.751540380E-02
   140 -8.432952061E-02
   141  1.971045391E-02
   142  3.634478462E-02
   143 -3.140727897E-02
   144 -5.965805563E-02
   145  1.900961819E-02
   146 -2.410632311E-03
   147  3.517888044E-03
   148 -2.249995477E-03
   149 -3.098604126E-03
   150 -1.142855255E-03
   151  9.987564482E-02
   152  3.645159747E-02
   153  3.805829628E-03
   154  1.246786638E-02
   155  1.525693949E-02
   156  2.402220966E-02
   157  3.322726430E-03
   158 -2.325250533E-02
   159 -2.565966126E-02
   160 -6.970409843E-02
   161  4.418875264E-03
   162 -3.381314133E-02
   163 -3.783657201E-02
   164 -2.076556147E-02
   165  1.528845543E-03
   166 -2.627224015E-02
   167 -3.183478910E-02
   168  1.967782044E-03
   169  7.884726175E-04
   170 -5.458400904E-03
   171 -1.952317783E-04
   172  3.504699932E-03
   173 -5.115394214E-02
   174 -4.664309714E-03
   175  3.900478614E-03
   176 -2.773827604E-02
   177 -2.664277459E-03
   178 -4.211309111E-03
   179  6.357265619E-03
   180 -1.802112998E-02
   181  3.694508655E-03
   182  1.203325978E-02
   183  9.412900008E-03
   184 -2.516196556E-02
   185  5.941077890E-03
   186  1.016672486E-02
   187  1.335402967E-02
   188 -1.719779279E-02
   189  9.952210831E-03
   190  1.662573458E-03
   191 -1.210435680E-03
   192  7.657680544E-04
   193 -2.454774237E-03
   194  1.462771895E-03
   195  2.718992903E-02
   196 -5.316885162E-03
   197  3.303159513E-03
   198  9.603004813E-03
   199 -1.389599922E-02
   200 -2.192599449E-02
   201  1.842280166E-02
   202  1.213674407E-02
   203 -7.485579284E-02
   204  6.134689254E-02
   205  2.669593133E-02
   206  1.726078058E-02
   207 -1.049695231E-01
   208  6.967754526E-02
   209  1.776768601E-02
   210  2.629604852E-02
   211 -6.883781863E-02
   212  2.812548838E-04
   213 -2.841824005E-03
   214 -8.014039459E-04
   215  6.401538564E-03
   216 -1.355227504E-03
   217  9.512016505E-02
   218  1.541209509E-02
   219  1.502395937E-02
   220  2.894685686E-02
   221  6.861868767E-06
   222  1.054114856E-05
   223  1.598875109E-02
   224  5.801891320E-03
   225  2.525290957E-02
   226 -2.245745377E-05
   227  2.320316563E-02
   228  8.414808595E-03
   229  3.664318468E-02
   230 -3.874628110E-05
   231  9.160840829E-03
   232  3.299449970E-03
   233  1.451212205E-02
   234  3.874205700E-03
   235  7.248719577E-04
   236  5.956049053E-04
   237 -2.279422765E-03
   238  1.518164835E-04
   239 -3.318142557E-03
   240  6.934703746E-03
   241  3.199429007E-03
   242  1.060615995E-02
   243 -7.626821208E-02
   244 -1.027349604E-01
   245 -2.840987956E-02
   246 -6.684604933E-03
   247  4.699008174E-03
   248 -3.941081356E-04
   249 -3.909797413E-03
   250  5.577698566E-02
   251  7.506190543E-02
   252  2.452103418E-02
   253  2.970426039E-03
   254 -4.944643261E-03
   255 -3.689379742E-03
   256  1.913297874E-03
   257  9.228340746E-03
   258  1.231259758E-02
   259  1.095028484E-02
   260 -4.851943361E-03
   261 -6.151794228E-04
   262  2.259927185E-03
   263 -1.285839817E-03
   264 -8.129175330E-02
   265 -1.095785322E-01
   266 -2.537842752E-02
   267  5.838131780E-03
   268  1.627173770E-03
   269 -6.369629123E-03
   270 -5.609839427E-03
   271 -1.977428138E-03
   272 -5.855615720E-04
   273  2.786038111E-03
   274  1.348238359E-03
   275  3.079542217E-04
   276  1.061868252E-03
   277  1.117912818E-03
   278 -1.250482099E-02
   279 -1.909241365E-02
   280  2.972266107E-03
   281  3.183994118E-04
   282  5.668570666E-03
   283 -9.052831123E-04
   284 -2.036880948E-02
   285 -7.634786251E-02
   286 -1.031638884E-01
   287 -1.656325800E-02
   288 -1.119812138E-03
   289 -8.549610456E-03
   290  1.254007876E-03
   291 -4.523525740E-03
   292 -7.554938258E-03
   293 -2.809571664E-03
   294  9.738378544E-03
   295 -9.365170314E-04
   296  6.493672730E-04
   297  8.093534923E-04
   298  3.605842935E-03
   299  9.785665647E-03
   300  1.491588467E-02
   301 -2.285005070E-03
   302  3.121405746E-04
   303 -4.418727030E-03
   304  8.635823803E-04
   305  1.571067347E-02
   306  5.943250955E-02
   307  8.031103031E-02
   308  1.292352709E-02
   309 -3.102835633E-04
   310  6.297675937E-03
   311 -2.551859323E-03
   312  3.805416778E-03
   313  1.016893936E-02
   314  4.251320677E-03
   315 -1.234106832E-02
   316  3.043023439E-04
   317 -6.654510304E-04
   318 -7.552126283E-04
   319 -4.372540942E-03
   320  2.777411154E-03
   321  4.220568321E-03
   322 -5.450122303E-04
   323 -7.325016696E-04
   324 -1.290530823E-03
   325 -1.161339768E-04
   326  4.704504143E-03
   327  1.674946447E-02
   328  2.264396487E-02
   329  3.552966189E-03
   330 -1.617110734E-04
   331  1.645434804E-03
   332 -1.198465834E-03
   333  6.004779630E-04
   334  6.673809912E-02
   335  9.003259685E-02
   336  1.735128988E-02
   337 -6.967467753E-03
   338 -1.095168455E-03
   339  3.824803798E-03
   340  5.322037478E-03
   341  2.525718194E-02
   342  3.416770780E-02
   343  7.240593273E-04
   344  5.031587595E-03
   345 -1.400698197E-03
   346 -2.975777609E-03
   347  3.716085227E-03
   348 -5.118443604E-03
   349 -7.416201431E-03
   350 -2.887042015E-03
   351  1.142979528E-03
   352  4.804414230E-04
   353  6.686887221E-04
   354  3.302016373E-03
   355  2.286251497E-02
   356  3.311676102E-02
   357  1.306606210E-02
   358  4.702467017E-06
   359 -1.946276319E-03
   360 -7.450466926E-04
   361 -1.469917109E-02
   362 -1.793093568E-02
   363 -2.596336275E-02
   364 -1.032141239E-02
   365 -1.058363410E-03
   366  1.482404026E-03
   367  2.242939129E-04
   368  1.134586754E-02
Ene=   -4.5011222687E-01
Spin= Alpha
Occup=   2.0000000
     1 -1.326748728E-04
     2 -2.086865716E-04
     3 -4.269082774E-02
     4  1.029980031E-02
     5  2.468198128E-02
     6  5.839761237E-04
     7 -6.084011660E-02
     8  1.467958905E-02
     9  3.517674322E-02
    10  6.315585392E-04
    11 -6.080846324E-02
    12  1.460294999E-02
    13  3.517138710E-02
    14  5.082371395E-04
    15  8.120961951E-03
    16 -4.063933209E-03
    17  2.941210149E-03
    18  8.370505227E-03
    19 -8.751264871E-04
    20 -1.611151362E-02
    21  6.714936863E-03
    22  9.186747482E-03
    23  1.437818588E-02
    24  2.268650292E-02
    25  2.887603628E-02
    26 -5.166072261E-02
    27 -4.842017275E-02
    28 -6.347919761E-02
    29  3.989443485E-02
    30 -7.274681437E-02
    31 -6.802485325E-02
    32 -7.176671994E-02
    33  2.317813486E-02
    34 -6.086500335E-02
    35 -3.724602690E-02
    36 -1.733869435E-03
    37 -5.056792381E-03
    38 -4.163027748E-03
    39 -2.824664324E-03
    40  6.701994989E-04
    41 -9.327569270E-02
    42 -2.836399898E-02
    43  1.829852852E-05
    44  2.139620945E-02
    45 -9.766849841E-03
    46 -1.541123464E-02
    47  2.258836345E-02
    48  4.485142603E-02
    49  7.755311485E-02
    50  4.312848118E-02
    51  3.097335394E-02
    52  6.363737042E-02
    53  1.104205345E-01
    54  4.894573133E-02
    55  1.963035662E-02
    56  5.027751296E-02
    57  6.512434654E-02
    58  3.208131401E-03
    59  2.840245259E-04
    60  4.905960824E-03
    61  1.008297860E-04
    62  1.026145308E-03
    63  6.231254293E-02
    64 -2.660643360E-02
    65  9.745158840E-03
    66  6.432678222E-03
    67 -1.580980939E-02
    68 -2.489246593E-02
    69  1.666839063E-02
    70  6.561122426E-03
    71 -2.905860654E-02
    72  7.220121071E-02
    73  2.482168631E-02
    74  9.313344760E-03
    75 -4.250028854E-02
    76  2.190733830E-02
    77  2.196430264E-02
    78  6.137176353E-03
    79 -3.410722171E-02
    80  4.256746815E-03
    81  6.006844813E-04
    82 -3.120559201E-03
    83  2.820394261E-03
    84  1.441355349E-03
    85  5.613198464E-02
    86  1.856291585E-02
    87 -1.728113421E-02
    88 -1.537747849E-02
    89  4.002061789E-03
    90  6.324253611E-03
    91 -4.441637838E-03
    92  2.338247233E-02
    93 -1.501351317E-02
    94 -1.804357634E-02
    95 -7.006354895E-03
    96  3.306348471E-02
    97 -2.066144300E-02
    98 -1.534536257E-02
    99 -1.350812109E-02
   100  2.489449402E-02
   101 -1.422515269E-02
   102 -8.080785594E-04
   103  2.445845370E-03
   104 -5.347712508E-04
   105  2.620697599E-03
   106 -1.220163939E-03
   107 -4.413478529E-02
   108  5.235366188E-04
   109  3.298534695E-03
   110  1.656769584E-02
   111  1.070630121E-02
   112  1.685747503E-02
   113  1.115425997E-02
   114 -2.072556291E-03
   115  3.482624678E-02
   116 -4.892938676E-02
   117  1.680998195E-02
   118 -3.127578798E-03
   119  5.010195540E-02
   120 -1.438544605E-02
   121  1.579381074E-02
   122 -2.960292406E-03
   123  3.632611207E-02
   124 -7.767175234E-03
   125 -2.085966025E-03
   126  7.465947029E-03
   127 -2.404001428E-03
   128 -2.877095635E-04
   129 -3.194464839E-02
   130  1.696369607E-02
   131  8.561497371E-03
   132  4.519770667E-03
   133  8.670608007E-03
   134  1.370306417E-02
   135  2.269684169E-02
   136  5.599369873E-02
   137 -6.754521269E-03
   138 -3.912223178E-02
   139  3.113376504E-02
   140  7.892455535E-02
   141 -9.060594934E-03
   142 -3.308865308E-02
   143  2.310861884E-02
   144  5.925738287E-02
   145  8.737121667E-05
   146  3.310557101E-03
   147  3.562385048E-04
   148  3.891197072E-03
   149  1.167316846E-03
   150  1.666246201E-03
   151 -9.165000866E-02
   152 -3.429596744E-02
   153 -2.384329284E-03
   154 -6.844541097E-03
   155  4.864187960E-03
   156  7.658817688E-03
   157 -3.783280355E-02
   158 -2.337138222E-03
   159  8.579934435E-05
   160 -2.223485404E-02
   161 -5.419342037E-02
   162 -3.521846640E-03
   163 -2.433626271E-04
   164 -6.459684806E-03
   165 -3.823535866E-02
   166 -3.359481921E-03
   167 -1.942667546E-03
   168  1.184769527E-03
   169 -6.551377755E-04
   170  1.597856745E-03
   171 -4.279342491E-03
   172 -1.286842089E-02
   173 -1.902362575E-02
   174 -4.501029663E-03
   175  1.327559320E-03
   176 -8.742044786E-03
   177 -1.252114059E-02
   178 -1.978997903E-02
   179  1.487515833E-02
   180 -8.726235895E-02
   181  2.582645415E-03
   182  5.652125923E-02
   183  2.013900578E-02
   184 -1.225286423E-01
   185  4.092585874E-03
   186  4.784091393E-02
   187  1.580970333E-02
   188 -9.018074453E-02
   189 -6.237951763E-04
   190 -1.795857262E-03
   191 -4.005594702E-03
   192 -4.418683194E-03
   193 -3.104685089E-03
   194  1.607162231E-03
   195  1.324007316E-01
   196 -3.703658321E-02
   197  1.547894197E-02
   198  3.150704603E-02
   199 -4.449573569E-03
   200 -7.020972858E-03
   201 -1.004922054E-01
   202  1.843060903E-02
   203 -7.325545454E-04
   204  1.964246142E-02
   205 -1.432995886E-01
   206  2.628645227E-02
   207 -4.417014450E-04
   208  2.244839900E-02
   209 -8.822401484E-02
   210  2.124893169E-02
   211 -1.512999739E-03
   212 -1.401294761E-03
   213  2.879728169E-03
   214 -2.781492474E-04
   215  2.291709830E-03
   216 -2.741311180E-03
   217  3.280039376E-02
   218 -1.669655498E-02
   219  7.460803032E-03
   220  1.462578245E-02
   221  1.313722036E-05
   222  2.030630763E-05
   223 -2.581390558E-02
   224  5.895295390E-03
   225  1.500438644E-02
   226 -4.737151820E-05
   227 -3.746078648E-02
   228  8.553216767E-03
   229  2.177396282E-02
   230 -7.818511432E-05
   231 -1.480815312E-02
   232  3.326438357E-03
   233  8.629977251E-03
   234 -3.324446637E-04
   235  4.116328378E-03
   236 -7.871936641E-04
   237  6.500577923E-04
   238  1.735450799E-03
   239 -3.279305082E-03
   240 -1.095778348E-02
   241  3.312702832E-03
   242  6.106826344E-03
   243 -3.330275241E-02
   244 -4.500837993E-02
   245 -3.709911809E-03
   246 -3.242231259E-03
   247 -6.695617916E-04
   248 -5.408617148E-03
   249 -4.047173830E-03
   250 -6.162406637E-02
   251 -8.314184250E-02
   252 -1.507721896E-02
   253  4.463376323E-03
   254  3.511236055E-03
   255  5.278444456E-03
   256 -5.192035549E-03
   257  8.246824062E-02
   258  1.111563801E-01
   259  2.649629901E-02
   260 -2.470359729E-03
   261 -5.653076796E-03
   262 -6.298097418E-03
   263  5.302870067E-03
   264 -1.773838640E-02
   265 -2.377558260E-02
   266 -1.361760987E-02
   267  3.678786807E-03
   268  2.617595758E-03
   269  3.056582210E-03
   270  1.105748540E-03
   271 -9.929122098E-03
   272 -3.667724803E-03
   273  1.278730740E-02
   274  4.021188028E-04
   275  1.615259646E-04
   276 -9.533809337E-04
   277  4.670957820E-03
   278 -4.081232787E-03
   279 -6.223211373E-03
   280  9.042424425E-04
   281  9.178868416E-04
   282  1.721171497E-03
   283 -4.675171701E-04
   284 -6.636791425E-03
   285 -2.470213953E-02
   286 -3.337746075E-02
   287 -5.391383136E-03
   288  3.798830335E-04
   289 -2.866236840E-03
   290  2.443267458E-04
   291 -1.378417148E-03
   292  7.312410263E-03
   293  3.200042609E-03
   294 -8.676274527E-03
   295  1.437454496E-04
   296  1.008423151E-04
   297  1.440381853E-03
   298 -2.922429148E-03
   299 -8.862407317E-03
   300 -1.352412083E-02
   301  2.097815351E-03
   302  1.266857101E-05
   303  3.688492222E-03
   304 -1.770251655E-03
   305 -1.409196480E-02
   306 -5.381280045E-02
   307 -7.270949763E-02
   308 -1.178127459E-02
   309  5.439349470E-04
   310 -5.977206359E-03
   311  1.404531716E-03
   312 -3.481223309E-03
   313  3.513111080E-03
   314  1.674198338E-03
   315 -3.840717991E-03
   316 -1.694583407E-03
   317  4.260778008E-05
   318  1.698463142E-04
   319 -1.580181260E-03
   320  1.281953644E-02
   321  1.956028009E-02
   322 -3.014183538E-03
   323 -7.677841879E-04
   324 -5.449319434E-03
   325  2.142892635E-03
   326  2.070256157E-02
   327  7.834093316E-02
   328  1.058622291E-01
   329  1.705047271E-02
   330  1.638173813E-03
   331  8.216536351E-03
   332 -3.127217551E-03
   333  4.847258440E-03
   334 -4.947074205E-02
   335 -6.656105449E-02
   336 -2.288939615E-02
   337 -5.630879562E-04
   338  1.691509938E-03
   339 -6.262617156E-03
   340 -1.283697274E-03
   341  7.902373443E-02
   342  1.064657793E-01
   343  2.866315275E-02
   344  5.650276376E-03
   345 -3.271774470E-03
   346  5.278583879E-03
   347  4.354280234E-03
   348 -2.363806030E-02
   349 -3.422576045E-02
   350 -1.358288489E-02
   351  8.086488642E-04
   352  1.289342341E-03
   353 -1.469102591E-03
   354  1.486751322E-02
   355  7.310675853E-03
   356  1.058528218E-02
   357  4.230483527E-03
   358 -1.384368334E-03
   359 -4.434521300E-04
   360  7.486130595E-05
   361 -4.736967155E-03
   362  1.604967175E-02
   363  2.324486168E-02
   364  9.262432983E-03
   365  4.274819777E-04
   366 -8.358997583E-04
   367  1.486289527E-03
   368 -1.025661498E-02
Ene=   -4.4539724557E-01
Spin= Alpha
Occup=   2.0000000
     1  1.499801749E-02
     2  2.347323497E-02
     3 -3.879108869E-03
     4 -5.172678342E-02
     5  1.476637123E-02
     6 -6.161073042E-02
     7 -5.479630525E-03
     8 -7.303306935E-02
     9  2.085322413E-02
    10 -1.236298383E-01
    11 -4.061590318E-03
    12 -5.376605332E-02
    13  1.538232373E-02
    14  3.274132543E-04
    15  4.262486640E-05
    16  3.584993484E-04
    17  6.473871125E-04
    18 -8.481332715E-05
    19  1.357253862E-01
    20  7.388026573E-03
    21  1.188570502E-01
    22 -3.146166394E-02
    23 -2.771844810E-03
    24 -4.235025714E-03
    25  9.396615788E-03
    26 -2.718281648E-02
    27 -3.391563441E-03
    28  9.447005550E-03
    29  1.293997499E-02
    30 -3.775702437E-02
    31 -4.600781125E-03
    32  1.636741319E-02
    33  2.051153008E-02
    34 -2.210569594E-02
    35 -1.534901767E-02
    36 -1.238752070E-03
    37  1.706770798E-03
    38  3.498976274E-03
    39 -6.862492191E-04
    40 -3.661110595E-03
    41 -3.270231370E-02
    42 -2.876046350E-02
    43 -2.789880105E-02
    44  3.411470919E-02
    45 -2.807794757E-03
    46 -4.291501201E-03
    47 -1.642571907E-02
    48 -2.353387670E-02
    49  2.474439095E-03
    50  9.601803649E-03
    51 -2.267142083E-02
    52 -3.272698053E-02
    53  3.498080567E-03
    54  1.656274905E-02
    55 -2.980389622E-02
    56 -1.508483099E-02
    57 -4.132148736E-03
    58 -6.158638706E-05
    59 -1.470398659E-03
    60  2.051095795E-03
    61  9.713179968E-04
    62  4.833191525E-03
    63 -2.078312425E-02
    64  2.995211847E-02
    65 -3.740414945E-02
    66  2.024875933E-02
    67  1.959089084E-02
    68  3.081182365E-02
    69  2.770222189E-02
    70  3.698609147E-02
    71 -3.494528487E-02
    72 -8.587387810E-02
    73  3.796043123E-02
    74  5.299178007E-02
    75 -4.837119854E-02
    76 -7.514654359E-02
    77  2.616307701E-02
    78  3.752072995E-02
    79 -3.357115442E-02
    80  2.004724723E-03
    81  1.185778242E-02
    82 -1.961980462E-03
    83  1.391509556E-03
    84  5.482619102E-03
    85  1.725407060E-02
    86  4.126299618E-02
    87 -3.735850480E-02
    88 -3.273421274E-02
    89 -1.782126329E-02
    90 -2.805140554E-02
    91  2.027120541E-02
    92  5.473539069E-02
    93  5.841137272E-02
    94  7.864153099E-02
    95  2.861081998E-02
    96  7.863642814E-02
    97  8.161132931E-02
    98  6.111639925E-02
    99  2.038268345E-02
   100  5.191515258E-02
   101  6.059516637E-02
   102  6.384717546E-03
   103  4.881964160E-03
   104  2.336190756E-03
   105 -8.217773859E-03
   106  2.952001115E-03
   107 -2.725416937E-02
   108  7.849415495E-03
   109  3.674139004E-02
   110  1.351603831E-02
   111  1.963127367E-02
   112  3.087538430E-02
   113 -2.913695416E-02
   114  4.472457862E-02
   115 -2.237351320E-02
   116 -8.605854496E-02
   117 -3.952574401E-02
   118  6.354650254E-02
   119 -3.122152154E-02
   120 -7.522607059E-02
   121 -2.708768158E-02
   122  4.472498770E-02
   123 -2.182026705E-02
   124  9.316865553E-03
   125 -6.174054183E-03
   126  2.910400720E-03
   127 -5.614385749E-03
   128 -3.923006409E-03
   129  1.210380662E-02
   130 -5.875023192E-02
   131 -2.502997595E-02
   132 -1.012133155E-02
   133 -1.783281957E-02
   134 -2.806942293E-02
   135 -6.758641692E-02
   136  3.568776867E-02
   137 -3.122978773E-02
   138  7.868789576E-02
   139 -9.486665179E-02
   140  5.186937363E-02
   141 -4.437053027E-02
   142  6.121318974E-02
   143 -6.910926464E-02
   144  3.249940949E-02
   145 -3.075546220E-02
   146 -8.641866302E-03
   147  6.394931645E-03
   148 -4.838869744E-03
   149  2.714337570E-03
   150 -1.595299285E-04
   151 -2.686442410E-02
   152 -2.027958277E-02
   153  3.034085402E-02
   154 -1.544911202E-02
   155  1.964393317E-02
   156  3.089524195E-02
   157  1.138930805E-02
   158  5.344151753E-02
   159  1.896458927E-02
   160 -8.611201825E-02
   161  1.570942250E-02
   162  7.542576054E-02
   163  2.511529680E-02
   164 -7.528954893E-02
   165  1.090716002E-02
   166  5.287219704E-02
   167  1.693495460E-02
   168 -1.046608352E-02
   169 -5.611987075E-03
   170  7.712983758E-05
   171  5.984776883E-03
   172 -1.833777809E-03
   173  7.450003573E-03
   174  1.225372545E-02
   175 -1.045928020E-02
   176  6.205456988E-02
   177 -1.786381691E-02
   178 -2.811844978E-02
   179  5.540236132E-02
   180  1.874698623E-02
   181 -5.824394041E-02
   182  7.882924819E-02
   183  7.799338643E-02
   184  2.806025510E-02
   185 -8.234408783E-02
   186  6.129548447E-02
   187  5.614292046E-02
   188  1.521528622E-02
   189 -5.825854750E-02
   190 -1.437145814E-03
   191 -1.159663931E-02
   192 -1.805596933E-03
   193 -2.032421018E-03
   194 -1.670198543E-03
   195 -2.755966756E-02
   196  1.916821151E-02
   197  2.426491925E-02
   198 -2.407764835E-02
   199 -2.817695791E-03
   200 -4.306939885E-03
   201  1.790884737E-03
   202 -1.958139407E-02
   203  2.096596176E-02
   204  9.640529501E-03
   205  2.443293827E-03
   206 -2.727868773E-02
   207  2.898918779E-02
   208  1.666113045E-02
   209  5.937424738E-03
   210 -7.361814790E-03
   211  3.225720025E-02
   212  2.530698592E-03
   213 -1.341893721E-04
   214 -4.116067876E-03
   215  2.225262084E-03
   216 -1.546160605E-03
   217 -1.545150714E-02
   218 -1.065385192E-02
   219 -4.659041019E-02
   220 -2.020323962E-02
   221 -5.707750675E-03
   222 -8.927702068E-03
   223  4.367182253E-03
   224  5.987467424E-02
   225 -1.694707570E-02
   226  2.218284689E-02
   227  6.222801093E-03
   228  8.529934861E-02
   229 -2.414517466E-02
   230  5.518946657E-02
   231  2.891404834E-03
   232  3.991807054E-02
   233 -1.127198467E-02
   234  2.935684730E-03
   235  2.612004065E-04
   236  3.415259729E-03
   237  5.985802256E-03
   238 -8.854870542E-04
   239 -8.140321814E-02
   240  2.932803165E-04
   241  2.641047678E-03
   242 -9.158726509E-04
   243 -7.245031014E-03
   244 -9.809062981E-03
   245  8.495306576E-03
   246 -1.620968191E-03
   247 -1.255461483E-03
   248 -1.023744038E-03
   249 -3.131366552E-03
   250 -7.191361645E-03
   251 -9.732869614E-03
   252  8.477586855E-03
   253  1.193002313E-03
   254 -6.523918627E-04
   255  1.843321179E-03
   256 -3.140545006E-03
   257 -6.978762265E-03
   258 -9.420519669E-03
   259  8.235925455E-03
   260 -4.520341904E-04
   261 -4.440036663E-04
   262  2.185638811E-03
   263 -2.893685862E-03
   264 -7.221811763E-03
   265 -9.751665497E-03
   266  8.200735830E-03
   267  6.812592370E-04
   268 -1.563799976E-03
   269 -1.513153559E-03
   270 -3.000682276E-03
   271 -5.872432600E-02
   272 -8.077401041E-02
   273 -2.604764001E-02
   274 -4.873637033E-03
   275  1.131404905E-03
   276  4.535907823E-03
   277  1.983049171E-02
   278  8.432003539E-02
   279  1.147405575E-01
   280  2.488740472E-02
   281 -2.230776621E-03
   282 -3.794358272E-03
   283 -7.803407629E-03
   284 -1.127422438E-02
   285 -1.102436636E-02
   286 -1.247654169E-02
   287 -7.758550506E-03
   288  1.101532261E-03
   289  1.242115417E-03
   290  4.242588710E-03
   291  1.306565664E-02
   292 -5.870965069E-02
   293 -8.078307156E-02
   294 -2.598754296E-02
   295  6.422927526E-03
   296 -4.065686446E-04
   297  2.059154271E-03
   298  1.989799340E-02
   299  8.433057098E-02
   300  1.147527725E-01
   301  2.496535107E-02
   302  8.317865695E-03
   303 -1.518661521E-03
   304  2.965738172E-03
   305 -1.117348039E-02
   306 -1.096646659E-02
   307 -1.239658231E-02
   308 -7.741542437E-03
   309 -4.357511216E-03
   310  6.828280726E-05
   311 -1.331865359E-03
   312  1.282065726E-02
   313 -5.869418494E-02
   314 -8.077701388E-02
   315 -2.593095943E-02
   316 -1.654437286E-03
   317 -2.153452920E-03
   318 -6.187621809E-03
   319  1.966111627E-02
   320  8.436838272E-02
   321  1.148028207E-01
   322  2.507593905E-02
   323 -6.445570626E-03
   324  4.773912201E-04
   325  6.212655509E-03
   326 -1.108965212E-02
   327 -1.078178154E-02
   328 -1.213518221E-02
   329 -7.702987810E-03
   330  3.284376300E-03
   331 -9.513283862E-04
   332 -3.016737383E-03
   333  1.214144664E-02
   334 -7.151642009E-03
   335 -9.652555574E-03
   336  8.126633929E-03
   337  1.825482210E-03
   338 -1.315765576E-03
   339 -3.345739775E-04
   340 -2.835730606E-03
   341 -6.973053984E-03
   342 -9.404483290E-03
   343  8.147455949E-03
   344 -2.060096417E-03
   345 -7.915660644E-04
   346  5.363703166E-04
   347 -2.820299839E-03
   348  2.376826861E-02
   349  3.139309885E-02
   350  7.733657640E-03
   351 -2.346943122E-03
   352  3.080777862E-03
   353  1.645582714E-03
   354  7.375391255E-03
   355  2.384464015E-02
   356  3.150098436E-02
   357  7.680816612E-03
   358 -6.761200297E-04
   359  1.372994330E-03
   360 -3.920076434E-03
   361  7.305664751E-03
   362  2.385131626E-02
   363  3.150882860E-02
   364  7.703943809E-03
   365  3.520109259E-03
   366  2.278463820E-03
   367  3.640794043E-04
   368  7.339975023E-03
Ene=   -4.2737524527E-01
Spin= Alpha
Occup=   2.0000000
     1 -1.974835501E-06
     2 -3.241351603E-06
     3  5.295228846E-02
     4 -1.835067161E-02
     5 -5.092413279E-02
     6  1.441374512E-05
     7  7.720527266E-02
     8 -2.675566736E-02
     9 -7.424385480E-02
    10 -4.268348927E-05
    11  8.108343712E-02
    12 -2.809027371E-02
    13 -7.801904325E-02
    14  3.398108641E-03
    15 -1.992259664E-04
    16 -5.948376872E-03
    17  2.811013787E-03
    18  7.236781061E-03
    19 -1.785409535E-03
    20 -5.952686392E-02
    21  2.114984272E-02
    22  5.717890316E-02
    23 -7.933360861E-03
    24 -1.249547688E-02
    25 -3.116733751E-02
    26 -6.215202607E-02
    27  4.278137473E-02
    28  3.409010522E-02
    29 -4.573297301E-02
    30 -9.006761000E-02
    31  6.252880828E-02
    32  6.026046492E-02
    33 -1.415139686E-02
    34 -4.950770488E-02
    35  2.393852043E-02
    36 -3.044306757E-03
    37  4.607023062E-03
    38  4.981103159E-05
    39 -5.251747429E-03
    40 -1.662813084E-03
    41 -2.660023925E-01
    42 -4.391522129E-02
    43  3.479425266E-02
    44  3.521245466E-02
    45  3.780116104E-03
    46  5.953863212E-03
    47 -7.972070224E-03
    48  2.753883258E-02
    49 -3.354743562E-02
    50 -1.624363840E-02
    51 -1.177417159E-02
    52  3.987135114E-02
    53 -4.912252040E-02
    54 -2.870689834E-02
    55 -1.776817440E-03
    56  2.228916249E-02
    57 -1.835441561E-02
    58  3.435699525E-03
    59  1.269784039E-03
    60 -5.512027357E-03
    61  4.363928280E-03
    62 -2.381109796E-04
    63  1.253967936E-01
    64 -2.375446835E-02
    65 -1.503808453E-02
    66 -2.480842917E-02
    67  3.293931180E-04
    68  5.299587698E-04
    69  8.019890917E-03
    70  7.999785073E-02
    71 -2.337371738E-02
    72 -1.336708843E-03
    73  1.106556404E-02
    74  1.190541380E-01
    75 -3.393522161E-02
    76 -7.616920994E-03
    77  1.136506056E-02
    78  7.969325719E-02
    79 -2.689836870E-02
    80 -2.031066287E-03
    81  7.633281603E-04
    82 -2.084780485E-03
    83 -3.932192784E-03
    84  6.144215792E-04
    85  2.181132710E-01
    86  4.322817618E-02
    87  4.894449746E-03
    88 -4.350136243E-02
    89 -8.030766400E-05
    90 -1.256750774E-04
    91  4.393848312E-02
    92  3.456496771E-02
    93 -6.347989521E-03
    94  4.283426782E-04
    95  6.524185327E-02
    96  5.024986067E-02
    97 -9.134959673E-03
    98  9.499236830E-04
    99  3.939204421E-02
   100  3.644799336E-02
   101 -4.780902489E-03
   102  3.116368078E-03
   103 -2.762150839E-03
   104  2.737849808E-03
   105 -5.666989251E-04
   106 -3.700534046E-03
   107 -2.083471443E-02
   108  1.272575555E-02
   109  1.823054638E-02
   110  9.107585210E-03
   111 -1.571685963E-04
   112 -2.526864014E-04
   113 -1.076272103E-02
   114 -2.924151632E-02
   115  4.049894540E-02
   116  6.320712067E-04
   117 -1.653582393E-02
   118 -4.340014887E-02
   119  6.004247446E-02
   120  3.698742928E-03
   121 -6.629272383E-03
   122 -3.168183333E-02
   123  3.452620988E-02
   124 -1.026969182E-03
   125 -1.822399040E-03
   126  1.372718080E-03
   127  2.537876207E-03
   128 -1.360360824E-03
   129 -9.786847851E-02
   130  2.645379714E-02
   131 -9.836905330E-03
   132  4.838308695E-03
   133 -7.438120710E-05
   134 -1.159686007E-04
   135  2.162812793E-03
   136  2.160066584E-02
   137 -5.013914724E-02
   138  3.831127523E-04
   139  3.157605043E-03
   140  3.108639328E-02
   141 -7.424838534E-02
   142  9.999519251E-04
   143  1.215608726E-04
   144  2.396806082E-02
   145 -4.593804439E-02
   146 -3.445373340E-03
   147 -2.933942626E-03
   148  2.614879470E-03
   149  2.663152462E-03
   150 -2.310449091E-03
   151 -1.415542601E-02
   152 -9.643490249E-03
   153  1.178657363E-02
   154 -1.585980204E-02
   155 -1.707472888E-04
   156 -2.748347725E-04
   157 -3.332113550E-02
   158 -3.823650668E-02
   159  1.756317307E-02
   160  6.952916989E-04
   161 -4.939833611E-02
   162 -5.660659485E-02
   163  2.667026193E-02
   164  3.947291155E-03
   165 -2.709215179E-02
   166 -4.026290572E-02
   167  1.381460165E-02
   168  2.120989694E-03
   169 -1.837785152E-03
   170  2.032368600E-03
   171  8.848473835E-04
   172 -1.544806044E-03
   173 -1.169704334E-01
   174 -2.699755182E-03
   175 -1.850618023E-02
   176 -2.764216921E-02
   177  1.528306688E-04
   178  2.383482397E-04
   179 -2.408661583E-02
   180 -6.377157253E-02
   181  3.529284880E-02
   182 -7.919204400E-04
   183 -3.562250287E-02
   184 -9.265849532E-02
   185  5.183754005E-02
   186 -2.057380396E-03
   187 -2.528244965E-02
   188 -6.537106134E-02
   189  3.695225341E-02
   190 -1.814071660E-03
   191  2.079703764E-03
   192 -2.012540417E-03
   193 -3.531179657E-03
   194  1.072799969E-03
   195  3.248909749E-02
   196 -2.377313465E-02
   197 -2.314737372E-02
   198  2.745796566E-02
   199  4.155251372E-03
   200  6.545019442E-03
   201  2.678355075E-02
   202  3.889909966E-02
   203  2.662890601E-03
   204 -1.786276061E-02
   205  3.930254288E-02
   206  5.650956713E-02
   207  4.119143977E-03
   208 -3.148263912E-02
   209  1.330582742E-02
   210  2.817994468E-02
   211 -3.030023224E-03
   212  1.749403488E-03
   213 -2.290534812E-04
   214  2.345219324E-03
   215  2.144280774E-03
   216  7.038671903E-03
   217  1.418184197E-01
   218  2.655321295E-02
   219 -4.960755711E-03
   220  3.013531046E-02
   221 -2.283920915E-07
   222 -2.935701438E-07
   223  8.637122167E-02
   224 -2.996369985E-02
   225 -8.307285359E-02
   226  3.650145602E-07
   227  1.231453755E-01
   228 -4.272118048E-02
   229 -1.184424637E-01
   230  8.701093598E-06
   231  7.581537784E-02
   232 -2.630903618E-02
   233 -7.290930569E-02
   234 -1.176018349E-04
   235 -1.031969240E-02
   236 -9.317594901E-04
   237  8.327486029E-04
   238 -1.275660291E-03
   239 -3.438458562E-04
   240  9.999124147E-03
   241 -3.388487888E-03
   242 -9.685696742E-03
   243  1.461163493E-03
   244 -2.566722014E-04
   245  4.712332498E-03
   246 -2.101520934E-03
   247 -3.960712231E-03
   248  2.800259827E-03
   249 -7.482695372E-03
   250  5.223260261E-04
   251 -1.619760185E-03
   252  3.933038125E-03
   253 -2.052191789E-03
   254 -3.932897679E-03
   255  2.966611072E-03
   256 -7.107001629E-03
   257 -1.575914999E-02
   258 -2.185801356E-02
   259 -1.278832365E-02
   260  1.931435855E-04
   261  2.026891160E-03
   262 -2.500089678E-04
   263  1.479216055E-02
   264  1.480599124E-02
   265  2.272951733E-02
   266  8.683645904E-03
   267 -2.275290932E-03
   268  2.445128341E-03
   269 -1.040821404E-03
   270 -7.769983924E-03
   271 -2.505189092E-02
   272 -3.119637977E-02
   273 -1.008546766E-02
   274 -1.948050725E-03
   275  4.286453690E-03
   276  1.083216619E-03
   277  1.230900696E-02
   278  2.030566781E-02
   279  2.539228403E-02
   280  4.766187807E-03
   281  1.745296923E-03
   282  3.182652512E-04
   283 -2.465631715E-03
   284 -7.716154618E-03
   285 -3.061322168E-02
   286 -3.986039659E-02
   287 -1.182622842E-02
   288  2.827392953E-03
   289 -2.620968477E-03
   290  6.100206864E-04
   291  6.612762420E-03
   292  1.192714763E-02
   293  1.486141545E-02
   294  4.698106838E-03
   295 -2.066918087E-03
   296 -1.172820841E-03
   297  1.763183175E-03
   298 -5.604759311E-03
   299  1.846376946E-02
   300  2.309155366E-02
   301  4.286005020E-03
   302  2.271562862E-03
   303  3.456939897E-04
   304 -1.862261376E-03
   305 -6.820761713E-03
   306 -2.782106405E-02
   307 -3.621583845E-02
   308 -1.084567581E-02
   309  1.606710076E-04
   310 -3.027158197E-03
   311 -2.342132763E-03
   312  5.980974834E-03
   313  1.311909438E-02
   314  1.633294513E-02
   315  5.314939239E-03
   316 -1.488650143E-03
   317 -1.204172538E-03
   318  2.446235117E-03
   319 -6.638390895E-03
   320 -3.873641458E-02
   321 -4.843841577E-02
   322 -8.975113810E-03
   323  2.289089477E-03
   324 -2.850976493E-03
   325 -1.737952073E-03
   326  1.467017293E-02
   327  5.841083465E-02
   328  7.604415442E-02
   329  2.265678529E-02
   330 -5.504305686E-04
   331  4.801908739E-03
   332 -6.114876213E-04
   333 -1.268642892E-02
   334  1.429070846E-02
   335  2.209986717E-02
   336  8.096099392E-03
   337  4.530025958E-04
   338  3.252602750E-03
   339  1.716047970E-03
   340 -7.147794761E-03
   341 -1.532912734E-02
   342 -2.111224707E-02
   343 -1.264965961E-02
   344 -9.900668032E-05
   345  2.208721571E-03
   346 -5.377022113E-04
   347  1.478786343E-02
   348  9.673491131E-02
   349  1.317878265E-01
   350  5.315167642E-02
   351 -5.339404437E-03
   352 -4.109198949E-03
   353  5.799240144E-03
   354  7.836833070E-03
   355 -5.069164315E-02
   356 -6.905958148E-02
   357 -2.782015250E-02
   358  7.337808322E-03
   359  2.976447437E-03
   360  1.047378207E-03
   361 -4.137492630E-03
   362 -4.605392316E-02
   363 -6.274020772E-02
   364 -2.527766304E-02
   365 -9.810814645E-04
   366  7.783875805E-04
   367 -7.824761370E-03
   368 -3.760989677E-03
Ene=   -4.2737168259E-01
Spin= Alpha
Occup=   2.0000000
     1 -7.752986021E-06
     2 -1.225436173E-05
     3 -5.386400661E-02
     4 -1.081290707E-02
     5 -5.210377479E-02
     6  3.591077966E-05
     7 -7.853066951E-02
     8 -1.576139996E-02
     9 -7.596354492E-02
    10  1.245438641E-05
    11 -8.251127124E-02
    12 -1.659584447E-02
    13 -7.980390814E-02
    14  5.117785618E-03
    15  1.276049410E-03
    16 -5.658434829E-03
    17 -3.522200131E-04
    18 -6.879458146E-03
    19 -1.349981689E-04
    20  5.991827212E-02
    21  1.172861670E-02
    22  5.899791792E-02
    23  2.193674021E-04
    24  3.453684178E-04
    25 -1.555588424E-02
    26 -1.835528135E-03
    27 -1.793607205E-02
    28 -9.397611218E-04
    29 -2.285655547E-02
    30 -2.729177162E-03
    31 -2.634280817E-02
    32 -1.681029411E-03
    33 -7.536653663E-03
    34 -3.452568601E-04
    35 -8.749106536E-03
    36  3.496524926E-03
    37  9.142127249E-04
    38 -4.784134031E-03
    39  3.758825999E-04
    40 -5.233184707E-03
    41  4.232275674E-03
    42 -1.502676058E-02
    43 -3.786698904E-03
    44 -1.693789275E-02
    45 -6.977597583E-03
    46 -1.099035304E-02
    47  2.849503012E-02
    48 -6.491293859E-02
    49  1.612649608E-02
    50  2.999114332E-02
    51  4.198115988E-02
    52 -9.428438654E-02
    53  2.339638507E-02
    54  5.292268095E-02
    55  9.910407036E-03
    56 -4.784754957E-02
    57  1.166417774E-02
    58  1.780755243E-03
    59 -3.045312400E-03
    60 -3.014322420E-03
    61 -3.795126087E-03
    62  5.048811587E-03
    63 -2.340061734E-01
    64  5.725101170E-02
    65  1.508999930E-02
    66  6.707868146E-04
    67 -1.172890475E-05
    68 -1.885743016E-05
    69  2.493440819E-02
    70  3.236656501E-03
    71  2.634866668E-02
    72  4.978237433E-05
    73  3.710692171E-02
    74  4.810191398E-03
    75  3.916032601E-02
    76  2.183602053E-04
    77  1.908464645E-02
    78  2.017400682E-03
    79  2.058422555E-02
    80 -2.872039886E-03
    81  1.549289063E-05
    82 -1.572968979E-04
    83  1.738223582E-03
    84  4.831197314E-04
    85 -4.567812736E-03
    86 -5.543831569E-03
    87 -6.686224375E-04
    88 -3.530071296E-03
    89 -1.283175785E-04
    90 -2.005207191E-04
    91 -1.389469399E-02
    92  6.783858941E-02
    93  8.428001048E-03
    94  6.769102810E-04
    95 -2.080287798E-02
    96  9.900739417E-02
    97  1.302640582E-02
    98  1.655018259E-03
    99 -1.050866525E-02
   100  6.944663474E-02
   101  8.572104154E-03
   102  1.957488091E-03
   103  3.029461311E-03
   104  1.443018867E-03
   105  3.226207075E-03
   106  2.215932843E-03
   107 -3.146582021E-02
   108  2.910679481E-03
   109  3.230119060E-02
   110  1.818249264E-02
   111  2.842829998E-04
   112  4.575471463E-04
   113 -1.198923564E-03
   114  7.549894732E-02
   115 -4.654943568E-03
   116 -1.154353427E-03
   117 -8.031061063E-04
   118  1.121194559E-01
   119 -6.577731037E-03
   120 -6.634915058E-03
   121 -4.096564364E-03
   122  7.510292194E-02
   123 -9.724572785E-03
   124 -2.108689410E-03
   125 -1.790849559E-03
   126 -1.424265090E-03
   127 -3.485128817E-03
   128  1.739957858E-04
   129  1.951196339E-01
   130 -4.774718670E-02
   131  1.499139037E-02
   132 -2.223145294E-02
   133  1.385654809E-04
   134  2.165072301E-04
   135  2.278293911E-02
   136 -6.719506385E-02
   137  3.486968176E-03
   138 -7.268041865E-04
   139  3.398244780E-02
   140 -9.799680048E-02
   141  4.635874256E-03
   142 -1.688442177E-03
   143  2.326177901E-02
   144 -6.813731009E-02
   145  6.892336447E-03
   146 -2.155796126E-03
   147 -3.183753286E-03
   148 -1.657280326E-04
   149 -3.777238127E-03
   150 -6.721656518E-04
   151  3.275915281E-02
   152  2.513719961E-02
   153 -2.701412390E-02
   154  1.067307291E-02
   155 -2.819350665E-04
   156 -4.536873266E-04
   157  1.296300708E-02
   158 -7.137564378E-02
   159  1.381551183E-02
   160  1.150107983E-03
   161  1.953150283E-02
   162 -1.057258745E-01
   163  2.144334192E-02
   164  6.438522311E-03
   165  7.726506781E-03
   166 -7.258384673E-02
   167  1.107876975E-02
   168  1.511032445E-03
   169  1.771518935E-03
   170  1.890606379E-03
   171  3.452081246E-03
   172  5.623224822E-04
   173 -1.901952411E-01
   174 -1.644255355E-02
   175 -2.860720334E-02
   176 -4.224091858E-02
   177 -1.421275702E-06
   178 -2.166434032E-06
   179 -3.128732737E-02
   180 -5.153062477E-03
   181 -3.358763062E-02
   182  7.983952295E-06
   183 -4.652013112E-02
   184 -7.720392087E-03
   185 -4.991835212E-02
   186  6.344625574E-05
   187 -2.727617348E-02
   188 -4.246865368E-03
   189 -2.955424255E-02
   190 -5.639066364E-03
   191 -2.103898334E-04
   192  7.013523336E-04
   193  2.813642753E-03
   194  1.933351357E-03
   195 -1.799576844E-03
   196 -6.040213706E-03
   197 -1.022045627E-03
   198 -7.841450527E-03
   199  6.762980238E-03
   200  1.065224890E-02
   201 -3.543689462E-04
   202  6.928145722E-02
   203  1.399198478E-02
   204 -2.906681870E-02
   205 -5.865128273E-04
   206  1.007438265E-01
   207  2.088995910E-02
   208 -5.130347836E-02
   209  3.298950062E-04
   210  4.875761472E-02
   211 -2.724522243E-04
   212  1.970724561E-03
   213  2.255201698E-03
   214  6.681684706E-03
   215  5.179830526E-05
   216 -2.823638381E-03
   217  2.295714903E-01
   218 -5.170619654E-05
   219 -2.251586769E-03
   220  5.825130755E-02
   221 -9.198016143E-07
   222 -1.530962992E-06
   223 -8.786643443E-02
   224 -1.764910669E-02
   225 -8.500211416E-02
   226  3.884088396E-06
   227 -1.252757997E-01
   228 -2.516502318E-02
   229 -1.211940158E-01
   230  3.138630994E-05
   231 -7.713829048E-02
   232 -1.550426924E-02
   233 -7.459598684E-02
   234 -7.370331908E-03
   235  1.179787586E-03
   236 -4.196144876E-03
   237  5.635184117E-03
   238 -2.144150944E-03
   239  5.083071537E-04
   240 -1.017936690E-02
   241 -2.143076912E-03
   242 -9.903048253E-03
   243  1.732752721E-02
   244  2.533783439E-02
   245  1.218453891E-02
   246  1.386582806E-03
   247  5.517199721E-05
   248 -8.467526567E-04
   249 -1.255287755E-02
   250 -1.738516213E-02
   251 -2.529944106E-02
   252 -1.229140440E-02
   253 -7.635412248E-04
   254  2.719815161E-04
   255  1.207275296E-03
   256  1.276386990E-02
   257 -7.417944521E-03
   258 -1.290638692E-02
   259 -2.105649670E-03
   260  2.354615671E-03
   261 -4.001116572E-03
   262  2.198200474E-03
   263 -3.391500519E-04
   264  9.153115082E-03
   265  1.125246322E-02
   266  9.588916391E-03
   267  1.065895572E-03
   268 -3.825174869E-03
   269  1.608530597E-03
   270 -1.236054086E-02
   271  7.076528665E-04
   272  8.832143866E-04
   273  2.627471969E-04
   274  1.520519579E-03
   275  1.988308770E-04
   276  1.464864810E-03
   277 -3.560265177E-04
   278  3.302442735E-02
   279  4.129269634E-02
   280  7.732174230E-03
   281 -1.874768990E-03
   282  1.160284691E-03
   283 -2.972444265E-03
   284 -1.247020822E-02
   285 -4.979432861E-02
   286 -6.483779851E-02
   287 -1.923920794E-02
   288 -1.809425562E-03
   289 -3.392092805E-03
   290  2.399795750E-03
   291  1.078557592E-02
   292 -2.202493809E-02
   293 -2.741726307E-02
   294 -8.933715394E-03
   295  2.588542582E-03
   296  3.418311505E-03
   297  8.274859564E-04
   298  1.093005442E-02
   299 -3.409704167E-02
   300 -4.263644750E-02
   301 -7.968652549E-03
   302 -2.715585927E-03
   303 -2.146979115E-03
   304 -1.480439503E-03
   305  1.307500037E-02
   306  5.140214742E-02
   307  6.692599334E-02
   308  1.985975158E-02
   309  1.713239284E-03
   310  3.544260171E-03
   311 -2.365613357E-03
   312 -1.107175205E-02
   313  2.136522200E-02
   314  2.659906983E-02
   315  8.648523732E-03
   316  1.490397547E-03
   317 -2.491573023E-03
   318  3.123268123E-03
   319 -1.080994842E-02
   320  1.063110721E-03
   321  1.325173201E-03
   322  3.085673325E-04
   323 -1.826572833E-03
   324 -3.029738541E-04
   325 -1.753126044E-03
   326 -4.517531077E-04
   327 -1.605329234E-03
   328 -2.096896722E-03
   329 -5.557557280E-04
   330 -2.384066790E-03
   331 -6.508133619E-04
   332 -2.431865317E-03
   333  2.850780254E-04
   334 -9.967956154E-03
   335 -1.250166599E-02
   336 -1.009772327E-02
   337  7.126037328E-04
   338  4.041629723E-03
   339  1.352508308E-04
   340  1.297170262E-02
   341  8.265750326E-03
   342  1.408804559E-02
   343  2.677624246E-03
   344  1.227864909E-03
   345  4.658787178E-03
   346  1.483616171E-03
   347 -4.587198168E-04
   348 -2.672475899E-03
   349 -3.642516228E-03
   350 -1.427417292E-03
   351 -5.124242378E-03
   352 -1.025842090E-03
   353 -5.544141131E-03
   354 -2.476134838E-04
   355 -8.244215062E-02
   356 -1.123187595E-01
   357 -4.526152071E-02
   358 -2.148727004E-03
   359  6.758315397E-03
   360  4.793532394E-03
   361 -6.666750123E-03
   362  8.510404465E-02
   363  1.159399478E-01
   364  4.674249782E-02
   365  6.237955568E-03
   366 -5.941406646E-03
   367 -2.509339890E-04
   368  6.899364200E-03
Ene=   -4.0445569971E-01
Spin= Alpha
Occup=   2.0000000
     1 -6.164423554E-09
     2  1.446748082E-07
     3  6.635401509E-06
     4  2.369551261E-07
     5  1.289251039E-05
     6 -4.847980224E-06
     7  1.032148120E-05
     8  1.175201760E-06
     9  1.907275492E-05
    10  5.918784182E-05
    11  3.693699273E-06
    12 -3.118126245E-06
    13  2.770142924E-05
    14 -2.026352847E-06
    15  1.746004464E-07
    16 -2.337923325E-06
    17  2.239798531E-06
    18 -1.678875147E-07
    19  1.977402392E-03
    20 -6.934516670E-04
    21  5.189511781E-04
    22  3.802350466E-04
    23  4.779380659E-07
    24  7.989837879E-07
    25  5.969944966E-02
    26  1.289292964E-02
    27  6.093630109E-02
    28 -2.160776821E-06
    29  8.684577944E-02
    30  1.875849083E-02
    31  8.864338312E-02
    32  1.498679572E-07
    33  7.026181087E-02
    34  1.515698666E-02
    35  7.174511297E-02
    36  8.123920103E-03
    37 -6.286379671E-04
    38  3.010039004E-03
    39 -5.544482771E-03
    40  8.692522458E-04
    41 -3.445258662E-03
    42  2.337677747E-02
    43  5.586726369E-03
    44  2.487553926E-02
    45 -2.611779669E-06
    46 -4.106791297E-06
    47  2.382784797E-02
    48 -2.427057502E-02
    49 -7.929645196E-02
    50  1.202929742E-05
    51  3.466239514E-02
    52 -3.530537791E-02
    53 -1.153519612E-01
    54 -3.234222040E-06
    55  2.806202891E-02
    56 -2.857865282E-02
    57 -9.332972232E-02
    58 -4.511155823E-03
    59 -8.347127451E-03
    60 -1.251853496E-03
    61  2.884478995E-03
    62 -2.657544335E-03
    63  2.973502669E-04
    64  9.475261696E-03
    65 -9.661967328E-03
    66 -3.184067796E-02
    67  3.730272024E-07
    68  5.741230468E-07
    69  6.060225275E-02
    70  1.309910112E-02
    71  6.185414767E-02
    72  2.794889039E-07
    73  9.020670844E-02
    74  1.949497118E-02
    75  9.207084230E-02
    76 -3.407801175E-05
    77  6.174654836E-02
    78  1.337026850E-02
    79  6.303359053E-02
    80 -1.339694171E-03
    81  2.346397441E-04
    82 -1.103519639E-03
    83  1.170249234E-03
    84 -7.087012323E-04
    85 -1.202018832E-03
    86 -2.484030826E-02
    87 -4.889121479E-03
    88 -2.509227608E-02
    89 -4.575648242E-06
    90 -7.096111324E-06
    91 -7.550515515E-02
    92  1.023980509E-02
    93  1.656640202E-02
    94  1.720636763E-05
    95 -1.124151101E-01
    96  1.524711420E-02
    97  2.466337776E-02
    98  5.716076628E-05
    99 -6.174289987E-02
   100  8.377217759E-03
   101  1.353799238E-02
   102 -1.921117714E-03
   103  5.030887817E-03
   104  9.854709592E-04
   105 -9.714923366E-04
   106 -7.643521994E-03
   107  3.056838806E-03
   108 -2.568803751E-02
   109  3.785593346E-03
   110  4.968505268E-03
   111  2.648227119E-06
   112  4.292434113E-06
   113  2.417331281E-02
   114 -2.464808713E-02
   115 -8.049942641E-02
   116 -1.267972566E-05
   117  3.598275891E-02
   118 -3.668835702E-02
   119 -1.198173532E-01
   120 -1.870480429E-05
   121  2.462805610E-02
   122 -2.513568323E-02
   123 -8.208847788E-02
   124  5.470169802E-04
   125  1.757164755E-03
   126  8.871786060E-04
   127 -8.002649250E-04
   128  3.318115043E-04
   129  2.505520729E-04
   130 -9.788249037E-03
   131  9.872561491E-03
   132  3.206317779E-02
   133  3.157894696E-06
   134  5.147018463E-06
   135  2.151537629E-02
   136 -2.189926348E-02
   137 -7.167797269E-02
   138 -1.889724601E-05
   139  3.203543654E-02
   140 -3.260834261E-02
   141 -1.067156785E-01
   142  3.183526415E-05
   143  1.759429378E-02
   144 -1.787108730E-02
   145 -5.861684687E-02
   146  2.558612162E-03
   147 -3.622079183E-03
   148 -7.494103341E-03
   149  3.392471582E-03
   150  1.413938205E-03
   151  1.143919371E-03
   152  7.390099451E-03
   153 -7.050459036E-03
   154 -2.421914201E-02
   155 -1.454169035E-06
   156 -2.396067617E-06
   157 -8.481262316E-02
   158  1.154275721E-02
   159  1.859623392E-02
   160  8.869815377E-06
   161 -1.262423797E-01
   162  1.718406872E-02
   163  2.767953796E-02
   164 -1.139573298E-05
   165 -8.642622533E-02
   166  1.174211993E-02
   167  1.895773042E-02
   168  7.930766592E-04
   169 -1.990356753E-03
   170  2.158342209E-04
   171 -3.706354050E-04
   172  3.770938577E-04
   173 -9.847846511E-04
   174  3.442113108E-02
   175 -5.123883912E-03
   176 -7.390677478E-03
   177 -2.245133972E-07
   178 -3.841587296E-07
   179  5.396749650E-02
   180  1.165797010E-02
   181  5.509104212E-02
   182  1.037752692E-06
   183  8.034802706E-02
   184  1.735409690E-02
   185  8.202062742E-02
   186 -1.464897995E-05
   187  4.412080547E-02
   188  9.532262179E-03
   189  4.502008936E-02
   190 -6.343680744E-04
   191 -1.407828853E-03
   192  6.506196302E-03
   193 -2.421008779E-03
   194  6.228006538E-03
   195 -2.120845772E-03
   196  1.852342088E-02
   197  3.525003702E-03
   198  1.825741297E-02
   199  1.423786969E-06
   200  2.287000324E-06
   201 -8.354942860E-02
   202  1.137072822E-02
   203  1.833335201E-02
   204 -7.498824603E-06
   205 -1.215406238E-01
   206  1.654006060E-02
   207  2.667062159E-02
   208  1.781870133E-05
   209 -9.834664290E-02
   210  1.336479132E-02
   211  2.158265981E-02
   212 -3.611800832E-03
   213  8.976514808E-03
   214 -1.757657722E-03
   215  2.658003816E-03
   216  1.789426759E-03
   217  1.733616734E-03
   218 -3.317350560E-02
   219  4.100819836E-03
   220  7.636099684E-03
   221  2.878093340E-07
   222  3.921343390E-07
   223  8.048187627E-06
   224  3.439550163E-06
   225  6.423740656E-06
   226  4.682307941E-07
   227  1.268860010E-05
   228  4.975007211E-06
   229  9.029183213E-06
   230 -2.521643695E-05
   231  2.160320200E-06
   232  1.770645293E-05
   233  7.727442682E-06
   234  1.284303577E-06
   235 -3.656301686E-07
   236  8.000650623E-07
   237  2.323166922E-08
   238  3.578436166E-07
   239 -8.224922248E-04
   240  2.336062234E-05
   241  1.283667825E-04
   242 -9.480053171E-05
   243 -5.911755914E-02
   244 -7.385330774E-02
   245 -2.502254990E-02
   246 -3.247625291E-03
   247  3.060629327E-03
   248 -6.902890277E-05
   249  2.350362218E-03
   250  5.911062547E-02
   251  7.382826057E-02
   252  2.523483645E-02
   253  7.059743001E-04
   254 -3.609820534E-03
   255 -2.527042787E-03
   256 -2.587167862E-03
   257 -5.911734891E-02
   258 -7.384957362E-02
   259 -2.514460854E-02
   260  2.579213999E-03
   261  3.164608584E-03
   262  1.805040638E-03
   263  2.515345719E-03
   264  5.912175387E-02
   265  7.385699051E-02
   266  2.512087387E-02
   267 -3.595441035E-03
   268 -2.129463694E-03
   269  1.570757896E-03
   270 -2.500617520E-03
   271 -5.684866453E-06
   272 -8.814072918E-06
   273  2.821344210E-05
   274  3.629221812E-03
   275  7.845837687E-04
   276  3.705434592E-03
   277 -9.844914142E-06
   278 -2.982459998E-05
   279 -3.207011774E-05
   280 -1.412247529E-04
   281 -5.308828385E-03
   282  7.224419937E-04
   283  1.169011415E-03
   284  2.818431266E-05
   285  2.899922010E-05
   286  4.860916409E-05
   287 -9.889399274E-05
   288 -4.236919422E-03
   289  5.786715239E-04
   290  9.290005192E-04
   291  1.206229512E-04
   292 -1.886304535E-05
   293 -2.279620638E-05
   294 -5.263432513E-06
   295  1.450155901E-03
   296 -1.476981071E-03
   297 -4.820877548E-03
   298  1.266482026E-04
   299  3.466163450E-05
   300  4.882586076E-05
   301 -3.433120584E-05
   302  1.517598741E-03
   303 -1.542001150E-03
   304 -5.038537617E-03
   305 -1.233279826E-04
   306 -3.130376501E-05
   307 -4.056140201E-05
   308 -3.605652395E-06
   309  1.207050899E-03
   310 -1.233194125E-03
   311 -4.021511341E-03
   312  1.598784369E-04
   313  2.077421543E-05
   314  2.770768313E-05
   315  5.089648947E-05
   316 -5.079545634E-03
   317  6.934012707E-04
   318  1.116271606E-03
   319  2.945819019E-06
   320  7.506880922E-07
   321 -5.324189468E-06
   322  6.369287937E-05
   323  3.795304841E-03
   324  8.199779608E-04
   325  3.874103306E-03
   326 -1.793860945E-04
   327  2.134080609E-06
   328 -2.724790662E-06
   329  9.313055634E-05
   330  3.028726597E-03
   331  6.544492981E-04
   332  3.092140409E-03
   333 -1.146980378E-04
   334 -5.912418962E-02
   335 -7.385183658E-02
   336 -2.519715611E-02
   337  1.247607018E-03
   338  1.622286711E-03
   339 -3.967341758E-03
   340  2.465657613E-03
   341  5.912329367E-02
   342  7.386014309E-02
   343  2.511196732E-02
   344  2.309662584E-03
   345 -2.108131748E-03
   346  3.186271846E-03
   347 -2.257981721E-03
   348  2.088415993E-06
   349  1.029597460E-06
   350  1.396125468E-05
   351  3.037317859E-04
   352  6.538991798E-05
   353  3.101803071E-04
   354  3.398996094E-05
   355  7.585758923E-06
   356  5.919138105E-06
   357  6.208113947E-06
   358 -4.243350835E-04
   359  5.743254670E-05
   360  9.305538502E-05
   361  4.049125837E-05
   362 -6.783381412E-06
   363 -7.295286322E-06
   364 -3.421977344E-05
   365  1.207365495E-04
   366 -1.229720522E-04
   367 -4.028784691E-04
   368 -5.139648053E-06
Ene=   -3.9087615607E-01
Spin= Alpha
Occup=   2.0000000
     1  5.260675496E-07
     2  8.050548688E-07
     3  3.246334052E-02
     4  5.537056609E-05
     5  8.580389676E-03
     6  7.002130582E-07
     7  4.875419130E-02
     8  8.257629501E-05
     9  1.288695248E-02
    10 -4.676310574E-05
    11  2.608007706E-02
    12  5.681484232E-05
    13  6.900486219E-03
    14 -5.789991634E-03
    15  8.322066764E-03
    16 -5.091879353E-03
    17  4.214363251E-03
    18 -7.950344596E-03
    19 -2.980133122E-03
    20 -5.510577673E-02
    21  5.769476256E-04
    22 -1.392037365E-02
    23  7.605698070E-03
    24  1.203258853E-02
    25 -4.835662396E-02
    26  1.242809754E-02
    27 -1.286178927E-02
    28 -3.495944466E-02
    29 -6.905477333E-02
    30  1.767142419E-02
    31 -1.625998964E-02
    32 -2.197282790E-02
    33 -5.182552920E-02
    34  3.904947338E-03
    35 -1.766534731E-02
    36 -2.884076534E-03
    37  1.463385030E-03
    38 -5.077194892E-03
    39  6.862064450E-03
    40 -5.325160290E-04
    41 -4.833809274E-02
    42 -1.333595227E-02
    43 -3.578990767E-03
    44 -4.861397556E-03
    45 -1.441314585E-02
    46 -2.280223962E-02
    47 -5.525206297E-02
    48 -2.194223550E-02
    49 -8.204749071E-03
    50  6.624794986E-02
    51 -8.126425857E-02
    52 -3.019987108E-02
    53 -1.283445849E-02
    54  4.166712832E-02
    55 -4.954744676E-02
    56 -8.802460795E-03
    57 -1.021333803E-02
    58 -3.961538676E-03
    59 -1.955171393E-05
    60 -7.119136395E-04
    61 -1.816468895E-03
    62  6.267327083E-03
    63  8.931260845E-02
    64 -9.097992933E-03
    65  5.799888997E-03
    66 -3.878534676E-03
    67  5.115734173E-03
    68  7.980976772E-03
    69 -4.480687592E-02
    70  5.664285639E-03
    71  5.105148435E-02
    72 -2.110218839E-02
    73 -6.393850789E-02
    74  8.595873699E-03
    75  7.327771612E-02
    76 -3.329134501E-02
    77 -7.094036365E-02
    78  4.439086668E-03
    79  6.753024285E-02
    80 -2.743567165E-03
    81 -3.273617865E-03
    82 -6.303188802E-03
    83  9.808096208E-03
    84 -4.248116437E-03
    85 -1.304504147E-01
    86 -5.411003628E-02
    87 -4.803827840E-03
    88  7.621386130E-02
    89 -6.116116530E-03
    90 -9.673457670E-03
    91  1.558709041E-02
    92 -2.578411207E-02
    93 -4.547145827E-02
    94  2.830435235E-02
    95  2.111167902E-02
    96 -3.652720650E-02
    97 -6.536557029E-02
    98  1.491559080E-02
    99 -2.136466524E-03
   100 -3.040503085E-02
   101 -3.848097483E-02
   102  3.909563959E-03
   103 -1.098583992E-02
   104 -4.617115264E-03
   105 -2.863463416E-03
   106  1.310795873E-03
   107 -5.486323637E-02
   108  1.087722643E-02
   109 -2.232029071E-02
   110  1.093325074E-02
   111 -9.694989253E-03
   112 -1.512477795E-02
   113 -1.198966723E-01
   114  1.980812664E-02
   115 -4.233565737E-02
   116  3.998196636E-02
   117 -1.718648972E-01
   118  2.756605399E-02
   119 -6.044288801E-02
   120  6.319089117E-02
   121 -1.721143989E-01
   122  3.304337054E-02
   123 -6.183404210E-02
   124  1.292408397E-03
   125 -5.666712362E-03
   126  3.353139323E-04
   127 -9.817203327E-03
   128  6.177977940E-03
   129  2.505205595E-01
   130 -1.557536682E-01
   131  5.158365619E-02
   132 -6.366026596E-02
   133  1.294537853E-02
   134  2.047472857E-02
   135 -9.005235236E-02
   136  2.160137701E-02
   137 -3.478168358E-02
   138 -5.990473628E-02
   139 -1.298861046E-01
   140  3.020047555E-02
   141 -4.981469146E-02
   142 -3.160209257E-02
   143 -8.674553470E-02
   144  3.719096026E-02
   145 -3.787905795E-02
   146  2.189677109E-03
   147  3.706573609E-03
   148 -2.984284627E-04
   149  6.490587241E-03
   150 -9.673653996E-03
   151  1.165298597E-01
   152  1.880879211E-02
   153  4.814740939E-02
   154 -9.509383791E-03
   155  4.576927957E-03
   156  7.140181757E-03
   157 -9.140116350E-03
   158 -2.569875920E-02
   159 -5.465496835E-02
   160 -1.887232378E-02
   161 -1.272470837E-02
   162 -3.648524342E-02
   163 -7.850469987E-02
   164 -2.983975568E-02
   165 -2.253315491E-02
   166 -3.780980997E-02
   167 -7.594356119E-02
   168 -1.112064883E-03
   169  1.175335546E-02
   170  4.450688143E-03
   171  1.837619663E-03
   172 -3.154930732E-03
   173 -1.206394989E-01
   174 -4.973032048E-03
   175 -4.798165808E-02
   176 -6.990779321E-02
   177 -6.833355184E-03
   178 -1.080767496E-02
   179 -1.853106060E-02
   180  4.083016806E-03
   181  5.567892648E-02
   182  3.161655114E-02
   183 -2.762897380E-02
   184  6.179583123E-03
   185  7.913591099E-02
   186  1.671941946E-02
   187 -3.025176348E-02
   188 -6.948472829E-03
   189  4.485647382E-02
   190  3.511538231E-03
   191  1.294732878E-03
   192  6.802219699E-03
   193 -1.023400362E-02
   194  1.108439702E-03
   195 -6.367373262E-02
   196  1.176987187E-02
   197 -2.629028783E-02
   198  8.987887595E-03
   199  6.808540802E-03
   200  1.077167375E-02
   201 -4.635192693E-02
   202  9.337963543E-03
   203 -1.857960970E-02
   204 -3.130273679E-02
   205 -6.504100340E-02
   206  1.226947021E-02
   207 -2.783999482E-02
   208 -1.959815217E-02
   209 -5.332524010E-02
   210  4.781450455E-03
   211 -1.301335790E-02
   212 -4.392275896E-03
   213  7.164655761E-03
   214  2.231064233E-03
   215  2.764073001E-03
   216 -1.454211657E-03
   217 -3.616791923E-02
   218 -1.431618095E-02
   219 -2.904169390E-03
   220  4.345714332E-04
   221  1.526816456E-07
   222  3.359825806E-07
   223 -2.543319369E-02
   224 -4.470323213E-05
   225 -6.730527112E-03
   226 -2.976979673E-06
   227 -3.487648943E-02
   228 -6.293072126E-05
   229 -9.230637814E-03
   230  3.015251963E-05
   231 -3.012788620E-02
   232 -5.733276590E-05
   233 -7.955842023E-03
   234 -1.679086489E-03
   235  2.699821524E-03
   236 -1.717732362E-03
   237  1.233971811E-03
   238 -3.053837263E-03
   239  6.586265100E-04
   240  8.062352789E-03
   241 -2.543327850E-04
   242  2.072829710E-03
   243  4.075280577E-02
   244  5.848867475E-02
   245  3.327663516E-02
   246  1.609404727E-03
   247 -1.742362089E-03
   248  3.516819754E-04
   249 -1.009081361E-02
   250 -2.340223540E-02
   251 -3.253373685E-02
   252 -6.327028313E-03
   253 -2.735248109E-03
   254  2.337038780E-03
   255  1.305097033E-03
   256  2.342626290E-02
   257 -1.520839886E-02
   258 -2.284590441E-02
   259 -2.471318544E-02
   260 -2.387053517E-03
   261  3.384235107E-04
   262  9.436784431E-04
   263 -1.364541506E-02
   264 -1.764820243E-02
   265 -2.630730348E-02
   266 -2.617022850E-02
   267 -1.306112134E-03
   268 -4.556419954E-04
   269 -2.037756217E-03
   270 -1.224780911E-02
   271  5.367869723E-02
   272  6.946247603E-02
   273  1.741017146E-02
   274  1.974952440E-03
   275  1.054105161E-03
   276 -2.739055402E-03
   277 -3.878412111E-02
   278 -3.556054197E-02
   279 -4.885786304E-02
   280 -2.411109305E-02
   281  1.422500800E-03
   282  8.821283124E-04
   283  1.504736127E-03
   284 -2.382241711E-03
   285  1.586832227E-02
   286  2.023232981E-02
   287  3.187924467E-03
   288  8.591265711E-04
   289  3.974542662E-04
   290 -2.992629056E-03
   291 -1.612346817E-02
   292 -1.017220709E-01
   293 -1.316303099E-01
   294 -3.298594379E-02
   295  5.111250045E-03
   296 -3.390475124E-03
   297  2.591484879E-03
   298  7.392061192E-02
   299  7.530209535E-02
   300  1.034656977E-01
   301  5.100082337E-02
   302  3.935028030E-03
   303 -1.056964250E-03
   304  1.471330987E-03
   305  5.328334628E-03
   306 -3.361659621E-02
   307 -4.286320961E-02
   308 -6.870594548E-03
   309 -5.253826133E-03
   310 -2.625723766E-03
   311 -8.310294304E-04
   312  3.422937269E-02
   313  4.804080620E-02
   314  6.215857151E-02
   315  1.565104101E-02
   316  3.444344915E-04
   317  2.344224973E-03
   318  2.110768584E-03
   319 -3.484682534E-02
   320 -3.973495285E-02
   321 -5.460356715E-02
   322 -2.681997781E-02
   323  2.253521024E-03
   324  1.856707571E-04
   325 -9.653648115E-04
   326 -2.933366352E-03
   327  1.772813358E-02
   328  2.259378502E-02
   329  3.693453241E-03
   330 -9.667661607E-04
   331  2.218771697E-03
   332  2.407627136E-03
   333 -1.830384791E-02
   334 -2.548437110E-02
   335 -3.555437043E-02
   336 -8.608647645E-03
   337 -1.186723769E-03
   338  9.153628882E-04
   339 -3.515747328E-03
   340  2.355118244E-02
   341  4.100466154E-02
   342  5.878632521E-02
   343  3.243099402E-02
   344  1.232721633E-03
   345 -1.399976228E-03
   346  1.691342981E-03
   347 -1.114622578E-02
   348 -1.266969228E-02
   349 -1.841596976E-02
   350 -7.599707362E-03
   351 -3.954883666E-04
   352  6.695257255E-04
   353 -1.545446137E-03
   354 -4.143385255E-03
   355 -1.135049957E-02
   356 -1.650376427E-02
   357 -6.818961506E-03
   358 -1.083034217E-03
   359  1.189187635E-03
   360  5.021934986E-04
   361 -3.608551851E-03
   362  2.400766198E-02
   363  3.491098149E-02
   364  1.435672895E-02
   365  8.743772140E-04
   366 -1.861402494E-03
   367  8.839126844E-04
   368  7.828241438E-03
Ene=   -3.9087230230E-01
Spin= Alpha
Occup=   2.0000000
     1  4.150960091E-06
     2  6.674169945E-06
     3  8.238774942E-03
     4 -9.488281264E-03
     5 -3.114548194E-02
     6 -1.999920214E-05
     7  1.237479274E-02
     8 -1.424976242E-02
     9 -4.678029111E-02
    10 -1.069983762E-05
    11  6.621481697E-03
    12 -7.616980942E-03
    13 -2.501113721E-02
    14  8.724521424E-04
    15  9.733151584E-03
    16  8.931130553E-03
    17 -5.822160116E-03
    18  7.526636246E-04
    19 -8.429631830E-04
    20 -1.307310298E-02
    21  1.705635742E-02
    22  5.030400338E-02
    23  1.224938719E-02
    24  1.937973327E-02
    25 -1.506744051E-02
    26  3.357377167E-02
    27  4.341436960E-02
    28 -5.631831002E-02
    29 -2.379585271E-02
    30  4.732399748E-02
    31  6.306487472E-02
    32 -3.526167552E-02
    33 -9.759545628E-03
    34  2.212202107E-02
    35  4.683296923E-02
    36  6.006699423E-03
    37  3.597589752E-04
    38  1.184448306E-03
    39  1.489463943E-03
    40  5.337858775E-03
    41 -6.528955532E-02
    42  5.523120552E-04
    43 -3.384119094E-03
    44  1.171424953E-02
    45  4.581597345E-04
    46  7.250353522E-04
    47 -1.145678881E-02
    48  1.416054868E-02
    49  4.424233114E-02
    50 -2.111670462E-03
    51 -1.580505867E-02
    52  1.969508527E-02
    53  6.161850109E-02
    54 -1.258846697E-03
    55 -1.394724546E-02
    56  1.606616862E-02
    57  5.192595084E-02
    58  2.310634416E-03
    59  7.584428082E-03
    60  4.106681961E-03
    61 -3.466367994E-03
    62  1.127649074E-03
    63 -3.793181366E-03
    64 -4.052566415E-03
    65  4.670457570E-03
    66  1.434899241E-02
    67  8.242533047E-03
    68  1.285877709E-02
    69 -8.129749590E-02
    70  7.171510379E-03
    71  7.293555655E-02
    72 -3.398818568E-02
    73 -1.165945079E-01
    74  1.094148940E-02
    75  1.041676214E-01
    76 -5.378632370E-02
    77 -1.132094046E-01
    78  7.335729585E-03
    79  1.099727395E-01
    80  7.128983024E-03
    81 -8.401002727E-03
    82  4.439998508E-03
    83  3.547750533E-03
    84  4.028045157E-03
    85 -2.199072495E-01
    86 -1.128033475E-01
    87 -1.397863649E-02
    88  9.960258309E-02
    89  1.142183641E-02
    90  1.806531753E-02
    91  3.638901484E-02
    92  3.922195586E-02
    93  7.053418371E-02
    94 -5.286136496E-02
    95  5.165132893E-02
    96  5.580152410E-02
    97  1.020677130E-01
    98 -2.782581436E-02
    99  2.746140459E-02
   100  5.353557191E-02
   101  6.670320685E-02
   102  2.546739109E-03
   103 -4.265356252E-03
   104  1.108066968E-02
   105  9.814274341E-04
   106  3.083855028E-03
   107  1.058487137E-01
   108  5.262342576E-03
   109  3.776778436E-02
   110 -2.704371548E-02
   111  3.106802234E-04
   112  4.845851612E-04
   113  5.770145949E-03
   114 -2.593033020E-03
   115 -5.066094322E-03
   116 -1.277838845E-03
   117  8.381420024E-03
   118 -3.805447777E-03
   119 -7.642043928E-03
   120 -2.056427752E-03
   121  5.290216005E-03
   122 -8.151146147E-04
   123  2.753017956E-03
   124  1.563466197E-03
   125  9.898415040E-03
   126  7.058612695E-03
   127 -4.770226991E-03
   128  8.218347186E-04
   129 -7.019772844E-03
   130  1.019543350E-02
   131 -6.267407090E-03
   132 -1.524041354E-02
   133 -4.127373646E-04
   134 -6.529122391E-04
   135  1.170396169E-02
   136 -9.689712937E-03
   137 -2.825499723E-02
   138  1.913891372E-03
   139  1.642565870E-02
   140 -1.348216324E-02
   141 -3.924936741E-02
   142  9.560093506E-04
   143  5.893728474E-03
   144 -4.402930073E-03
   145 -9.245932915E-03
   146 -3.045686839E-03
   147 -1.039753966E-02
   148 -5.508691843E-03
   149  4.564691624E-03
   150 -1.494628462E-03
   151 -5.519100911E-03
   152  2.310624654E-03
   153 -5.157075869E-03
   154 -1.087847201E-02
   155 -8.550730469E-03
   156 -1.333947144E-02
   157  3.137837296E-02
   158  4.605154872E-02
   159  9.892717012E-02
   160  3.525627796E-02
   161  4.509751788E-02
   162  6.524300546E-02
   163  1.419233630E-01
   164  5.580684349E-02
   165  4.042513725E-02
   166  7.085413744E-02
   167  1.422259569E-01
   168 -7.427935275E-03
   169  2.111918916E-03
   170 -9.645955537E-03
   171 -5.057328490E-04
   172 -4.093398839E-03
   173  2.301704835E-01
   174  4.751071274E-02
   175  8.429171830E-02
   176  1.239713453E-01
   177 -1.100443611E-02
   178 -1.740501140E-02
   179 -7.171425075E-02
   180 -2.496025973E-03
   181  4.695160011E-02
   182  5.092796288E-02
   183 -1.027182468E-01
   184 -2.663995523E-03
   185  6.805125990E-02
   186  2.680799677E-02
   187 -6.366968120E-02
   188 -1.444933012E-02
   189  5.695501776E-02
   190 -8.797228076E-03
   191  4.784588407E-03
   192 -1.699037696E-03
   193 -3.534039549E-03
   194 -6.577224842E-03
   195 -1.014762902E-01
   196  2.582286019E-03
   197 -4.511121058E-02
   198 -2.033863377E-03
   199 -1.271710226E-02
   200 -2.011928826E-02
   201 -1.154340144E-02
   202 -4.079276609E-03
   203  5.623864975E-02
   204  5.845937475E-02
   205 -1.507256811E-02
   206 -4.329841466E-03
   207  8.196879432E-02
   208  3.671169520E-02
   209 -1.554242317E-02
   210  6.834933862E-03
   211  4.963198825E-02
   212  9.418272316E-04
   213  4.904094631E-03
   214 -5.975496484E-03
   215 -1.953635397E-03
   216 -1.397162653E-03
   217  6.997686020E-02
   218 -4.792860300E-03
   219  8.957924920E-03
   220  6.668468474E-03
   221  1.114409084E-06
   222  1.831601778E-06
   223 -6.451915597E-03
   224  7.439898258E-03
   225  2.439649276E-02
   226 -6.764849910E-06
   227 -8.847722983E-03
   228  1.020626809E-02
   229  3.345631916E-02
   230  3.974968259E-06
   231 -7.630959622E-03
   232  8.793986733E-03
   233  2.887231445E-02
   234 -3.127919346E-05
   235  3.050474534E-03
   236  3.276604856E-03
   237 -1.965187436E-03
   238  8.069210812E-05
   239 -2.207193306E-03
   240  1.922938041E-03
   241 -1.804507814E-03
   242 -7.745357014E-03
   243 -5.949933273E-03
   244 -7.346912625E-03
   245  9.120940652E-03
   246 -1.297565368E-03
   247  1.952594413E-03
   248  2.609244785E-03
   249  2.148895496E-02
   250  3.388266076E-02
   251  4.916529758E-02
   252  3.375861932E-02
   253 -1.258443999E-03
   254 -1.154420188E-03
   255 -6.966860117E-04
   256  7.204075267E-04
   257  3.822204369E-02
   258  5.427418972E-02
   259  2.413995754E-02
   260 -2.646024005E-03
   261 -2.007487671E-03
   262 -5.432102088E-04
   263 -1.940516808E-02
   264 -3.717438544E-02
   265 -5.270774808E-02
   266 -2.246698585E-02
   267  2.919393789E-03
   268  1.853014671E-03
   269  6.072332568E-05
   270  2.010005419E-02
   271  8.647230146E-02
   272  1.118911874E-01
   273  2.818369172E-02
   274  3.815011692E-03
   275  1.836314273E-03
   276 -3.765063240E-03
   277 -6.290604404E-02
   278  6.640565497E-02
   279  9.123988734E-02
   280  4.499707923E-02
   281 -4.682685932E-04
   282 -1.946080495E-03
   283 -3.290883564E-03
   284  4.958491178E-03
   285 -2.962264677E-02
   286 -3.775183724E-02
   287 -6.180738221E-03
   288  1.689414747E-03
   289 -1.189304127E-03
   290  4.865163752E-03
   291  2.974761755E-02
   292  3.254707870E-03
   293  4.217097425E-03
   294  1.012965981E-03
   295 -2.967508292E-04
   296  2.443313597E-04
   297  3.587661840E-04
   298 -2.304999443E-03
   299 -2.408425934E-03
   300 -3.311283715E-03
   301 -1.607800498E-03
   302  1.695589947E-04
   303 -2.673684633E-04
   304 -1.029080393E-03
   305 -3.338670123E-04
   306  1.084756119E-03
   307  1.385012261E-03
   308  2.627359271E-04
   309  6.125229214E-04
   310 -3.670583901E-04
   311 -1.451138180E-03
   312 -1.100975826E-03
   313 -8.971850542E-02
   314 -1.160789168E-01
   315 -2.927457681E-02
   316 -1.630404235E-03
   317 -4.242670728E-03
   318 -3.724072019E-03
   319  6.546345805E-02
   320 -6.401304560E-02
   321 -8.795233782E-02
   322 -4.343259207E-02
   323  2.232041092E-03
   324 -4.907556655E-06
   325 -2.981188293E-03
   326 -4.721688943E-03
   327  2.857951512E-02
   328  3.643535111E-02
   329  5.849973203E-03
   330 -3.661712769E-03
   331  3.121485629E-03
   332  1.728056851E-03
   333 -2.871326602E-02
   334 -3.231002421E-02
   335 -4.697260912E-02
   336 -3.332846992E-02
   337  1.679255646E-03
   338  7.498385894E-04
   339 -2.119173220E-04
   340 -2.169781034E-03
   341  3.319103809E-03
   342  3.574981710E-03
   343 -1.125130305E-02
   344 -6.119707115E-04
   345 -2.754457216E-06
   346  3.364533810E-03
   347 -2.065801100E-02
   348 -2.039619825E-02
   349 -2.966136453E-02
   350 -1.222944494E-02
   351  1.315579863E-03
   352  1.504155355E-03
   353 -4.943130427E-04
   354 -6.666135797E-03
   355  2.119516211E-02
   356  3.081462448E-02
   357  1.276154086E-02
   358 -1.029912684E-03
   359 -1.804541839E-03
   360 -2.679123624E-04
   361  6.965322493E-03
   362 -7.650379645E-04
   363 -1.110099513E-03
   364 -4.525573245E-04
   365 -4.385083121E-04
   366  4.801628855E-04
   367  1.340390576E-03
   368 -3.660835994E-04
Ene=   -3.7707781119E-01
Spin= Alpha
Occup=   2.0000000
     1  4.000310836E-04
     2  5.300269451E-04
     3  1.012769466E-02
     4  1.374774823E-01
     5 -3.904878282E-02
     6  8.897502032E-04
     7  1.444522733E-02
     8  1.961131627E-01
     9 -5.570581733E-02
    10  1.547025626E-02
    11  1.689727761E-02
    12  2.294574162E-01
    13 -6.516077481E-02
    14 -3.926473041E-03
    15 -3.381099930E-04
    16 -4.557496254E-03
    17 -8.000417559E-03
    18  1.189964362E-03
    19 -1.749026846E-01
    20  1.541856030E-02
    21  2.246247371E-01
    22 -6.455517348E-02
    23  1.014847285E-02
    24  1.602482656E-02
    25 -2.964435212E-02
    26  3.373245929E-02
    27  2.182130971E-02
    28 -4.576159476E-02
    29 -4.202024945E-02
    30  5.006334968E-02
    31  3.045224054E-02
    32 -3.278277831E-02
    33 -2.576324999E-02
    34  2.760708785E-02
    35  1.928937754E-02
    36 -1.489802260E-03
    37  6.890004126E-03
    38 -3.315038850E-03
    39 -4.253920057E-03
    40  3.207384488E-03
    41  2.092991934E-02
    42  1.068962980E-02
    43  4.129363308E-03
    44 -1.109747887E-02
    45  1.014891402E-02
    46  1.602580870E-02
    47  4.352291176E-02
    48  2.376239270E-02
    49  5.763678604E-03
    50 -4.577179890E-02
    51  6.207021233E-02
    52  3.587312543E-02
    53  7.608344889E-03
    54 -3.272468342E-02
    55  3.749377088E-02
    56  1.898211892E-02
    57  5.415863806E-03
    58  2.915302466E-03
    59 -4.005781349E-03
    60 -7.967492617E-04
    61 -7.967459486E-03
    62 -6.510919292E-04
    63  2.951213939E-02
    64 -1.447858562E-02
    65  6.048208855E-03
    66 -5.813947994E-03
    67 -4.971104402E-03
    68 -7.772436242E-03
    69  2.647562939E-02
    70 -1.840830784E-02
    71 -2.203277621E-02
    72  2.072669676E-02
    73  3.805137746E-02
    74 -2.769151363E-02
    75 -3.140817840E-02
    76  2.418889085E-02
    77  4.358382410E-02
    78 -1.548913303E-02
    79 -3.934380646E-02
    80  3.493319139E-03
    81  6.983093623E-03
    82  7.339449336E-03
    83  7.892567445E-03
    84 -2.668102269E-03
    85  1.725278364E-01
    86  4.714624219E-02
    87  1.512020473E-02
    88 -4.864555187E-02
    89 -8.240143453E-03
    90 -1.305700549E-02
    91  3.790619753E-03
    92  6.792842380E-02
    93 -2.483528336E-02
    94  3.867480407E-02
    95  5.101466091E-03
    96  9.589996477E-02
    97 -3.619073136E-02
    98  1.435393761E-02
    99  8.177631682E-03
   100  7.733980376E-02
   101 -1.078035907E-02
   102  7.565430922E-03
   103  2.359767353E-03
   104  5.397881546E-03
   105  6.161177709E-03
   106 -4.266254167E-04
   107 -7.358010714E-02
   108  6.250505728E-03
   109  6.787939645E-03
   110  2.499203766E-02
   111 -4.975576592E-03
   112 -7.779538664E-03
   113 -3.694681823E-02
   114 -9.762214305E-03
   115 -8.120105333E-03
   116  2.074896390E-02
   117 -5.331027748E-02
   118 -1.523024185E-02
   119 -1.136563585E-02
   120  2.419014470E-02
   121 -5.828910969E-02
   122 -1.663645706E-03
   123 -1.700185614E-02
   124  7.718688156E-03
   125 -3.713129859E-03
   126  7.853957690E-03
   127  6.692905674E-03
   128  2.123749997E-03
   129  1.696383533E-01
   130 -5.723314098E-02
   131  2.766238490E-02
   132 -2.539530012E-02
   133 -8.238865132E-03
   134 -1.305481637E-02
   135  1.045067784E-02
   136  6.927848989E-02
   137 -1.808367453E-02
   138  3.866483760E-02
   139  1.585216417E-02
   140  9.809278025E-02
   141 -2.528892809E-02
   142  1.440386858E-02
   143 -5.021905310E-03
   144  7.439236625E-02
   145 -2.431509103E-02
   146  9.098701760E-04
   147  2.720527787E-03
   148  3.602621415E-03
   149  1.040999598E-02
   150 -5.089084292E-04
   151 -6.790006090E-02
   152 -2.439706285E-02
   153  9.530602068E-04
   154 -7.465813863E-03
   155 -4.974935138E-03
   156 -7.778615488E-03
   157  8.394386126E-03
   158 -1.533029388E-05
   159  3.820599765E-02
   160  2.075065691E-02
   161  1.200374029E-02
   162 -1.195960042E-03
   163  5.537508291E-02
   164  2.412793087E-02
   165  1.454349145E-02
   166  1.405571224E-02
   167  5.730978735E-02
   168  2.186339707E-03
   169 -2.118447697E-03
   170  4.051156243E-04
   171  1.275011818E-02
   172 -3.509109064E-03
   173  1.708209294E-01
   174  1.716373734E-02
   175  4.473568680E-02
   176  4.961321354E-02
   177 -8.240972135E-03
   178 -1.305810245E-02
   179  1.097448101E-03
   180  7.059356699E-02
   181 -1.604470979E-02
   182  3.867237698E-02
   183  7.601527882E-04
   184  1.002036271E-01
   185 -2.199763338E-02
   186  1.440559385E-02
   187  1.339607885E-02
   188  7.195193936E-02
   189 -2.836804474E-02
   190  3.642866502E-03
   191 -4.043480884E-03
   192  5.127801124E-03
   193  8.160764296E-03
   194 -2.727129629E-03
   195 -7.117400184E-02
   196  1.906749318E-02
   197 -5.422585084E-03
   198 -1.762666689E-02
   199  1.014065673E-02
   200  1.601260587E-02
   201 -8.746738536E-03
   202  1.253887944E-02
   203 -4.753033944E-02
   204 -4.573304549E-02
   205 -1.228800409E-02
   206  1.991713588E-02
   207 -6.820519317E-02
   208 -3.268360836E-02
   209 -7.695301930E-03
   210  9.273583519E-03
   211 -4.063945809E-02
   212 -7.957496232E-03
   213 -3.443864101E-03
   214 -3.501416498E-03
   215 -1.097401897E-03
   216 -5.865114751E-04
   217  2.082374206E-02
   218  3.760202456E-03
   219  1.046104262E-02
   220  1.084333726E-02
   221 -3.333728422E-03
   222 -5.400262095E-03
   223 -9.298703320E-03
   224 -1.264381161E-01
   225  3.599691503E-02
   226  2.175715842E-02
   227 -1.333043647E-02
   228 -1.812856998E-01
   229  5.161115235E-02
   230 -8.201645504E-02
   231 -6.599398801E-03
   232 -8.962397336E-02
   233  2.555460967E-02
   234 -4.962682649E-03
   235 -4.226298496E-04
   236 -5.772590004E-03
   237 -1.014079080E-02
   238  1.509892701E-03
   239 -2.026852386E-01
   240  2.495388186E-03
   241  3.177151726E-02
   242 -9.035676466E-03
   243  1.524801395E-02
   244  2.220872389E-02
   245  9.645716948E-03
   246  2.784885637E-04
   247  1.102370898E-03
   248  1.696737043E-03
   249  3.664303193E-03
   250  1.517193763E-02
   251  2.211221494E-02
   252  9.620692322E-03
   253 -1.876070695E-03
   254  6.418208564E-04
   255 -4.976517426E-04
   256  3.481944984E-03
   257  1.517620038E-02
   258  2.213108815E-02
   259  9.371381890E-03
   260  1.600637216E-03
   261  1.676040435E-04
   262 -1.260646403E-03
   263  3.642189735E-03
   264  1.523162914E-02
   265  2.219215501E-02
   266  9.503213307E-03
   267  7.381918583E-04
   268  1.039221137E-03
   269  1.595853277E-03
   270  4.142122329E-03
   271 -2.395884237E-02
   272 -2.787567801E-02
   273 -7.288088308E-03
   274 -6.569019034E-04
   275 -4.520145544E-04
   276  7.392865589E-04
   277  2.446500505E-02
   278  2.698795299E-02
   279  3.466445430E-02
   280  7.797117484E-03
   281 -4.882865931E-04
   282  2.595832674E-03
   283 -3.829595802E-03
   284 -1.805712317E-02
   285 -6.002480540E-02
   286 -8.469767362E-02
   287 -4.743481826E-02
   288 -3.335604047E-05
   289 -2.867848665E-03
   290  1.626850993E-03
   291  2.659936230E-03
   292 -2.397409678E-02
   293 -2.789689968E-02
   294 -7.280193494E-03
   295  7.644552279E-04
   296 -6.448132092E-04
   297  4.270439473E-04
   298  2.429471091E-02
   299  2.689959408E-02
   300  3.456555947E-02
   301  7.485990533E-03
   302  3.179009032E-03
   303  3.389625187E-03
   304 -8.215930419E-05
   305 -1.795019148E-02
   306 -5.996385215E-02
   307 -8.461156933E-02
   308 -4.759954039E-02
   309 -9.941467204E-04
   310 -3.073581446E-03
   311  6.406722990E-04
   312  3.173847198E-03
   313 -2.398830493E-02
   314 -2.790388051E-02
   315 -7.291951631E-03
   316 -2.513214992E-04
   317 -8.673376889E-04
   318 -6.071807861E-04
   319  2.437718924E-02
   320  2.692346260E-02
   321  3.458612305E-02
   322  7.628002088E-03
   323 -1.951600573E-03
   324  4.089533496E-03
   325  1.044965389E-03
   326 -1.838728237E-02
   327 -6.000008991E-02
   328 -8.467207985E-02
   329 -4.741494537E-02
   330  3.486851470E-04
   331 -3.259153076E-03
   332  3.461143802E-04
   333  3.094409086E-03
   334  1.520693422E-02
   335  2.214991936E-02
   336  9.680215892E-03
   337 -1.742894490E-03
   338  5.072983241E-04
   339 -9.385705088E-04
   340  3.637386379E-03
   341  1.523431424E-02
   342  2.218824543E-02
   343  9.624185589E-03
   344  1.269519529E-03
   345  9.649292102E-05
   346 -1.598358348E-03
   347  3.493056324E-03
   348 -3.787398465E-02
   349 -4.939785309E-02
   350 -2.713194567E-02
   351  3.280622834E-03
   352 -7.285851882E-03
   353 -1.661727520E-03
   354 -7.007602908E-03
   355 -3.773458652E-02
   356 -4.921180925E-02
   357 -2.701794443E-02
   358  7.936409154E-04
   359 -4.771879276E-03
   360  6.572203969E-03
   361 -6.801696596E-03
   362 -3.789038540E-02
   363 -4.942540413E-02
   364 -2.717025388E-02
   365 -5.414886775E-03
   366 -6.101769518E-03
   367  2.444843456E-04
   368 -6.856544387E-03
Ene=   -3.7102931150E-01
Spin= Alpha
Occup=   2.0000000
     1 -3.152003191E-06
     2 -5.007361716E-06
     3  1.213869077E-02
     4 -2.599393725E-03
     5 -5.999575211E-03
     6  1.324647284E-05
     7  1.891637468E-02
     8 -4.049790273E-03
     9 -9.348063549E-03
    10  3.841935144E-05
    11  3.888427470E-03
    12 -8.389662311E-04
    13 -1.924354790E-03
    14 -1.141608380E-03
    15 -3.179679023E-03
    16  4.652014577E-03
    17 -3.505115585E-03
    18 -1.040271104E-02
    19  1.648232972E-03
    20 -8.295862947E-02
    21  1.690739844E-02
    22  4.049509247E-02
    23  2.483216814E-03
    24  3.936793410E-03
    25  1.985722215E-02
    26 -3.728473290E-02
    27  2.424020859E-02
    28 -1.018734606E-02
    29  2.804609642E-02
    30 -5.553465600E-02
    31  3.574527410E-02
    32 -3.121591152E-02
    33  2.555628529E-02
    34 -3.100373139E-02
    35  2.724771509E-02
    36 -2.128765141E-03
    37 -1.723170709E-03
    38 -1.495459945E-03
    39 -8.031465477E-03
    40  2.131498264E-03
    41 -2.826831924E-01
    42 -4.224119331E-02
    43  2.358823747E-02
    44  5.139223740E-02
    45 -1.855810940E-03
    46 -2.942292818E-03
    47  2.513709626E-02
    48  1.136802775E-02
    49 -6.574020654E-02
    50  7.619334705E-03
    51  3.590193652E-02
    52  1.786952076E-02
    53 -9.505029720E-02
    54  2.325863329E-02
    55  3.023784649E-02
    56  2.352534158E-03
    57 -8.077856149E-02
    58  2.599244952E-03
    59 -5.854677728E-03
    60 -2.084988013E-03
    61  7.695118067E-03
    62 -1.198907923E-03
    63  2.106165331E-01
    64 -4.279591970E-02
    65 -1.171024533E-02
    66 -3.756819061E-02
    67 -5.454485394E-03
    68 -8.580418677E-03
    69  9.992486912E-03
    70  4.113575688E-02
    71 -2.212176103E-02
    72  2.386866996E-02
    73  1.402792137E-02
    74  6.021283070E-02
    75 -3.201228817E-02
    76  3.301389335E-02
    77  1.891937777E-02
    78  4.746279038E-02
    79 -3.201285708E-02
    80  8.958202626E-04
    81  2.569278958E-03
    82 -1.430742854E-04
    83  3.384245346E-05
    84  2.458541720E-03
    85  1.157876640E-01
    86  3.584769836E-02
    87  5.064801621E-03
    88 -2.642661404E-02
    89 -1.028307795E-03
    90 -1.630674999E-03
    91  1.595572614E-02
    92  1.515330056E-02
    93  7.143337087E-04
    94  4.778890737E-03
    95  2.434236931E-02
    96  2.189194510E-02
    97  6.405941982E-04
    98  3.859674899E-03
    99  1.783518067E-02
   100  1.855175752E-02
   101  2.759919911E-03
   102  1.550782447E-03
   103  4.140891210E-04
   104  2.244091074E-03
   105 -3.462650673E-04
   106 -3.728201604E-03
   107  1.786341885E-02
   108  1.011078854E-02
   109  1.087390880E-02
   110 -2.244228333E-03
   111  4.074884576E-03
   112  6.410290692E-03
   113  4.226886590E-03
   114 -3.119756115E-02
   115  1.789929341E-02
   116 -1.783399183E-02
   117  5.609629728E-03
   118 -4.545746327E-02
   119  2.638638483E-02
   120 -2.465546203E-02
   121  1.190695916E-02
   122 -3.793540121E-02
   123  2.196440178E-02
   124 -1.512276991E-03
   125 -6.638612053E-04
   126 -2.375920436E-03
   127  2.215365091E-03
   128  1.298764670E-03
   129 -8.566744355E-02
   130  3.351582698E-02
   131 -1.496288133E-02
   132 -3.974437737E-03
   133 -3.034390146E-03
   134 -4.811282606E-03
   135 -1.755291391E-02
   136  4.091010803E-02
   137 -2.817765438E-02
   138  1.408174997E-02
   139 -2.489400789E-02
   140  5.940056650E-02
   141 -4.169872466E-02
   142  1.162953320E-02
   143 -2.575771771E-02
   144  4.868716189E-02
   145 -3.379604821E-02
   146 -1.857879304E-03
   147  1.871332799E-03
   148  3.332588186E-03
   149  5.298484666E-03
   150 -2.168373848E-03
   151  6.055046595E-02
   152 -2.146365675E-03
   153  3.217338614E-02
   154 -1.775166967E-02
   155  1.380923679E-03
   156  2.172138512E-03
   157 -1.031559269E-02
   158 -1.078092570E-02
   159  2.301588275E-03
   160 -6.035500572E-03
   161 -1.558192008E-02
   162 -1.563286782E-02
   163  3.636003242E-03
   164 -8.441728659E-03
   165 -1.077927994E-02
   166 -1.385037072E-02
   167  1.170019192E-04
   168  1.863141398E-03
   169 -2.553427178E-03
   170 -2.666490167E-04
   171 -3.093591477E-04
   172  2.540374728E-03
   173 -3.452857548E-02
   174  2.033681619E-02
   175 -9.644861968E-03
   176 -1.505368252E-02
   177  4.066510453E-03
   178  6.448419412E-03
   179 -2.523577226E-02
   180 -5.033782637E-02
   181  4.068521076E-02
   182 -1.888832730E-02
   183 -3.609369961E-02
   184 -7.347489207E-02
   185  5.911558557E-02
   186 -1.540236092E-02
   187 -3.493060967E-02
   188 -5.807440821E-02
   189  5.214168702E-02
   190 -2.178903175E-03
   191  4.846640375E-03
   192 -3.298543020E-03
   193 -6.125251736E-03
   194  5.677218262E-04
   195 -7.432029402E-02
   196 -9.102259310E-03
   197 -4.202108841E-02
   198  2.100466626E-02
   199 -6.265588221E-04
   200 -9.931353818E-04
   201  8.689273187E-02
   202 -2.297665702E-03
   203 -2.357373083E-02
   204  2.564417898E-03
   205  1.249886359E-01
   206 -2.750682775E-03
   207 -3.392164574E-02
   208  7.946447113E-03
   209  1.107246175E-01
   210 -7.015092127E-03
   211 -2.859594318E-02
   212  4.284515547E-03
   213 -9.486581137E-03
   214  1.121172692E-03
   215  1.025791405E-03
   216  5.072274295E-03
   217  7.063235508E-02
   218  3.926977267E-02
   219 -2.046552235E-03
   220  8.830239591E-03
   221 -6.098476789E-08
   222 -2.621004106E-07
   223 -1.271851830E-01
   224  2.719830729E-02
   225  6.275854797E-02
   226  2.985803943E-06
   227 -1.814662092E-01
   228  3.880627577E-02
   229  8.954359281E-02
   230 -2.387064534E-05
   231 -1.385732941E-01
   232  2.963815517E-02
   233  6.836764712E-02
   234 -4.813688732E-03
   235  1.649808144E-02
   236  2.945867485E-03
   237 -1.068624391E-03
   238 -7.077911495E-03
   239  3.153957038E-04
   240 -8.945618680E-03
   241  1.821042267E-03
   242  4.406382797E-03
   243 -3.614783007E-02
   244 -4.800299377E-02
   245 -1.161774538E-02
   246 -2.724262902E-03
   247  4.557852131E-05
   248 -3.540181295E-04
   249 -3.584671335E-03
   250  5.998858382E-05
   251 -1.116544107E-03
   252  6.815718977E-03
   253  9.534754929E-04
   254 -1.667380875E-03
   255  1.050594059E-03
   256 -8.983627082E-03
   257 -3.245396288E-02
   258 -4.112028011E-02
   259 -2.173620258E-02
   260  2.318873722E-03
   261  2.846636560E-03
   262 -1.624097136E-04
   263  1.117963429E-02
   264  5.941357949E-02
   265  7.781836355E-02
   266  2.523430348E-02
   267 -3.863847176E-03
   268 -8.193667668E-04
   269  1.769407784E-03
   270 -1.768531802E-03
   271 -1.780044216E-02
   272 -2.281776613E-02
   273 -5.068794348E-03
   274 -1.082248609E-03
   275  2.223776743E-03
   276  4.487675310E-04
   277  9.326866893E-03
   278  1.204120033E-02
   279  1.538097231E-02
   280  4.390334007E-03
   281  2.197342054E-04
   282 -2.183081964E-04
   283 -1.027029055E-03
   284 -2.647205611E-03
   285 -1.261951622E-02
   286 -1.644803984E-02
   287 -7.745171981E-03
   288  1.764078666E-03
   289 -8.114023634E-04
   290  1.323453692E-04
   291  4.444397871E-03
   292  1.329922972E-02
   293  1.705118099E-02
   294  3.803313460E-03
   295 -1.318743023E-03
   296 -1.327636202E-03
   297  2.840063193E-04
   298 -6.686417559E-03
   299  3.556914624E-02
   300  4.543832291E-02
   301  1.294831018E-02
   302  2.840484468E-03
   303  1.800204720E-04
   304  4.400355876E-04
   305 -7.126714218E-03
   306 -3.726580869E-02
   307 -4.856596604E-02
   308 -2.307613257E-02
   309 -7.709518059E-04
   310 -2.327658303E-03
   311 -9.140370721E-04
   312  1.330750564E-02
   313  4.511835714E-03
   314  5.774801813E-03
   315  1.387141960E-03
   316 -2.767753951E-04
   317 -3.229306942E-04
   318  5.886105091E-04
   319 -2.548222192E-03
   320 -4.761995484E-02
   321 -6.082017952E-02
   322 -1.749093277E-02
   323  2.808037611E-03
   324 -1.216465000E-03
   325 -2.309864667E-03
   326  9.505445284E-03
   327  4.988776997E-02
   328  6.502165380E-02
   329  3.075673322E-02
   330 -4.412775110E-04
   331  3.019860860E-03
   332  5.081737257E-04
   333 -1.769765810E-02
   334  6.860211083E-02
   335  8.911895504E-02
   336  3.338762072E-02
   337 -1.330543805E-03
   338 -1.505882476E-03
   339  4.941469255E-03
   340 -7.550755270E-03
   341 -5.946976506E-02
   342 -7.670279096E-02
   343 -3.206460334E-02
   344 -1.894459893E-03
   345  2.502888987E-03
   346 -4.018987250E-03
   347  1.056047539E-02
   348 -1.165006553E-01
   349 -1.605687812E-01
   350 -7.675093102E-02
   351  3.966697598E-03
   352  2.527685161E-03
   353 -7.907647989E-03
   354 -5.629773309E-03
   355  2.949552105E-02
   356  4.064677788E-02
   357  1.947170716E-02
   358 -8.983153447E-03
   359 -4.979102943E-04
   360  4.270993147E-04
   361  1.490841292E-03
   362  8.700430180E-02
   363  1.199146954E-01
   364  5.730908859E-02
   365  3.319344558E-03
   366 -1.666936479E-03
   367  8.318225231E-03
   368  4.234416903E-03
Ene=   -3.7102539081E-01
Spin= Alpha
Occup=   2.0000000
     1 -1.122275133E-07
     2 -4.599347055E-08
     3 -6.452849153E-03
     4 -2.981943643E-03
     5 -1.179855128E-02
     6 -1.073324000E-06
     7 -1.005632531E-02
     8 -4.633230941E-03
     9 -1.838977599E-02
    10 -1.933869883E-05
    11 -2.059818464E-03
    12 -1.090476095E-03
    13 -3.760705975E-03
    14 -9.352229262E-03
    15 -2.057225622E-03
    16  6.550210985E-03
    17  1.541882783E-03
    18  4.064370730E-03
    19 -6.987427569E-04
    20  4.288170074E-02
    21  2.056441800E-02
    22  7.931515433E-02
    23  7.012702523E-04
    24  1.112031567E-03
    25 -6.066737771E-02
    26 -2.499637646E-02
    27 -6.083619633E-02
    28 -2.881888787E-03
    29 -8.736307954E-02
    30 -3.648831708E-02
    31 -8.720526839E-02
    32 -8.784515049E-03
    33 -7.739157062E-02
    34 -2.719799730E-02
    35 -7.874274104E-02
    36 -5.105000668E-03
    37  1.158534618E-03
    38 -8.140581854E-03
    39  3.342371117E-03
    40 -5.524732240E-03
    41 -7.789206687E-02
    42 -3.870697411E-02
    43 -4.642095294E-05
    44 -1.244064651E-02
    45  1.788215535E-03
    46  2.835195199E-03
    47  1.108288900E-02
    48 -4.715840372E-02
    49 -5.432778875E-02
    50 -7.335866197E-03
    51  1.616183108E-02
    52 -6.927928121E-02
    53 -7.758131089E-02
    54 -2.253738360E-02
    55  1.597877301E-02
    56 -4.840933890E-02
    57 -7.243466471E-02
    58 -3.214369470E-03
    59 -5.652552622E-03
    60 -8.030787689E-03
    61 -9.649596217E-04
    62  6.382218772E-04
    63 -1.993893358E-01
    64  5.513115798E-02
    65 -3.820722710E-03
    66 -1.157802259E-02
    67 -1.551886169E-03
    68 -2.441362210E-03
    69  9.543512940E-03
    70  1.319945554E-02
    71  5.665649413E-04
    72  6.793155493E-03
    73  1.419911553E-02
    74  1.940859584E-02
    75  1.345114912E-03
    76  9.386711237E-03
    77  1.179547278E-02
    78  1.492182947E-02
    79 -2.520390131E-03
    80 -5.973208775E-04
    81  1.343487609E-03
    82 -2.911576267E-03
    83  1.666427454E-03
    84 -1.769574658E-03
    85  3.111373971E-02
    86 -7.391003338E-03
    87 -2.963405886E-03
    88 -2.562652562E-02
    89 -4.093627878E-03
    90 -6.491317448E-03
    91  9.056044401E-03
    92  6.780548397E-02
    93  1.488599796E-02
    94  1.900989940E-02
    95  1.276202302E-02
    96  9.871119477E-02
    97  2.115319430E-02
    98  1.555781663E-02
    99  1.266920345E-02
   100  8.186170406E-02
   101  2.377089736E-02
   102  5.689408372E-03
   103  2.387908085E-03
   104  5.130404196E-03
   105  3.408292867E-03
   106  1.364782574E-03
   107  7.303288049E-02
   108  3.202419550E-03
   109  4.772227785E-02
   110 -2.044518345E-03
   111 -3.942115337E-03
   112 -6.201275456E-03
   113 -7.662562191E-03
   114  3.388507389E-02
   115 -5.379346181E-03
   116  1.724784500E-02
   117 -1.086769521E-02
   118  4.961755725E-02
   119 -7.339795330E-03
   120  2.389067065E-02
   121 -1.499335766E-02
   122  4.024984319E-02
   123 -9.829646362E-03
   124  1.942535261E-03
   125 -2.696142881E-03
   126 -1.727383975E-03
   127  8.509398605E-05
   128 -1.021042079E-03
   129  8.427660962E-02
   130 -2.406684692E-02
   131  4.349153699E-03
   132 -2.695923919E-02
   133  2.947461835E-03
   134  4.673937292E-03
   135  2.227054393E-02
   136 -4.503627052E-02
   137  9.760628364E-03
   138 -1.369339859E-02
   139  3.225289763E-02
   140 -6.588993423E-02
   141  1.330178971E-02
   142 -1.112446188E-02
   143  3.064981104E-02
   144 -5.291554118E-02
   145  1.393879561E-02
   146 -1.530593877E-03
   147 -2.713337177E-03
   148  1.015399734E-03
   149 -6.175144676E-03
   150  1.962272969E-04
   151 -5.458544752E-02
   152  6.404760160E-03
   153 -3.397008451E-02
   154  5.412444676E-03
   155  5.504943663E-03
   156  8.659741245E-03
   157 -3.976187304E-03
   158 -4.798384144E-02
   159  9.917852192E-04
   160 -2.408592130E-02
   161 -5.515681267E-03
   162 -6.994948335E-02
   163  2.019704641E-03
   164 -3.335475935E-02
   165 -7.490577371E-03
   166 -5.990731257E-02
   167 -7.184051285E-03
   168  2.632480944E-03
   169  2.116637967E-03
   170 -5.268583923E-04
   171 -1.279457949E-03
   172 -3.502577743E-04
   173 -1.170819629E-01
   174 -1.732778214E-02
   175 -2.366741436E-02
   176 -3.410193890E-02
   177  1.165768265E-03
   178  1.848629096E-03
   179 -1.705238235E-02
   180 -1.653760198E-02
   181  1.552183655E-03
   182 -5.415126719E-03
   183 -2.552152199E-02
   184 -2.431838339E-02
   185  1.328471046E-03
   186 -4.413031564E-03
   187 -2.051670665E-02
   188 -1.890359531E-02
   189  4.114819190E-03
   190 -3.236560152E-03
   191  9.017668088E-04
   192  1.261821986E-03
   193 -1.314258492E-03
   194  2.848292966E-03
   195 -2.003969568E-02
   196 -9.216790441E-03
   197 -1.308702529E-02
   198 -7.708264021E-04
   199 -2.509764105E-03
   200 -3.978792717E-03
   201 -2.057521516E-02
   202  4.076203612E-02
   203 -1.339162416E-02
   204  1.029688994E-02
   205 -2.930950723E-02
   206  6.078968555E-02
   207 -1.937950822E-02
   208  3.151783282E-02
   209 -2.715959573E-02
   210  3.597985877E-02
   211 -1.114253578E-02
   212  1.377354478E-03
   213  2.163249287E-03
   214  3.638054991E-03
   215  7.201230200E-03
   216 -2.470946779E-03
   217  2.818242384E-01
   218  7.489339763E-03
   219  1.300967603E-02
   220  6.835037620E-02
   221  2.200877458E-06
   222  3.635216173E-06
   223  6.763612142E-02
   224  3.028254009E-02
   225  1.239357573E-01
   226 -1.510875870E-05
   227  9.650412122E-02
   228  4.320617580E-02
   229  1.768305746E-01
   230  5.963514133E-05
   231  7.367606779E-02
   232  3.297040241E-02
   233  1.350306181E-01
   234  5.834939478E-03
   235  2.068786285E-03
   236  1.310116143E-02
   237 -9.267400690E-03
   238  7.705501045E-03
   239 -6.126889560E-04
   240  4.800540534E-03
   241  2.160381742E-03
   242  8.798366638E-03
   243  5.833629630E-02
   244  7.518524677E-02
   245  3.175967089E-02
   246  3.171552426E-03
   247 -3.890269466E-03
   248 -5.259973118E-04
   249 -1.048780780E-02
   250 -6.865193666E-02
   251 -8.921582534E-02
   252 -3.323539873E-02
   253 -1.116794110E-03
   254  3.979406933E-03
   255  3.336962590E-03
   256  6.977857299E-03
   257 -6.050558538E-02
   258 -7.919273054E-02
   259 -2.610227461E-02
   260  2.576943483E-03
   261  2.298403961E-03
   262  2.754493775E-03
   263  2.157121203E-03
   264  3.436693500E-02
   265  4.363841622E-02
   266  2.239911925E-02
   267 -2.452137050E-03
   268 -2.868875189E-03
   269  2.394664914E-04
   270 -1.114881340E-02
   271 -5.053901644E-03
   272 -6.491729374E-03
   273 -1.338246494E-03
   274 -4.871593691E-05
   275  6.910038225E-04
   276  3.927867100E-04
   277  2.675171232E-03
   278  4.802406727E-02
   279  6.132768102E-02
   280  1.776483931E-02
   281 -1.011259450E-03
   282 -6.154822030E-04
   283 -3.678532541E-03
   284 -9.633711737E-03
   285 -5.027437139E-02
   286 -6.552331019E-02
   287 -3.094431366E-02
   288 -2.968951701E-04
   289 -2.235560529E-03
   290  2.141080971E-03
   291  1.744207630E-02
   292 -1.286849167E-02
   293 -1.649418191E-02
   294 -3.687996981E-03
   295  1.137814992E-03
   296  1.428018446E-03
   297  1.872142623E-04
   298  6.864471596E-03
   299 -3.447397751E-02
   300 -4.403796518E-02
   301 -1.266703182E-02
   302 -2.572310683E-03
   303 -3.621552841E-04
   304 -1.033263832E-03
   305  6.857242178E-03
   306  3.612962967E-02
   307  4.709164652E-02
   308  2.230680822E-02
   309  1.455527437E-03
   310  1.533308128E-03
   311 -1.471628123E-03
   312 -1.259623528E-02
   313  1.797779677E-02
   314  2.304935139E-02
   315  5.135951379E-03
   316  3.340576007E-04
   317 -1.480904732E-03
   318  2.029748277E-03
   319 -9.245881578E-03
   320 -1.359993385E-02
   321 -1.736320762E-02
   322 -5.089287748E-03
   323  4.614177857E-04
   324 -4.237429636E-04
   325 -1.007029291E-03
   326  2.680485040E-03
   327  1.427216432E-02
   328  1.861319713E-02
   329  8.723493614E-03
   330 -1.451226108E-03
   331  5.772118214E-04
   332 -1.208197893E-03
   333 -4.963715015E-03
   334  2.114986793E-03
   335  3.937629766E-03
   336 -5.711831949E-03
   337 -1.122897376E-03
   338  1.751842197E-03
   339 -4.656458982E-04
   340  8.440407712E-03
   341  3.426083256E-02
   342  4.555989639E-02
   343  1.069471578E-02
   344  2.420471083E-03
   345  2.804120019E-04
   346  1.036996429E-03
   347  3.865601148E-03
   348 -3.316810870E-02
   349 -4.571842222E-02
   350 -2.185443975E-02
   351  7.597170842E-03
   352  2.122469501E-03
   353  4.354200081E-03
   354 -1.553607985E-03
   355  1.175121312E-01
   356  1.619595708E-01
   357  7.738789321E-02
   358 -2.006234275E-05
   359 -6.846281315E-03
   360 -6.152153779E-03
   361  5.762687827E-03
   362 -8.425826877E-02
   363 -1.161295408E-01
   364 -5.558926980E-02
   365 -6.672651834E-03
   366  5.140604357E-03
   367  3.447975761E-03
   368 -4.047093630E-03
Ene=   -3.2779091702E-01
Spin= Alpha
Occup=   2.0000000
     1 -1.176076861E-06
     2 -1.905319825E-06
     3  3.141371053E-02
     4  1.063322801E-02
     5  4.560692347E-02
     6  4.978943210E-06
     7  4.583193138E-02
     8  1.551309211E-02
     9  6.653391218E-02
    10  1.759293396E-05
    11  3.492492433E-02
    12  1.182254604E-02
    13  5.074196852E-02
    14  5.581382922E-03
    15  1.338616630E-03
    16 -9.629900634E-03
    17  1.618915613E-03
    18 -7.318495178E-03
    19  1.925133038E-03
    20  1.546697415E-02
    21  4.913688480E-03
    22  2.293975463E-02
    23 -2.135924524E-03
    24 -3.395168689E-03
    25  2.116722286E-02
    26 -1.641816357E-02
    27  8.141121812E-03
    28  9.967946339E-03
    29  3.023838318E-02
    30 -2.405048658E-02
    31  1.137883525E-02
    32  1.054090494E-02
    33  2.535692523E-02
    34 -2.060271769E-02
    35  9.264435878E-03
    36 -4.128808985E-03
    37 -2.626738394E-03
    38  3.162862232E-03
    39 -9.861231244E-04
    40  6.233665487E-03
    41 -2.115465590E-02
    42  4.588452981E-03
    43  5.945749849E-03
    44  8.337695889E-03
    45 -9.418163817E-03
    46 -1.497068798E-02
    47 -6.680475184E-02
    48 -6.683981692E-02
    49  1.306123420E-02
    50  4.395425858E-02
    51 -9.684094408E-02
    52 -9.767722915E-02
    53  1.872192546E-02
    54  4.643229043E-02
    55 -8.247936100E-02
    56 -8.326216358E-02
    57  1.551805831E-02
    58 -8.396777088E-03
    59  4.154315008E-03
    60 -2.567355375E-03
    61 -5.365664355E-03
    62 -6.247437205E-03
    63 -9.360027306E-02
    64  1.415713472E-02
    65  1.866396060E-02
    66  5.309133045E-03
    67 -4.665805050E-05
    68 -7.297647297E-05
    69 -5.372180415E-02
    70  6.863520012E-03
    71 -5.323687849E-02
    72  1.959356985E-04
    73 -7.870469906E-02
    74  1.020718705E-02
    75 -7.792606419E-02
    76  2.598433632E-04
    77 -5.006997193E-02
    78  7.246937209E-03
    79 -5.027701333E-02
    80  1.105667408E-02
    81 -9.701727888E-04
    82  7.458458007E-04
    83 -8.874236367E-03
    84  8.152869185E-04
    85  1.741261731E-03
    86 -1.556958940E-02
    87  3.409734301E-03
    88 -1.515767795E-02
    89  1.115753661E-02
    90  1.772175071E-02
    91  7.007373887E-03
    92 -6.460754624E-02
    93  9.638266695E-02
    94 -5.140747759E-02
    95  1.014658697E-02
    96 -9.315483784E-02
    97  1.404048895E-01
    98 -6.628139575E-02
    99  9.704151933E-03
   100 -8.123875428E-02
   101  1.210841277E-01
   102 -2.887090309E-04
   103  4.445901085E-03
   104 -2.625012792E-03
   105 -1.320448887E-02
   106  6.833373996E-03
   107  6.964779490E-02
   108 -5.188742090E-03
   109 -5.694064146E-03
   110 -2.017160551E-02
   111 -2.006502358E-04
   112 -3.129494690E-04
   113  4.165972867E-02
   114  5.968810646E-02
   115 -5.803869832E-02
   116  8.126169529E-04
   117  6.140566260E-02
   118  8.799871274E-02
   119 -8.503131045E-02
   120  1.433482115E-03
   121  3.805070255E-02
   122  5.971597828E-02
   123 -5.582242132E-02
   124  9.235728709E-04
   125  8.183328831E-03
   126 -6.711964843E-03
   127 -1.118687654E-02
   128 -1.231928834E-03
   129  2.874625360E-02
   130  9.834586533E-03
   131  2.295881928E-02
   132 -1.901731797E-02
   133 -9.092045504E-03
   134 -1.444100265E-02
   135  6.722163864E-02
   136  6.646679003E-02
   137 -1.088247118E-02
   138  4.188853188E-02
   139  9.814562944E-02
   140  9.601011432E-02
   141 -1.593120751E-02
   142  5.405363398E-02
   143  8.413704222E-02
   144  8.402149395E-02
   145 -1.196946407E-02
   146  3.944006034E-03
   147 -6.560547093E-03
   148  1.091217166E-02
   149  4.528470344E-03
   150 -2.354502953E-03
   151 -5.449366435E-02
   152 -1.644427707E-02
   153  6.690211727E-04
   154 -4.031953429E-03
   155  2.456689897E-04
   156  3.832128960E-04
   157 -2.427785551E-02
   158 -7.884389950E-02
   159  5.848507534E-02
   160 -9.989968187E-04
   161 -3.548498877E-02
   162 -1.160578271E-01
   163  8.628195710E-02
   164 -1.688678437E-03
   165 -2.343590761E-02
   166 -7.895451635E-02
   167  5.463195306E-02
   168  9.863964954E-03
   169 -3.594682188E-03
   170  1.279108705E-03
   171  1.108233796E-02
   172 -4.928342956E-03
   173 -2.833235860E-02
   174 -7.666284499E-03
   175 -3.055290250E-02
   176  1.698943572E-02
   177 -2.061276921E-03
   178 -3.274309021E-03
   179 -1.948113200E-02
   180  1.665795493E-02
   181 -6.008249307E-03
   182  9.506585676E-03
   183 -2.880352720E-02
   184  2.402750443E-02
   185 -9.067598856E-03
   186  1.214748644E-02
   187 -2.261118455E-02
   188  2.133265308E-02
   189 -5.628799946E-03
   190 -7.228639705E-03
   191  9.237857873E-04
   192  4.745664783E-03
   193  4.444817330E-03
   194  5.058352891E-03
   195 -1.706517037E-02
   196  4.343074897E-03
   197 -1.184451775E-03
   198 -2.338370086E-03
   199  1.155290373E-02
   200  1.836346656E-02
   201 -5.686135648E-03
   202  6.586750783E-02
   203 -9.570982329E-02
   204 -5.390389511E-02
   205 -8.418105174E-03
   206  9.631206984E-02
   207 -1.390080032E-01
   208 -5.709102050E-02
   209 -7.417578075E-03
   210  8.196619292E-02
   211 -1.184949859E-01
   212  2.655248799E-03
   213 -2.871307103E-03
   214 -4.342513119E-03
   215  1.312477821E-02
   216 -1.710921652E-03
   217  1.119336626E-01
   218  6.340005655E-03
   219 -1.641422551E-02
   220  2.219411152E-02
   221 -1.269331564E-06
   222 -2.084259641E-06
   223 -4.491352237E-04
   224 -1.480274660E-04
   225 -6.205702893E-04
   226  7.691704013E-06
   227  7.300937661E-04
   228  2.524403023E-04
   229  1.108581811E-03
   230 -7.577936715E-06
   231 -4.150266074E-03
   232 -1.394606122E-03
   233 -6.005417651E-03
   234  2.536350563E-03
   235  4.768213036E-04
   236 -1.614738782E-03
   237 -5.473536084E-04
   238 -1.380219216E-03
   239  4.218720164E-04
   240 -9.011084767E-03
   241 -3.151960722E-03
   242 -1.310076952E-02
   243 -2.360236621E-02
   244 -3.424827025E-02
   245 -1.885066309E-02
   246 -1.485390691E-03
   247 -2.147380876E-04
   248 -5.431784795E-04
   249  4.401441094E-03
   250  4.692661743E-03
   251  6.031025375E-03
   252  4.996099574E-03
   253  1.179891377E-03
   254 -1.077365720E-03
   255 -5.972502177E-05
   256 -1.106567210E-02
   257 -3.248916102E-02
   258 -4.910673942E-02
   259 -2.297253037E-02
   260 -2.955137003E-03
   261 -1.367626916E-03
   262  4.171043799E-03
   263 -1.947300284E-02
   264 -5.085967433E-02
   265 -7.525577727E-02
   266 -3.854390058E-02
   267  7.096825127E-04
   268 -3.429008228E-03
   269 -3.963624903E-03
   270 -9.582467533E-03
   271 -5.091476085E-04
   272 -6.442175382E-04
   273 -2.748084614E-04
   274 -2.852153974E-03
   275  3.942416565E-04
   276 -2.756425116E-03
   277 -2.673380478E-04
   278  2.970507941E-02
   279  4.685014251E-02
   280  2.163202313E-02
   281 -6.569935580E-04
   282 -6.073136355E-03
   283  2.275389570E-03
   284  2.406204626E-02
   285  7.345340591E-02
   286  1.092227066E-01
   287  5.564906137E-02
   288  1.131738829E-03
   289  5.494083467E-03
   290  3.175150156E-03
   291  1.336014147E-02
   292 -2.235198811E-03
   293 -2.806855206E-03
   294 -1.530684965E-03
   295  2.426263743E-03
   296  3.222220166E-03
   297 -2.993825608E-03
   298  3.342575397E-04
   299 -2.424826379E-02
   300 -3.823977741E-02
   301 -1.766021185E-02
   302  9.040812976E-04
   303  4.910849460E-03
   304 -1.892505946E-03
   305 -1.934609115E-02
   306 -5.983449163E-02
   307 -8.897177165E-02
   308 -4.537569836E-02
   309  3.510160312E-03
   310 -3.630635700E-03
   311  1.537698127E-03
   312 -1.080064272E-02
   313  2.746001915E-03
   314  3.464008508E-03
   315  1.714208476E-03
   316 -1.205975660E-03
   317 -4.167665669E-03
   318  3.381532612E-03
   319 -4.220514532E-04
   320 -5.474242539E-03
   321 -8.639634737E-03
   322 -3.923933377E-03
   323 -6.258398787E-04
   324  1.033092174E-03
   325 -9.303150826E-04
   326 -4.643699882E-03
   327 -1.359462332E-02
   328 -2.022374311E-02
   329 -1.015109522E-02
   330 -1.288323657E-03
   331 -7.261803022E-04
   332  1.544511348E-04
   333 -2.345637279E-03
   334  5.596890694E-02
   335  8.317811230E-02
   336  4.182376253E-02
   337 -5.563819181E-03
   338  3.214248477E-03
   339 -4.979566135E-04
   340  1.525855169E-02
   341  4.627622659E-02
   342  6.937171682E-02
   343  3.369749006E-02
   344  5.078040454E-03
   345  1.844667973E-03
   346 -3.515499981E-03
   347  2.076817261E-02
   348  3.058426961E-04
   349  5.733517786E-04
   350 -4.933124567E-04
   351 -6.777474591E-04
   352 -2.031417228E-04
   353 -5.932041625E-04
   354 -2.502799422E-03
   355 -1.759900463E-03
   356 -3.248803676E-03
   357  2.344649083E-03
   358 -2.123833179E-04
   359  5.377419982E-04
   360  2.057015536E-04
   361  1.328870542E-02
   362  1.451131594E-03
   363  2.677065275E-03
   364 -1.947427326E-03
   365  3.556694063E-04
   366 -5.153377452E-04
   367 -3.874748184E-04
   368 -1.082021713E-02
Ene=   -3.2776123727E-01
Spin= Alpha
Occup=   2.0000000
     1 -2.396658999E-06
     2 -3.852990014E-06
     3 -4.660011046E-02
     4  1.175382304E-02
     5  2.928918294E-02
     6  1.283304383E-05
     7 -6.797915395E-02
     8  1.714865176E-02
     9  4.272624131E-02
    10 -1.231999599E-05
    11 -5.184926420E-02
    12  1.303713389E-02
    13  3.258285048E-02
    14  3.263098491E-03
    15 -2.991813311E-03
    16 -6.012751702E-03
    17  3.535021127E-03
    18  1.064329497E-02
    19 -1.140088815E-03
    20 -2.173207357E-02
    21  4.031053747E-03
    22  1.324897637E-02
    23 -1.210459082E-02
    24 -1.924033403E-02
    25  4.746319161E-02
    26 -1.085986522E-01
    27 -2.800132112E-02
    28  5.647490675E-02
    29  6.888003902E-02
    30 -1.582959990E-01
    31 -4.032546088E-02
    32  5.984339332E-02
    33  5.888920597E-02
    34 -1.348132216E-01
    35 -3.439253479E-02
    36 -1.035625302E-03
    37 -8.834048899E-03
    38 -9.828626643E-03
    39 -5.573473511E-03
    40  4.067538149E-03
    41 -1.067641229E-01
    42 -1.184862935E-02
    43  2.408344370E-02
    44  4.557287122E-03
    45  7.902965761E-03
    46  1.256176597E-02
    47  4.944947353E-02
    48  6.282602265E-02
    49  1.082336053E-02
    50 -3.686957301E-02
    51  7.191811908E-02
    52  9.149743930E-02
    53  1.508694691E-02
    54 -3.911820085E-02
    55  6.151656308E-02
    56  7.782333464E-02
    57  1.242860289E-02
    58  1.566105429E-03
    59 -3.502907817E-03
    60  1.056820318E-02
    61  1.928091402E-03
    62  2.122047313E-03
    63  7.088187123E-02
    64 -1.410045923E-02
    65 -1.089392702E-02
    66  7.568627797E-03
    67 -2.598436380E-04
    68 -4.055394624E-04
    69 -6.252248572E-03
    70  1.032036987E-01
    71  2.705819832E-03
    72  1.063721545E-03
    73 -9.455797745E-03
    74  1.520031413E-01
    75  4.064236136E-03
    76  1.736290892E-03
    77 -4.310171053E-03
    78  1.011817318E-01
    79  9.520501493E-05
    80 -5.381523722E-03
    81 -2.361251521E-03
    82 -1.104820180E-02
    83 -8.037838292E-03
    84  6.604989017E-03
    85  2.191275288E-02
    86 -6.854061540E-04
    87  3.577299687E-02
    88 -1.616885141E-03
    89  4.058715118E-03
    90  6.446551116E-03
    91  1.844328144E-02
    92 -2.569681812E-02
    93  3.155090879E-02
    94 -1.869943324E-02
    95  2.742811308E-02
    96 -3.716111080E-02
    97  4.583335153E-02
    98 -2.413571147E-02
    99  2.059390621E-02
   100 -3.194272063E-02
   101  4.029707826E-02
   102  1.472135982E-03
   103 -2.037326631E-03
   104  1.814817984E-03
   105 -8.458635670E-03
   106 -7.271232850E-03
   107  2.291745872E-02
   108 -3.613858280E-03
   109 -2.261004019E-03
   110 -6.264380389E-03
   111  1.692826474E-04
   112  2.644855006E-04
   113 -8.003218473E-03
   114 -7.760308218E-02
   115 -4.099553223E-02
   116 -6.994552218E-04
   117 -1.206428661E-02
   118 -1.141321139E-01
   119 -5.996857937E-02
   120 -1.050138381E-03
   121 -6.757787372E-03
   122 -7.584966120E-02
   123 -3.714929098E-02
   124  8.545100818E-03
   125  7.548461269E-03
   126  5.462245734E-03
   127  5.125512333E-03
   128  6.480965863E-03
   129 -1.366516577E-02
   130 -2.591276341E-03
   131 -2.632586847E-02
   132 -9.601206840E-03
   133  7.632317727E-03
   134  1.212304292E-02
   135 -5.081043898E-02
   136 -6.151635710E-02
   137 -9.363904417E-03
   138 -3.517826693E-02
   139 -7.400150011E-02
   140 -8.912976559E-02
   141 -1.425611701E-02
   142 -4.521129089E-02
   143 -6.453090416E-02
   144 -7.669304722E-02
   145 -9.805332460E-03
   146 -1.208215906E-02
   147 -2.040770937E-05
   148 -1.083368701E-03
   149 -4.643101716E-03
   150 -3.064295718E-03
   151  5.107147194E-02
   152  1.457217971E-02
   153  1.263107998E-04
   154  5.575891721E-03
   155  9.047330037E-05
   156  1.412057937E-04
   157  6.821854903E-02
   158 -3.919073698E-02
   159  4.359966673E-03
   160 -3.687421606E-04
   161  9.989900400E-02
   162 -5.760828381E-02
   163  6.624321557E-03
   164 -6.167044408E-04
   165  6.358653382E-02
   166 -3.854486182E-02
   167  4.009156392E-03
   168 -1.404940523E-03
   169  1.101883500E-02
   170 -2.481566864E-03
   171  8.360321519E-03
   172  3.032908902E-03
   173 -1.342392669E-02
   174  1.842533885E-02
   175 -1.385987409E-02
   176  6.901369304E-04
   177 -1.168662791E-02
   178 -1.856222626E-02
   179 -4.884140337E-02
   180  1.076707692E-01
   181  2.886600915E-02
   182  5.384906933E-02
   183 -7.132118409E-02
   184  1.559936077E-01
   185  4.254160608E-02
   186  6.940892294E-02
   187 -6.187171015E-02
   188  1.352582257E-01
   189  3.601234440E-02
   190  6.219323135E-03
   191  9.804618957E-03
   192  6.338240762E-03
   193  9.083652349E-03
   194 -1.801088298E-03
   195 -7.047627322E-02
   196  1.580577578E-02
   197 -3.981304641E-03
   198 -1.541199721E-02
   199  4.200932596E-03
   200  6.677536185E-03
   201 -2.078395244E-02
   202  2.654600591E-02
   203 -3.067102160E-02
   204 -1.960424803E-02
   205 -2.952201019E-02
   206  3.869637097E-02
   207 -4.470450471E-02
   208 -2.072952139E-02
   209 -2.457330852E-02
   210  3.283544056E-02
   211 -3.827111495E-02
   212  6.295121091E-04
   213  5.662475828E-05
   214  1.553915826E-04
   215  2.669974569E-03
   216 -8.935013467E-03
   217  3.741409494E-02
   218 -8.251529232E-03
   219 -4.440312179E-03
   220  9.438622050E-03
   221 -8.969062455E-07
   222 -1.376644501E-06
   223  5.918530567E-04
   224 -1.520024997E-04
   225 -3.582626162E-04
   226  1.539937754E-06
   227 -1.196172751E-03
   228  2.989560992E-04
   229  7.723195194E-04
   230  4.838771204E-05
   231  6.116322463E-03
   232 -1.572334292E-03
   233 -3.824886095E-03
   234  5.584866732E-04
   235  9.894416515E-04
   236 -1.433250649E-03
   237  9.017665335E-04
   238  2.695697283E-03
   239  1.540497834E-03
   240  1.325858485E-02
   241 -3.704094918E-03
   242 -8.264779257E-03
   243 -5.106311403E-02
   244 -7.634615932E-02
   245 -3.764697512E-02
   246 -3.105687103E-03
   247 -4.268363326E-03
   248 -4.200321016E-03
   249 -1.983415701E-02
   250 -5.607134513E-02
   251 -8.346588057E-02
   252 -4.197201425E-02
   253  4.738204555E-03
   254 -2.319321942E-03
   255  4.203115256E-03
   256 -1.744530208E-02
   257  4.598116173E-02
   258  6.784234757E-02
   259  3.524882089E-02
   260  1.447050627E-03
   261  4.958570709E-04
   262 -4.208023929E-03
   263  6.082914088E-03
   264  2.395036037E-02
   265  3.648071653E-02
   266  1.657370969E-02
   267  7.354033291E-04
   268  3.225916997E-03
   269  3.021183923E-03
   270  1.815897196E-02
   271 -2.877401829E-03
   272 -3.645244815E-03
   273 -1.649917751E-03
   274 -5.496209987E-04
   275  5.601401924E-03
   276  3.172204111E-04
   277  1.890346789E-04
   278  1.077422853E-02
   279  1.699402370E-02
   280  7.957361198E-03
   281  7.392347898E-04
   282 -2.342222493E-03
   283  6.141712994E-04
   284  8.680228078E-03
   285  2.674582189E-02
   286  3.975971112E-02
   287  2.035284196E-02
   288  1.341107401E-03
   289  1.872699125E-03
   290  9.488156245E-04
   291  4.486124609E-03
   292  1.885854097E-03
   293  2.385220548E-03
   294  1.107809701E-03
   295 -6.266843591E-04
   296 -4.144685091E-03
   297 -2.183790771E-03
   298  1.058674281E-04
   299  2.028745962E-02
   300  3.200198057E-02
   301  1.482031437E-02
   302 -4.210162776E-04
   303 -4.472292339E-03
   304  4.481981145E-04
   305  1.668601178E-02
   306  5.027950587E-02
   307  7.476847014E-02
   308  3.801644275E-02
   309 -2.618668790E-03
   310  2.717720269E-03
   311 -2.374319801E-03
   312  8.630248214E-03
   313  1.007499539E-03
   314  1.261866035E-03
   315  7.002205546E-04
   316  3.595088483E-03
   317 -2.066582469E-03
   318  3.452850953E-04
   319 -2.159957803E-04
   320 -3.107155384E-02
   321 -4.899662461E-02
   322 -2.284744143E-02
   323  2.415875986E-04
   324  6.670921743E-03
   325 -1.414317784E-03
   326 -2.538819979E-02
   327 -7.700166355E-02
   328 -1.145042080E-01
   329 -5.834923816E-02
   330 -3.699266209E-03
   331 -3.335418827E-03
   332  4.552730107E-03
   333 -1.319923339E-02
   334  5.096295432E-03
   335  8.517744876E-03
   336  2.382751817E-03
   337 -1.792560529E-03
   338  1.267403770E-03
   339 -1.302682587E-03
   340  1.367747123E-02
   341  3.207895620E-02
   342  4.693186437E-02
   343  2.526768459E-02
   344  2.483896982E-03
   345  4.588299181E-04
   346 -3.455442166E-04
   347 -1.066543225E-03
   348  1.778272409E-03
   349  3.301839540E-03
   350 -2.569651798E-03
   351 -1.256255669E-04
   352 -3.523102806E-04
   353  4.271037605E-04
   354 -1.397670075E-02
   355 -6.104839648E-04
   356 -1.146189491E-03
   357  9.646252195E-04
   358  8.804779213E-04
   359  6.358157108E-05
   360 -1.363363796E-04
   361  4.932750999E-03
   362 -1.170858758E-03
   363 -2.175745806E-03
   364  1.706362817E-03
   365  3.815877013E-05
   366  8.866728208E-05
   367 -7.885573086E-04
   368  9.173257342E-03
Ene=   -3.2451820464E-01
Spin= Alpha
Occup=   2.0000000
     1  6.014597752E-07
     2  8.435276737E-07
     3 -5.314361556E-05
     4  1.236050030E-07
     5 -1.730296843E-05
     6  2.030284534E-06
     7 -7.899368122E-05
     8 -5.086656864E-07
     9 -2.885650796E-05
    10 -7.756122443E-05
    11 -6.202084778E-05
    12 -1.637130891E-05
    13 -1.264436564E-05
    14  1.194597299E-05
    15 -6.142731908E-06
    16  3.179156563E-06
    17 -6.533564248E-06
    18  9.440457236E-07
    19 -2.893788829E-03
    20  4.383997557E-04
    21 -2.071622639E-03
    22 -8.251324797E-04
    23 -1.898763360E-06
    24 -2.960592542E-06
    25 -6.032815453E-02
    26 -1.302258676E-02
    27 -6.162552133E-02
    28  5.286402026E-06
    29 -8.568801053E-02
    30 -1.849869651E-02
    31 -8.753027421E-02
    32  2.864264142E-05
    33 -8.094380684E-02
    34 -1.746246376E-02
    35 -8.270092113E-02
    36 -4.758222557E-03
    37  2.517086834E-03
    38 -1.170973373E-02
    39  7.459867154E-03
    40 -9.798968764E-03
    41  6.477186836E-03
    42 -2.151382907E-02
    43 -5.788225689E-03
    44 -2.313844966E-02
    45 -4.382986298E-08
    46 -6.796774391E-08
    47 -2.408625165E-02
    48  2.444911388E-02
    49  8.023467974E-02
    50 -2.158067148E-07
    51 -3.421107865E-02
    52  3.472058154E-02
    53  1.139673162E-01
    54  8.401928873E-06
    55 -3.233029287E-02
    56  3.283165791E-02
    57  1.076175149E-01
    58 -6.117394350E-04
    59  1.121241780E-02
    60  1.193665972E-02
    61 -7.036109677E-03
    62 -2.222698187E-04
    63  3.277524690E-04
    64 -8.884894959E-03
    65  9.012250236E-03
    66  2.960413958E-02
    67 -3.566493899E-09
    68  1.889664698E-08
    69  5.725320718E-02
    70  1.234692310E-02
    71  5.842981696E-02
    72  1.185069741E-07
    73  8.520203703E-02
    74  1.837718037E-02
    75  8.695473054E-02
    76 -3.377152832E-06
    77  6.553963972E-02
    78  1.413464304E-02
    79  6.690294573E-02
    80  1.294551900E-03
    81  2.372368855E-03
    82 -1.094806823E-02
    83  3.959498178E-03
    84 -1.053136406E-02
    85 -4.884672847E-03
    86  1.331679289E-02
    87  2.187985307E-03
    88  1.489937792E-02
    89  2.587497695E-06
    90  4.296095385E-06
    91 -9.009917395E-02
    92  1.220306419E-02
    93  1.980947667E-02
    94 -1.664144656E-05
    95 -1.332659871E-01
    96  1.805622597E-02
    97  2.929866611E-02
    98  3.844969398E-05
    99 -9.563946547E-02
   100  1.291480439E-02
   101  2.101731194E-02
   102 -1.394938921E-03
   103  3.650734702E-03
   104  7.601005179E-04
   105 -7.729987771E-04
   106 -5.764375206E-03
   107  1.568361509E-03
   108 -6.844738256E-04
   109 -1.006379811E-04
   110 -3.239177654E-05
   111 -6.416062527E-07
   112 -1.028588259E-06
   113  2.291097031E-02
   114 -2.317127214E-02
   115 -7.604554225E-02
   116  3.592236335E-06
   117  3.409493106E-02
   118 -3.448303499E-02
   119 -1.131713295E-01
   120  1.270557386E-05
   121  2.623265815E-02
   122 -2.651372668E-02
   123 -8.700461589E-02
   124 -4.459500572E-03
   125  5.935230540E-03
   126  1.265932735E-02
   127 -5.673279561E-03
   128 -2.462944142E-03
   129 -2.168276688E-03
   130  5.974742722E-03
   131 -5.675869597E-03
   132 -1.845632163E-02
   133 -1.775343002E-06
   134 -2.780748529E-06
   135  2.567939916E-02
   136 -2.608041592E-02
   137 -8.550282472E-02
   138  7.449500527E-06
   139  3.798707228E-02
   140 -3.858260181E-02
   141 -1.264722368E-01
   142  1.857125727E-05
   143  2.723231298E-02
   144 -2.766311188E-02
   145 -9.069597713E-02
   146  1.986973913E-03
   147 -2.594372331E-03
   148 -5.605973478E-03
   149  2.515549365E-03
   150  1.095986452E-03
   151  3.767255447E-04
   152  1.700593603E-04
   153 -1.361068634E-04
   154 -8.315583283E-04
   155  9.431808171E-07
   156  1.604262536E-06
   157 -8.006520733E-02
   158  1.082168794E-02
   159  1.764022480E-02
   160 -8.276904763E-06
   161 -1.191505592E-01
   162  1.610375340E-02
   163  2.625084430E-02
   164  4.855371901E-05
   165 -9.166169823E-02
   166  1.241804802E-02
   167  2.019621975E-02
   168  3.159495418E-03
   169 -8.297559354E-03
   170 -1.718620987E-03
   171  1.721359058E-03
   172  1.299041337E-02
   173  2.662248285E-03
   174 -1.914328581E-02
   175  3.304110866E-03
   176  4.451118245E-03
   177 -1.077677729E-06
   178 -1.782832534E-06
   179  6.427146530E-02
   180  1.387894513E-02
   181  6.565645426E-02
   182  5.423368414E-06
   183  9.506587945E-02
   184  2.053029807E-02
   185  9.711070165E-02
   186  2.136968300E-05
   187  6.821454686E-02
   188  1.472129681E-02
   189  6.971139367E-02
   190 -6.106842759E-04
   191 -1.042624342E-03
   192  4.841964731E-03
   193 -1.733833805E-03
   194  4.668269702E-03
   195  1.199833515E-04
   196  5.009769136E-04
   197  2.239904261E-04
   198  7.592092766E-04
   199  2.229180851E-06
   200  3.430676955E-06
   201  8.452574172E-02
   202 -1.142410149E-02
   203 -1.857624251E-02
   204 -7.753565168E-06
   205  1.200587514E-01
   206 -1.622005436E-02
   207 -2.638672224E-02
   208 -4.225809045E-05
   209  1.134184656E-01
   210 -1.531343855E-02
   211 -2.493234450E-02
   212  5.374465343E-03
   213 -1.373784184E-02
   214 -2.212197340E-04
   215 -4.267411997E-04
   216  1.002034818E-02
   217 -4.448275907E-03
   218  3.101002488E-02
   219 -3.837273663E-03
   220 -7.754210161E-03
   221 -3.388279230E-07
   222 -3.566517945E-07
   223  4.231296374E-05
   224  1.959189568E-06
   225  1.794727754E-05
   226 -3.720099801E-06
   227  5.867401636E-05
   228  4.402969229E-06
   229  2.729028970E-05
   230  6.938254490E-05
   231  6.075567755E-05
   232 -3.605110558E-05
   233  1.275066979E-05
   234  3.811716050E-06
   235 -5.147777980E-06
   236  4.991792632E-06
   237 -4.397525120E-06
   238  7.803592708E-06
   239  3.080482406E-03
   240 -1.275868841E-04
   241 -6.259103195E-04
   242  3.521220803E-04
   243  6.894837514E-02
   244  9.632397317E-02
   245  5.485752920E-02
   246  3.579606754E-03
   247 -3.155549881E-03
   248 -1.371447565E-04
   249 -8.026772709E-03
   250 -6.895059687E-02
   251 -9.631262324E-02
   252 -5.510136958E-02
   253 -9.380025944E-04
   254  3.727689161E-03
   255  2.831819846E-03
   256  8.152313598E-03
   257  6.896828799E-02
   258  9.634383427E-02
   259  5.506888385E-02
   260 -2.939426791E-03
   261 -3.204668039E-03
   262 -1.977297291E-03
   263 -8.101467722E-03
   264 -6.901321167E-02
   265 -9.641247604E-02
   266 -5.506640608E-02
   267  3.999264113E-03
   268  2.119936281E-03
   269 -1.527187636E-03
   270  8.009612573E-03
   271 -6.873144406E-06
   272 -2.168599947E-05
   273  7.979415845E-05
   274  3.483878099E-03
   275  7.507172369E-04
   276  3.557717533E-03
   277 -5.104018812E-05
   278 -2.504499059E-05
   279 -2.846686562E-05
   280  1.943041321E-05
   281 -4.951620619E-03
   282  6.721314227E-04
   283  1.090932250E-03
   284  5.510950147E-05
   285  5.685445920E-05
   286  8.394222377E-05
   287  2.352984532E-05
   288 -5.650334569E-03
   289  7.723471386E-04
   290  1.240448526E-03
   291 -3.482346638E-04
   292  1.581180144E-05
   293  1.100958083E-05
   294  8.034588396E-05
   295  1.393394462E-03
   296 -1.410606575E-03
   297 -4.629625990E-03
   298 -2.675459520E-05
   299  5.539395172E-05
   300  8.442089532E-05
   301  2.630507403E-05
   302  1.417727239E-03
   303 -1.435078042E-03
   304 -4.698147125E-03
   305 -1.016793463E-04
   306 -7.723399741E-05
   307 -1.175470265E-04
   308 -4.398168126E-05
   309  1.610813173E-03
   310 -1.646428747E-03
   311 -5.360166095E-03
   312  7.958725017E-06
   313 -7.009165396E-06
   314 -1.046285746E-05
   315 -3.586210438E-05
   316 -4.873108391E-03
   317  6.582704265E-04
   318  1.072942284E-03
   319  1.236436047E-04
   320 -3.152970604E-05
   321 -4.574903062E-05
   322 -2.292471394E-05
   323  3.534322491E-03
   324  7.633050827E-04
   325  3.605202043E-03
   326  1.291948960E-04
   327  1.943714938E-05
   328  1.939918980E-05
   329  1.436605695E-05
   330  4.031754609E-03
   331  8.725053945E-04
   332  4.117613759E-03
   333  1.124570049E-04
   334  6.903758126E-02
   335  9.644019147E-02
   336  5.512880590E-02
   337 -1.225590158E-03
   338 -1.521471130E-03
   339  4.360647586E-03
   340 -8.312655146E-03
   341 -6.898458176E-02
   342 -9.638472891E-02
   343 -5.490879833E-02
   344 -2.471336336E-03
   345  2.034071070E-03
   346 -3.547906418E-03
   347  8.086631502E-03
   348  1.683203789E-05
   349  2.436247185E-05
   350 -2.425418687E-05
   351 -4.819163795E-04
   352 -1.037828235E-04
   353 -4.911846946E-04
   354  7.111402294E-05
   355  2.723807137E-05
   356  4.340927558E-05
   357  4.084874839E-05
   358  6.773022911E-04
   359 -9.334902660E-05
   360 -1.493103948E-04
   361 -2.140281519E-05
   362 -4.571287405E-05
   363 -6.516841880E-05
   364 -4.375622841E-05
   365 -1.944790157E-04
   366  1.984715807E-04
   367  6.403215754E-04
   368 -3.527476402E-05
Ene=   -3.1905873278E-01
Spin= Alpha
Occup=   2.0000000
     1  5.005936347E-07
     2  9.510444833E-07
     3 -7.154764384E-02
     4 -1.569330542E-02
     5 -7.384579759E-02
     6 -5.073770411E-06
     7 -1.066235935E-01
     8 -2.338578294E-02
     9 -1.100465791E-01
    10  2.525236355E-05
    11 -7.727241333E-02
    12 -1.694248284E-02
    13 -7.978066315E-02
    14  1.048353463E-02
    15 -2.004883406E-03
    16  9.896193304E-03
    17 -9.707436102E-03
    18  6.709692059E-03
    19 -4.260525143E-04
    20  8.840730859E-02
    21  2.183491323E-02
    22  9.070272449E-02
    23  3.078137729E-05
    24  4.903576710E-05
    25  2.631686396E-02
    26  5.462654602E-03
    27  2.767983680E-02
    28 -1.397817095E-04
    29  3.710383360E-02
    30  7.681313900E-03
    31  3.907564033E-02
    32 -1.695186966E-04
    33  3.635405755E-02
    34  7.619621031E-03
    35  3.802623583E-02
    36  1.014314960E-02
    37 -4.093180554E-04
    38  2.128782459E-03
    39 -6.268820170E-03
    40 -4.405581306E-04
    41 -2.042808170E-03
    42 -3.422689660E-03
    43 -6.692007605E-04
    44 -2.877185521E-03
    45  4.927274741E-03
    46  7.826849451E-03
    47  6.134115922E-02
    48 -5.701603296E-02
    49  5.699108229E-02
    50 -2.201091221E-02
    51  9.017709626E-02
    52 -8.497549231E-02
    53  8.288192194E-02
    54 -3.223345946E-02
    55  7.081992706E-02
    56 -6.051243537E-02
    57  6.889447910E-02
    58  3.438083149E-03
    59  1.971574283E-03
    60 -2.521018294E-04
    61 -6.072793943E-03
    62  4.899781690E-03
    63 -3.861551624E-01
    64  7.669146517E-02
    65  2.688535437E-02
    66  1.242809240E-02
    67 -5.319172549E-06
    68 -8.443868452E-06
    69  3.959912856E-02
    70  8.971379351E-03
    71  4.051299992E-02
    72  2.443812484E-05
    73  5.885639560E-02
    74  1.333613759E-02
    75  6.021166780E-02
    76  3.077614481E-05
    77  3.934138946E-02
    78  8.978513616E-03
    79  4.024789923E-02
    80 -3.041496399E-03
    81  1.203083977E-03
    82 -5.832566599E-03
    83  4.000527730E-03
    84 -4.769121927E-03
    85  3.775923421E-03
    86  3.381655698E-03
    87  6.931682347E-04
    88  2.149965589E-03
    89 -3.798415203E-03
    90 -6.045585029E-03
    91 -5.540913670E-02
    92 -5.841090794E-02
    93 -4.719065240E-02
    94  1.762879347E-02
    95 -8.079011114E-02
    96 -8.177226749E-02
    97 -6.771450020E-02
    98  2.616700577E-02
    99 -6.526785460E-02
   100 -7.880388039E-02
   101 -6.234661742E-02
   102 -1.032584220E-02
   103 -2.667386073E-03
   104 -1.359852515E-02
   105 -1.102401232E-03
   106 -1.576776166E-03
   107  4.548429812E-02
   108 -4.749471948E-03
   109 -3.479853705E-03
   110 -2.263169235E-02
   111 -7.234465344E-04
   112 -1.145497818E-03
   113  1.926160933E-02
   114  6.237629534E-02
   115  1.832178981E-02
   116  3.275010342E-03
   117  2.828729422E-02
   118  9.314682541E-02
   119  2.699477738E-02
   120  4.403508859E-03
   121  2.526146936E-02
   122  7.297118781E-02
   123  1.669933925E-02
   124 -9.834078839E-03
   125  1.061139266E-04
   126 -6.977494024E-03
   127  6.508125138E-04
   128  7.158409356E-03
   129  1.181343642E-01
   130  4.475455184E-03
   131  4.313150194E-02
   132 -9.217395778E-03
   133  3.774209274E-03
   134  6.006878550E-03
   135 -5.523131144E-02
   136  3.386398103E-02
   137 -6.682443289E-02
   138 -1.751128197E-02
   139 -7.877130572E-02
   140  4.637719434E-02
   141 -9.673951550E-02
   142 -2.607787676E-02
   143 -7.370488157E-02
   144  4.799523832E-02
   145 -8.075992055E-02
   146 -3.767247483E-03
   147  5.420927785E-03
   148  2.177645704E-04
   149  1.409300313E-02
   150 -7.527683060E-03
   151 -5.097077244E-02
   152 -2.346912173E-02
   153 -3.115140284E-03
   154 -5.085915640E-03
   155  7.277502891E-04
   156  1.152223147E-03
   157  2.946560057E-02
   158 -5.198048786E-02
   159  3.232851300E-02
   160 -3.292558861E-03
   161  4.366926383E-02
   162 -7.780043783E-02
   163  4.780954863E-02
   164 -4.454180958E-03
   165  2.980973565E-02
   166 -6.126524306E-02
   167  4.049472634E-02
   168 -8.008922569E-03
   169 -1.249939125E-04
   170  6.446048645E-03
   171  9.015136583E-03
   172 -3.395617894E-03
   173 -1.155599493E-01
   174 -8.934818201E-04
   175 -4.232566902E-02
   176  1.433991835E-02
   177  2.500837074E-05
   178  3.975567433E-05
   179 -4.999583501E-02
   180 -1.069427393E-02
   181 -5.179219040E-02
   182 -1.149718533E-04
   183 -7.385894953E-02
   184 -1.581372096E-02
   185 -7.647478809E-02
   186 -1.853493446E-04
   187 -5.499746165E-02
   188 -1.171922810E-02
   189 -5.713882697E-02
   190 -5.125490062E-03
   191  1.755958572E-04
   192 -1.222287934E-03
   193  3.305949017E-03
   194  8.303356685E-05
   195 -1.239894423E-04
   196  1.241068441E-03
   197  3.086725381E-04
   198  1.122139046E-03
   199 -4.959496842E-03
   200 -7.877767825E-03
   201  4.108009124E-02
   202  7.978537108E-02
   203  4.820454877E-02
   204  2.215008415E-02
   205  5.929551386E-02
   206  1.182048475E-01
   207  7.061405282E-02
   208  3.250529877E-02
   209  5.146942813E-02
   210  8.767464089E-02
   211  5.681923073E-02
   212  4.744699097E-03
   213 -3.177225262E-03
   214  6.434034834E-03
   215 -8.096485345E-04
   216 -1.051169979E-03
   217  3.904940556E-01
   218  1.462986703E-02
   219 -7.321236390E-03
   220  8.164008696E-02
   221  3.219001037E-07
   222  5.097378370E-07
   223  4.074334934E-02
   224  8.935166047E-03
   225  4.204776970E-02
   226 -3.180431249E-08
   227  5.672340662E-02
   228  1.243839066E-02
   229  5.853697191E-02
   230 -2.208857851E-05
   231  5.170178958E-02
   232  1.135411813E-02
   233  5.335580490E-02
   234  2.855604882E-03
   235 -2.378943807E-03
   236  1.139223914E-02
   237 -6.333706183E-03
   238  9.874900323E-03
   239 -2.863296271E-03
   240 -8.935657461E-03
   241 -1.351364711E-03
   242 -9.433582499E-03
   243 -3.184928634E-02
   244 -4.573726241E-02
   245 -2.791342236E-02
   246 -2.069975772E-03
   247  5.096676712E-04
   248  6.567795911E-04
   249 -3.193583844E-04
   250  3.194427312E-02
   251  4.591156771E-02
   252  2.805373630E-02
   253  7.884735754E-04
   254 -8.145646644E-04
   255 -1.883066062E-03
   256  4.073710480E-04
   257  2.400172880E-02
   258  3.660422644E-02
   259  3.122587818E-02
   260  2.687718952E-03
   261 -4.100849043E-03
   262  3.245089450E-04
   263 -4.881285112E-04
   264 -8.056785217E-03
   265 -9.464860060E-03
   266  3.162535300E-03
   267  4.010115338E-03
   268 -3.257996038E-03
   269  2.958967216E-03
   270 -6.472490361E-04
   271  3.327934100E-05
   272  5.729134337E-05
   273 -3.876961776E-06
   274  2.370434566E-03
   275  5.392780230E-04
   276  2.419068694E-03
   277  7.780627901E-05
   278 -7.872025284E-02
   279 -1.136244157E-01
   280 -6.884305971E-02
   281 -1.062173475E-03
   282  2.091318846E-03
   283  4.617645062E-03
   284 -7.155187657E-04
   285  4.985520894E-02
   286  6.880720406E-02
   287  4.046914480E-02
   288 -2.616633568E-03
   289  2.236935276E-03
   290 -4.093679270E-03
   291  1.036412819E-02
   292  5.438468809E-03
   293  8.507646708E-03
   294  3.892812531E-03
   295  7.193438853E-04
   296  4.257722488E-03
   297  8.044583096E-04
   298 -9.100702831E-03
   299  7.820114624E-02
   300  1.128538542E-01
   301  6.851722070E-02
   302  4.974406158E-03
   303 -1.251189607E-03
   304 -6.583054387E-04
   305  7.315295220E-04
   306 -4.952440458E-02
   307 -6.834654561E-02
   308 -4.012632038E-02
   309 -3.389553200E-03
   310 -3.534271306E-03
   311 -2.109600050E-03
   312 -1.040404234E-02
   313 -5.471615694E-03
   314 -8.541852153E-03
   315 -4.030813235E-03
   316  1.604137519E-03
   317 -3.767010536E-03
   318  1.621363674E-03
   319  9.137241110E-03
   320  5.112919560E-04
   321  7.346272249E-04
   322  4.166218696E-04
   323 -3.226087947E-03
   324 -6.896010587E-04
   325 -3.250675256E-03
   326  2.231243682E-05
   327 -3.272412477E-04
   328 -4.444193953E-04
   329 -3.076843144E-04
   330 -2.728602846E-03
   331 -6.181382782E-04
   332 -2.814074425E-03
   333  3.656039997E-05
   334  7.695013549E-03
   335  8.935394128E-03
   336 -3.531515725E-03
   337  2.066536847E-03
   338  4.591806109E-03
   339  3.218011016E-03
   340  8.309106736E-04
   341 -2.373936873E-02
   342 -3.622737457E-02
   343 -3.112864042E-02
   344 -6.313848338E-04
   345  4.574437825E-03
   346  1.794522557E-03
   347  4.570578518E-04
   348 -3.188446207E-04
   349 -4.785330641E-04
   350 -2.892404825E-04
   351  2.371637810E-03
   352  5.213840975E-04
   353  2.400624307E-03
   354 -8.879035879E-05
   355  5.188678887E-02
   356  7.713011927E-02
   357  4.951980471E-02
   358  1.005851143E-03
   359 -2.890596840E-03
   360 -1.581472432E-03
   361  9.667034748E-03
   362 -5.155953651E-02
   363 -7.663823420E-02
   364 -4.925593235E-02
   365 -2.183326625E-03
   366  2.631265403E-03
   367  4.121822563E-04
   368 -9.663351404E-03
Ene=   -3.1905128745E-01
Spin= Alpha
Occup=   2.0000000
     1  3.563846799E-09
     2  6.701104919E-08
     3  7.517864697E-02
     4 -2.474573506E-02
     5 -6.758785288E-02
     6 -2.207179878E-07
     7  1.120326452E-01
     8 -3.687400020E-02
     9 -1.007204627E-01
    10  5.064931952E-06
    11  8.121133959E-02
    12 -2.674296661E-02
    13 -7.302107168E-02
    14 -1.653217874E-03
    15  1.806614104E-02
    16  3.912229435E-03
    17 -2.358578427E-03
    18 -1.200634628E-03
    19  7.958223054E-04
    20 -9.411958068E-02
    21  3.138838527E-02
    22  8.367270753E-02
    23  5.720332115E-03
    24  9.086461796E-03
    25 -6.760896370E-02
    26 -5.259586509E-02
    27  7.700332957E-02
    28 -2.555209527E-02
    29 -9.922707057E-02
    30 -7.835219468E-02
    31  1.132790730E-01
    32 -3.744027853E-02
    33 -7.854374036E-02
    34 -5.572503155E-02
    35  8.824163541E-02
    36 -2.773255727E-03
    37  4.665560203E-03
    38 -3.127239817E-04
    39 -4.752056933E-03
    40 -7.776216455E-04
    41 -4.523520017E-01
    42 -6.277428329E-02
    43  5.290027739E-02
    44  5.043695713E-02
    45 -2.888758439E-03
    46 -4.588508439E-03
    47 -4.824320337E-02
    48  4.585983531E-02
    49  7.656909201E-03
    50  1.290171077E-02
    51 -7.018840023E-02
    52  6.734775833E-02
    53  9.346908534E-03
    54  1.892262784E-02
    55 -5.846317248E-02
    56  5.263469715E-02
    57  1.621248671E-02
    58  5.143644289E-03
    59  9.731047374E-03
    60 -1.866351338E-04
    61  3.933249507E-04
    62  1.323141017E-03
    63  2.303607237E-01
    64 -4.427383527E-02
    65 -1.768815024E-02
    66 -1.207993111E-02
    67 -8.332565647E-04
    68 -1.319337387E-03
    69 -1.581467520E-02
    70  6.906745575E-02
    71  4.697011094E-04
    72  3.772307856E-03
    73 -2.314193897E-02
    74  1.030586651E-01
    75  2.546988684E-04
    76  5.092176418E-03
    77 -1.940102206E-02
    78  8.283971241E-02
    79  1.108064801E-03
    80 -6.095150218E-03
    81 -8.878579085E-03
    82  6.748040436E-04
    83 -8.661023538E-03
    84 -6.640345413E-03
    85  1.378272973E-01
    86  2.222876558E-03
    87  4.997720439E-02
    88 -1.227345589E-02
    89 -2.172632515E-03
    90 -3.457951969E-03
    91  4.933758872E-02
    92 -4.425824103E-02
    93 -4.473235690E-02
    94  1.008348010E-02
    95  7.346398887E-02
    96 -6.280555184E-02
    97 -6.493837239E-02
    98  1.496119504E-02
    99  5.194808914E-02
   100 -5.699393599E-02
   101 -5.519349181E-02
   102 -3.501128893E-03
   103 -7.413902835E-03
   104 -6.366547654E-03
   105 -2.649946325E-03
   106 -3.079733519E-03
   107  2.591420076E-02
   108 -4.223865540E-03
   109 -1.729553245E-03
   110 -1.249017968E-02
   111  4.202817960E-04
   112  6.654149887E-04
   113 -2.965751037E-02
   114 -1.770566950E-02
   115  5.048836535E-02
   116 -1.900988776E-03
   117 -4.387661480E-02
   118 -2.657178112E-02
   119  7.517691633E-02
   120 -2.591251200E-03
   121 -3.308238529E-02
   122 -2.403858062E-02
   123  5.104805670E-02
   124  5.601355344E-03
   125 -7.126762304E-03
   126 -2.635383142E-03
   127  3.791627758E-03
   128 -4.349057983E-03
   129 -6.988587064E-02
   130 -4.219646020E-03
   131 -2.417974112E-02
   132  9.965100099E-03
   133 -2.210301864E-03
   134 -3.517839476E-03
   135  5.559322399E-02
   136 -4.346224722E-02
   137 -3.827826143E-02
   138  1.025456280E-02
   139  8.046989468E-02
   140 -6.206691325E-02
   141 -5.767745453E-02
   142  1.527071532E-02
   143  6.877875721E-02
   144 -5.410241282E-02
   145 -3.801088476E-02
   146 -1.366045884E-03
   147 -8.812525310E-03
   148 -1.615648814E-04
   149 -6.542263812E-03
   150  2.309396957E-03
   151  2.884011569E-02
   152  1.299905147E-02
   153  2.631716629E-03
   154  4.635678894E-03
   155  4.127615631E-04
   156  6.534713902E-04
   157 -4.732566092E-02
   158 -2.082993164E-02
   159  3.246000003E-02
   160 -1.865619428E-03
   161 -7.041081438E-02
   162 -3.126895369E-02
   163  4.810735094E-02
   164 -2.554040691E-03
   165 -4.670799666E-02
   166 -2.618167365E-02
   167  3.702209151E-02
   168 -1.247729809E-03
   169 -8.537660352E-03
   170  3.733618939E-03
   171  4.606870505E-03
   172  3.372977190E-03
   173 -6.788592083E-02
   174 -4.942364289E-03
   175 -2.357231409E-02
   176  8.753930308E-03
   177  4.384013960E-03
   178  6.977544322E-03
   179  6.382570563E-02
   180  3.218772922E-02
   181 -6.870480731E-02
   182 -2.034442211E-02
   183  9.128278806E-02
   184  4.417794093E-02
   185 -9.783868428E-02
   186 -3.023022275E-02
   187  8.311469485E-02
   188  4.404602904E-02
   189 -9.004374055E-02
   190  6.566328234E-03
   191 -1.386092188E-02
   192  1.892915273E-03
   193  1.220338431E-02
   194  3.162247427E-04
   195 -5.487158446E-02
   196  1.920384731E-02
   197 -9.867206692E-03
   198 -1.677020717E-02
   199 -2.835535392E-03
   200 -4.503968428E-03
   201 -1.943932125E-02
   202  5.125205573E-02
   203  3.695922274E-02
   204  1.266499918E-02
   205 -2.665819477E-02
   206  7.552116517E-02
   207  5.363113255E-02
   208  1.857440573E-02
   209 -2.973212295E-02
   210  5.792676445E-02
   211  4.543923271E-02
   212 -1.875567265E-03
   213  9.492639623E-03
   214  9.011518614E-04
   215  3.570144829E-03
   216  4.089533996E-03
   217  2.223405872E-01
   218  1.366151477E-02
   219 -4.845101283E-03
   220  4.522832477E-02
   221  1.964477612E-06
   222  3.083758772E-06
   223 -4.277329097E-02
   224  1.408428176E-02
   225  3.844790042E-02
   226 -9.049531397E-06
   227 -5.954458251E-02
   228  1.960746748E-02
   229  5.352220452E-02
   230 -1.289290214E-05
   231 -5.429732743E-02
   232  1.787937792E-02
   233  4.880226976E-02
   234 -3.710279148E-03
   235  1.236941458E-02
   236  7.275668026E-03
   237 -3.865957567E-03
   238 -6.824143516E-03
   239 -1.046009618E-03
   240  9.558395245E-03
   241 -2.893081830E-03
   242 -8.525816353E-03
   243  9.505917378E-03
   244  1.610094375E-02
   245  2.024387280E-02
   246 -2.401216523E-03
   247 -2.953536542E-03
   248  4.875502514E-03
   249 -6.798077011E-04
   250  9.091829232E-03
   251  1.551043637E-02
   252  1.986630019E-02
   253 -4.266789864E-03
   254 -3.342428394E-03
   255  3.004997458E-03
   256 -7.657173148E-04
   257  2.282045728E-02
   258  3.155931598E-02
   259  1.391243724E-02
   260 -3.535688018E-03
   261  1.875277356E-03
   262 -1.747732996E-03
   263  6.534541990E-04
   264 -3.219928188E-02
   265 -4.749136386E-02
   266 -3.429312238E-02
   267  1.901611940E-04
   268  1.841477893E-03
   269 -2.083485421E-03
   270  1.713674914E-04
   271  6.302942271E-03
   272  9.854664188E-03
   273  4.494160076E-03
   274 -4.903799065E-04
   275  4.611627027E-03
   276 -5.204046293E-04
   277 -1.051654675E-02
   278 -4.487966503E-02
   279 -6.477836409E-02
   280 -3.924869790E-02
   281  4.545423278E-03
   282  4.941825195E-04
   283  1.496998322E-03
   284 -4.936869190E-04
   285  2.836316539E-02
   286  3.913895727E-02
   287  2.303191843E-02
   288  2.918890108E-03
   289  6.711496653E-04
   290 -3.304067154E-03
   291  5.872682839E-03
   292 -3.185237353E-03
   293 -4.978783351E-03
   294 -2.237544834E-03
   295 -1.520270416E-03
   296 -1.367611159E-03
   297  3.189302009E-03
   298  5.456056411E-03
   299 -4.575380104E-02
   300 -6.603226295E-02
   301 -4.013234808E-02
   302 -1.428300877E-03
   303 -7.738299472E-04
   304 -4.539244514E-03
   305 -5.767004706E-04
   306  2.894794813E-02
   307  3.994320347E-02
   308  2.349013170E-02
   309  3.251483822E-03
   310  7.752328423E-04
   311 -2.982857921E-03
   312  6.444199777E-03
   313 -3.117682658E-03
   314 -4.868868360E-03
   315 -2.244771776E-03
   316 -2.919952795E-03
   317 -1.621114064E-03
   318  1.763617973E-03
   319  5.205439234E-03
   320  9.062688798E-02
   321  1.308012828E-01
   322  7.932090255E-02
   323 -3.837220652E-03
   324  5.149057997E-04
   325  3.689636310E-03
   326  9.206556276E-04
   327 -5.730013044E-02
   328 -7.905776438E-02
   329 -4.652915965E-02
   330  3.004593879E-03
   331 -4.465225773E-03
   332 -1.963689364E-03
   333 -1.228351633E-02
   334 -3.226598863E-02
   335 -4.756591976E-02
   336 -3.418464055E-02
   337  1.641207031E-03
   338  2.106817031E-03
   339 -6.129454569E-04
   340 -1.398903343E-04
   341  2.303706594E-02
   342  3.188569798E-02
   343  1.435871687E-02
   344  1.173561566E-03
   345  2.841092797E-03
   346  3.035200736E-03
   347  7.306973149E-04
   348 -5.971116184E-02
   349 -8.876535977E-02
   350 -5.697643701E-02
   351  1.794297160E-03
   352  1.969559569E-03
   353 -2.199882824E-03
   354 -1.111733178E-02
   355  2.957772592E-02
   356  4.396468318E-02
   357  2.822496269E-02
   358 -3.230975577E-03
   359 -1.129375060E-03
   360 -6.710253755E-05
   361  5.503780822E-03
   362  3.014346012E-02
   363  4.480462383E-02
   364  2.876731476E-02
   365  1.830553331E-04
   366 -4.254014706E-04
   367  3.392797440E-03
   368  5.648085059E-03
Ene=   -2.8317646969E-01
Spin= Alpha
Occup=   2.0000000
     1  4.220511156E-03
     2  6.668510406E-03
     3  7.363206636E-03
     4  9.880321582E-02
     5 -2.824070911E-02
     6 -1.577939644E-02
     7  1.097117040E-02
     8  1.472388213E-01
     9 -4.207941278E-02
    10 -5.316480122E-02
    11  9.191160495E-03
    12  1.237228741E-01
    13 -3.536211381E-02
    14 -9.850431170E-03
    15 -8.208284350E-04
    16 -1.146077470E-02
    17 -2.011587893E-02
    18  2.983760101E-03
    19  1.409585404E-01
    20  1.588502417E-02
    21  2.464912965E-01
    22 -6.837231887E-02
    23 -4.840417830E-03
    24 -7.689829624E-03
    25 -2.211416641E-02
    26 -8.129086517E-02
    27  3.891722808E-02
    28  2.198610511E-02
    29 -3.298534448E-02
    30 -1.174171329E-01
    31  5.722565310E-02
    32  5.038824832E-02
    33 -1.748714712E-02
    34 -1.072066814E-01
    35  3.991043835E-02
    36 -4.243319702E-03
    37  2.545826675E-04
    38 -8.543873420E-03
    39 -1.018346506E-02
    40  4.609034251E-03
    41 -3.569903544E-02
    42 -2.103267966E-02
    43 -2.713985222E-02
    44  2.662973646E-02
    45 -4.856765761E-03
    46 -7.715719909E-03
    47  1.444962391E-02
    48 -8.623970733E-02
    49  3.083685120E-02
    50  2.205839146E-02
    51  2.220264642E-02
    52 -1.248982582E-01
    53  4.503074698E-02
    54  5.051973075E-02
    55  4.128450282E-03
    56 -1.100979377E-01
    57  3.510531838E-02
    58 -3.883019522E-03
    59 -4.337858798E-04
    60 -6.961504356E-03
    61 -1.220305411E-02
    62 -1.897684705E-03
    63 -1.986402931E-02
    64  1.953119770E-02
    65 -3.479392935E-02
    66  1.631239588E-02
    67 -1.559823593E-03
    68 -2.515928805E-03
    69  8.383184136E-03
    70  8.775108569E-02
    71 -2.687913705E-02
    72  8.122872451E-03
    73  1.118446785E-02
    74  1.286245030E-01
    75 -3.831980949E-02
    76  5.190712022E-03
    77  1.370756107E-02
    78  1.006306549E-01
    79 -3.481043985E-02
    80 -6.954951486E-03
    81  2.227352260E-03
    82 -4.863424445E-03
    83 -1.312932647E-02
    84 -2.158014124E-04
    85  7.696301598E-02
    86  3.100438139E-02
    87 -6.604095273E-03
    88 -2.862395478E-02
    89  3.982552496E-03
    90  6.357153026E-03
    91 -1.896110954E-03
    92 -4.762693878E-02
    93  2.140263928E-02
    94 -1.856165329E-02
    95 -1.958391465E-03
    96 -6.477912649E-02
    97  3.199488807E-02
    98 -3.284706865E-02
    99 -3.113446129E-03
   100 -6.369269821E-02
   101  2.582086149E-02
   102 -3.432314538E-03
   103  2.629299497E-04
   104 -1.025612974E-02
   105 -1.318436078E-02
   106  1.365002420E-03
   107 -5.450735521E-02
   108  2.081343750E-03
   109  1.379653658E-02
   110  2.574148835E-03
   111 -1.550511582E-03
   112 -2.501067716E-03
   113  4.194193722E-03
   114  8.832297059E-02
   115 -2.594688944E-02
   116  8.076476545E-03
   117  7.555187084E-03
   118  1.291330025E-01
   119 -3.750600600E-02
   120  5.128596461E-03
   121 -4.126915529E-04
   122  1.024576754E-01
   123 -3.174726273E-02
   124 -5.179558019E-03
   125 -2.378384243E-03
   126 -5.380655223E-03
   127 -1.271558767E-02
   128  5.072434004E-03
   129  7.589171405E-02
   130 -4.116944663E-02
   131  8.059179997E-04
   132 -1.285750733E-02
   133  3.976686997E-03
   134  6.348007090E-03
   135 -1.110580206E-02
   136 -4.960029196E-02
   137  1.204967127E-02
   138 -1.854180553E-02
   139 -1.789779114E-02
   140 -6.819258664E-02
   141  1.579712897E-02
   142 -3.269545553E-02
   143 -1.209673413E-02
   144 -6.560376082E-02
   145  1.662409272E-02
   146 -8.173447511E-03
   147 -4.648224149E-04
   148 -6.951267683E-03
   149 -1.209250071E-02
   150  5.577567029E-03
   151 -4.911095344E-02
   152 -4.003174893E-03
   153  1.272530953E-02
   154 -4.943839171E-03
   155 -1.541592871E-03
   156 -2.486935382E-03
   157  7.169506826E-03
   158  8.896422293E-02
   159 -2.292518779E-02
   160  8.041043939E-03
   161  1.012242489E-02
   162  1.296888898E-01
   163 -3.489949766E-02
   164  4.970443911E-03
   165  9.713170153E-03
   166  1.046088590E-01
   167 -2.150874212E-02
   168 -5.597949801E-03
   169 -1.292203712E-03
   170 -1.036478809E-02
   171 -1.038232889E-02
   172  5.138908202E-04
   173  7.121438897E-02
   174  1.056219605E-02
   175  1.199057908E-02
   176  3.868078742E-02
   177  3.967332016E-03
   178  6.332861810E-03
   179  1.876476193E-03
   180 -5.137276685E-02
   181  9.149930415E-03
   182 -1.849116553E-02
   183  4.555032524E-03
   184 -7.125521348E-02
   185  1.079001188E-02
   186 -3.272656593E-02
   187  5.472953580E-04
   188 -6.737144638E-02
   189  1.381272338E-02
   190 -7.719190620E-03
   191 -1.391105999E-03
   192 -5.294862076E-03
   193 -1.421340217E-02
   194 -1.080534684E-03
   195 -5.718432693E-02
   196  5.763502262E-03
   197  9.607627319E-03
   198 -8.042260269E-03
   199 -4.867839387E-03
   200 -7.733239290E-03
   201 -1.162030390E-02
   202 -9.183527631E-02
   203  4.261136453E-03
   204  2.210332872E-02
   205 -1.714207805E-02
   206 -1.333388320E-01
   207  4.925997841E-03
   208  5.067799943E-02
   209 -1.127734969E-02
   210 -1.134488298E-01
   211  1.942565481E-02
   212 -8.350376134E-03
   213 -1.167419653E-03
   214 -3.634642124E-03
   215 -1.126626312E-02
   216  2.272794534E-03
   217 -2.153178832E-02
   218 -7.879400192E-03
   219 -4.067316375E-02
   220 -1.215010982E-02
   221 -1.835847037E-02
   222 -2.929063554E-02
   223 -7.614441338E-03
   224 -1.029331568E-01
   225  2.924996984E-02
   226  8.629104290E-02
   227 -1.113430839E-02
   228 -1.505978379E-01
   229  4.278476152E-02
   230  1.091500388E-01
   231 -9.160418079E-03
   232 -1.234021053E-01
   233  3.510112715E-02
   234 -3.262479532E-03
   235 -2.691051242E-04
   236 -3.778454092E-03
   237 -6.655137335E-03
   238  9.828139289E-04
   239 -1.975742122E-01
   240  2.608926666E-03
   241  3.272292931E-02
   242 -9.424993077E-03
   243 -1.864708917E-02
   244 -3.174705597E-02
   245 -1.198991136E-02
   246 -2.940903654E-03
   247 -4.189157879E-03
   248  2.197444344E-03
   249 -2.938079206E-03
   250 -1.857694249E-02
   251 -3.163787361E-02
   252 -1.195087118E-02
   253 -1.404011494E-03
   254 -3.860767518E-03
   255  3.762216635E-03
   256 -3.108204505E-03
   257 -1.859374846E-02
   258 -3.164508705E-02
   259 -1.239513020E-02
   260  1.783315975E-03
   261 -4.291756112E-03
   262  3.061516519E-03
   263 -2.589963705E-03
   264 -1.875645962E-02
   265 -3.189939300E-02
   266 -1.253937047E-02
   267  2.407095452E-03
   268 -4.913653834E-03
   269  1.017906977E-03
   270 -2.648827270E-03
   271 -3.414489461E-02
   272 -5.248406223E-02
   273 -3.897937410E-02
   274 -2.075811919E-03
   275  5.082704679E-03
   276  9.519150051E-04
   277  5.015367336E-03
   278 -1.764600957E-02
   279 -2.450244403E-02
   280 -2.252476580E-02
   281  2.228883925E-04
   282 -2.376865012E-03
   283  2.521873496E-03
   284 -3.236324738E-03
   285  5.788173475E-02
   286  9.349464464E-02
   287  6.867151568E-02
   288 -1.370432500E-05
   289  2.040629441E-03
   290 -1.296158215E-03
   291  2.248515755E-02
   292 -3.396918007E-02
   293 -5.220850059E-02
   294 -3.877256593E-02
   295  3.500342584E-03
   296  4.326971583E-03
   297 -2.821433830E-04
   298  5.257682474E-03
   299 -1.770805556E-02
   300 -2.460232139E-02
   301 -2.271452726E-02
   302 -1.967790707E-03
   303 -2.848040927E-03
   304  2.933718513E-04
   305 -2.972016421E-03
   306  5.788240044E-02
   307  9.351140803E-02
   308  6.851743900E-02
   309  8.452880600E-04
   310  2.228487517E-03
   311 -4.151798358E-04
   312  2.254948032E-02
   313 -3.383847555E-02
   314 -5.200574355E-02
   315 -3.856994350E-02
   316 -4.729748447E-04
   317  3.476398714E-03
   318 -4.330866552E-03
   319  4.941973139E-03
   320 -1.780436443E-02
   321 -2.477499885E-02
   322 -2.253886912E-02
   323  1.112879319E-03
   324 -3.267758244E-03
   325 -3.915489329E-04
   326 -3.422856355E-03
   327  5.788692359E-02
   328  9.349409808E-02
   329  6.878935490E-02
   330 -3.513091178E-04
   331  2.391047426E-03
   332 -1.545423673E-04
   333  2.175976190E-02
   334 -1.876393147E-02
   335 -3.192673837E-02
   336 -1.246387868E-02
   337  1.297947365E-04
   338 -5.403245741E-03
   339 -1.308026683E-03
   340 -2.821043786E-03
   341 -1.867417533E-02
   342 -3.178696904E-02
   343 -1.239451405E-02
   344 -2.032091247E-03
   345 -5.109061041E-03
   346 -8.279764435E-04
   347 -2.718389541E-03
   348 -1.961382334E-02
   349 -3.471192887E-02
   350 -3.265651486E-02
   351  1.060382797E-03
   352 -5.684992273E-03
   353  1.653832866E-04
   354 -1.125181553E-02
   355 -1.952583766E-02
   356 -3.456876181E-02
   357 -3.263485853E-02
   358  9.585107325E-05
   359 -4.711374599E-03
   360  3.364044565E-03
   361 -1.118505232E-02
   362 -1.956357253E-02
   363 -3.463046521E-02
   364 -3.269250050E-02
   365 -2.311236664E-03
   366 -5.227973762E-03
   367  9.068929047E-04
   368 -1.118360168E-02
Ene=   -2.7937067396E-01
Spin= Alpha
Occup=   2.0000000
     1  4.546408928E-06
     2  7.325546001E-06
     3  6.476695654E-02
     4  1.740615270E-02
     5  7.779550769E-02
     6 -2.296950213E-05
     7  9.515667709E-02
     8  2.557513862E-02
     9  1.142998167E-01
    10  1.587363824E-05
    11  8.032232504E-02
    12  2.161482304E-02
    13  9.651037435E-02
    14 -8.064437958E-03
    15  6.926633725E-04
    16 -9.525626596E-03
    17  8.375492400E-03
    18 -6.439820593E-03
    19  2.495028125E-03
    20 -3.704592687E-02
    21 -7.802856406E-03
    22 -4.259052691E-02
    23 -6.116957607E-04
    24 -9.746424733E-04
    25 -2.514690339E-02
    26 -6.259602138E-03
    27 -3.604799013E-02
    28  2.730020271E-03
    29 -3.235214915E-02
    30 -8.109341096E-03
    31 -4.803192400E-02
    32  5.867736923E-03
    33 -4.092692811E-02
    34 -1.107035347E-02
    35 -5.444750265E-02
    36 -8.272629881E-03
    37  1.193712205E-03
    38 -1.095440178E-02
    39  9.143753320E-03
    40 -7.004551784E-03
    41  7.276330863E-03
    42  7.707105741E-03
    43  1.311441435E-03
    44  8.354703896E-03
    45 -6.077160832E-03
    46 -9.679917793E-03
    47 -5.863533383E-02
    48  1.247510824E-02
    49 -4.868454392E-02
    50  2.703722344E-02
    51 -8.549182295E-02
    52  1.963693169E-02
    53 -6.748833955E-02
    54  5.895267316E-02
    55 -7.297321026E-02
    56  1.693822513E-03
    57 -6.502074390E-02
    58 -5.054068386E-03
    59 -8.147497610E-04
    60 -1.066562777E-02
    61  6.377197183E-03
    62 -1.082737959E-02
    63  1.468851422E-01
    64 -1.429249736E-02
    65 -8.786304909E-03
    66  5.239792603E-03
    67  5.021535593E-04
    68  7.989981039E-04
    69  5.615476607E-02
    70  1.500771065E-02
    71  6.866053106E-02
    72 -2.210075948E-03
    73  8.235861679E-02
    74  2.197763499E-02
    75  1.001770868E-01
    76 -6.060098457E-03
    77  6.927341452E-02
    78  1.844765431E-02
    79  8.674852767E-02
    80 -4.323448432E-03
    81 -2.809312570E-05
    82 -8.855137417E-03
    83  6.604840500E-03
    84 -6.466888531E-03
    85 -1.977943003E-03
    86  6.140998329E-03
    87 -4.305205295E-04
    88  8.055211775E-03
    89 -4.746142243E-03
    90 -7.559801655E-03
    91 -5.390579415E-02
    92  5.582651235E-04
    93 -3.782844699E-02
    94  2.126238895E-02
    95 -7.772556450E-02
    96  3.086595627E-03
    97 -5.319193054E-02
    98  4.833124213E-02
    99 -6.030188382E-02
   100 -1.754478042E-03
   101 -5.779569984E-02
   102 -1.095411475E-02
   103 -1.271775661E-03
   104 -6.800352907E-03
   105  7.849941775E-03
   106 -5.852319941E-03
   107 -6.407160242E-02
   108  1.989817610E-03
   109 -9.612465829E-03
   110  3.775813752E-02
   111  5.030822932E-03
   112  8.004001420E-03
   113  6.312622909E-02
   114  1.131584003E-02
   115  7.122903745E-02
   116 -2.212274230E-02
   117  8.936830037E-02
   118  1.760287703E-02
   119  1.029623058E-01
   120 -6.082626957E-02
   121  9.012871477E-02
   122  8.115749516E-03
   123  9.420825852E-02
   124 -8.289392148E-03
   125  6.345261025E-03
   126 -1.057700773E-02
   127  1.244248446E-02
   128 -9.731999605E-03
   129 -7.006520070E-02
   130  1.152145073E-02
   131 -2.614584935E-02
   132  1.727693407E-02
   133  4.321662762E-03
   134  6.883481171E-03
   135 -2.626003349E-02
   136 -2.325348567E-02
   137 -6.494082330E-02
   138 -1.935661614E-02
   139 -3.616874651E-02
   140 -3.531820804E-02
   141 -9.342748519E-02
   142 -4.405289619E-02
   143 -4.399746641E-02
   144 -2.649235523E-02
   145 -7.174174894E-02
   146 -9.007750298E-03
   147  2.151046143E-03
   148 -8.473031048E-03
   149  9.245646847E-03
   150 -2.790752261E-03
   151  5.777534164E-02
   152  3.229473405E-02
   153  1.584398448E-02
   154 -2.649447309E-03
   155 -5.537289676E-03
   156 -8.809964169E-03
   157  5.886982311E-02
   158  2.155698760E-02
   159  7.409985901E-02
   160  2.435735706E-02
   161  8.516868181E-02
   162  2.946786644E-02
   163  1.054385341E-01
   164  6.684795026E-02
   165  7.731788944E-02
   166  3.696901705E-02
   167  1.032921526E-01
   168 -1.066584896E-02
   169 -3.248934304E-03
   170 -1.594485507E-02
   171  8.661057942E-03
   172 -8.850648261E-03
   173  7.510096179E-02
   174  1.089519450E-02
   175  3.335576225E-02
   176  6.935835885E-03
   177  4.360277004E-04
   178  6.946247553E-04
   179 -6.828979890E-02
   180 -1.713799795E-02
   181 -7.557609107E-02
   182 -1.956626800E-03
   183 -9.953935133E-02
   184 -2.503176649E-02
   185 -1.097870811E-01
   186 -4.419937657E-03
   187 -6.965088143E-02
   188 -1.841978848E-02
   189 -7.948797983E-02
   190 -6.142646661E-03
   191  3.714239035E-04
   192 -8.211924490E-03
   193  6.795510502E-03
   194 -6.202943499E-03
   195  3.438900386E-03
   196 -9.902238077E-03
   197 -6.067549792E-06
   198 -6.786145693E-03
   199  6.675284247E-03
   200  1.063276388E-02
   201 -3.830520159E-02
   202 -3.909775184E-02
   203 -6.188405396E-02
   204 -2.970094038E-02
   205 -5.299004771E-02
   206 -5.754719234E-02
   207 -8.963433536E-02
   208 -6.469839527E-02
   209 -5.289759547E-02
   210 -3.558293041E-02
   211 -8.076349159E-02
   212 -2.854239873E-03
   213  3.044057049E-03
   214 -1.252520475E-02
   215  7.969588796E-03
   216 -7.395447904E-03
   217 -1.554109802E-01
   218  2.591415430E-03
   219  6.390963370E-03
   220 -1.574985323E-02
   221 -1.736355143E-05
   222 -2.782420078E-05
   223 -1.214746692E-02
   224 -3.339023688E-03
   225 -1.455881167E-02
   226  8.553481631E-05
   227 -1.558963522E-02
   228 -4.303699690E-03
   229 -1.867964911E-02
   230  5.173619104E-05
   231 -1.787027516E-02
   232 -4.843721708E-03
   233 -2.141279625E-02
   234 -2.965589458E-04
   235  1.101340593E-03
   236 -8.311266170E-03
   237  3.832166572E-03
   238 -6.748885426E-03
   239 -1.841987821E-03
   240  1.181896332E-02
   241  3.461416689E-03
   242  1.389530849E-02
   243  4.335727549E-02
   244  6.626993676E-02
   245  5.386188320E-02
   246  1.691752625E-03
   247 -1.740666738E-03
   248 -1.700004191E-03
   249  1.296016159E-03
   250 -4.821441717E-02
   251 -7.498623584E-02
   252 -5.942320996E-02
   253 -1.451375495E-03
   254  1.996555016E-03
   255  1.097835372E-03
   256 -3.998431605E-03
   257 -5.031572391E-02
   258 -8.363192605E-02
   259 -6.167471376E-02
   260 -1.342578154E-03
   261  3.274194922E-03
   262  4.779147012E-04
   263 -1.373624124E-02
   264  2.019604547E-03
   265 -2.902951730E-03
   266  3.051940680E-03
   267 -3.182327770E-03
   268  8.086006325E-04
   269 -3.225867174E-03
   270 -1.091527459E-02
   271  7.904371180E-03
   272  1.253398704E-02
   273  9.284789246E-03
   274  3.959167451E-03
   275  9.718650319E-04
   276  3.462213863E-03
   277  1.403878206E-03
   278 -4.719025403E-02
   279 -7.841360983E-02
   280 -5.316403294E-02
   281 -2.177543846E-03
   282  1.576149705E-03
   283  1.928846941E-03
   284 -2.537892604E-02
   285 -1.942614839E-03
   286 -7.520209576E-03
   287  3.193376955E-03
   288 -3.298707716E-03
   289 -4.945004112E-04
   290 -1.940556034E-03
   291 -2.050965029E-02
   292  7.930730547E-02
   293  1.255971218E-01
   294  9.407879590E-02
   295 -4.033785713E-03
   296  3.367152819E-03
   297  1.071861816E-03
   298  1.317745572E-02
   299  4.286947909E-02
   300  7.123929713E-02
   301  4.818957773E-02
   302  2.410608016E-03
   303 -1.738674851E-03
   304 -2.698210511E-03
   305  2.296974552E-02
   306  1.864675995E-03
   307  7.002429057E-03
   308 -2.774751068E-03
   309 -1.369834551E-03
   310 -8.841879935E-04
   311 -4.082276993E-03
   312  1.926320566E-02
   313 -8.730532202E-02
   314 -1.382618314E-01
   315 -1.035013424E-01
   316  1.073600267E-03
   317 -4.059469526E-03
   318 -3.339595053E-03
   319 -1.458904628E-02
   320  4.274650822E-03
   321  7.094114404E-03
   322  4.963530329E-03
   323 -4.516097346E-03
   324 -9.905369375E-04
   325 -4.374216592E-03
   326  2.360612659E-03
   327  2.337866104E-04
   328  7.785169776E-04
   329 -1.737379249E-04
   330 -4.206105362E-03
   331 -9.890107097E-04
   332 -4.644168030E-03
   333  1.477367772E-03
   334  6.899382066E-03
   335  1.727030846E-02
   336  7.824348345E-03
   337 -3.013228525E-03
   338 -2.462676291E-03
   339 -2.695119741E-03
   340  1.259001709E-02
   341  4.615669884E-02
   342  7.782183692E-02
   343  5.635395608E-02
   344  1.238455140E-03
   345 -3.521722740E-03
   346 -1.228555167E-03
   347  1.499152214E-02
   348  2.135073327E-03
   349  3.493271323E-03
   350  3.004934045E-03
   351 -8.265494258E-04
   352 -3.036795117E-04
   353 -7.948910077E-04
   354  1.694553332E-03
   355 -2.376697702E-02
   356 -3.886096578E-02
   357 -3.373494571E-02
   358 -3.789436611E-04
   359  1.426113501E-03
   360 -2.317883372E-04
   361 -1.841570579E-02
   362  2.157677013E-02
   363  3.527698019E-02
   364  3.049658329E-02
   365  1.320615748E-04
   366 -1.423604825E-03
   367 -2.574811885E-04
   368  1.667736725E-02
Ene=   -2.7936379044E-01
Spin= Alpha
Occup=   2.0000000
     1  6.849144534E-06
     2  1.067871758E-05
     3 -7.937930596E-02
     4  2.330981439E-02
     5  6.087469073E-02
     6 -2.022760263E-05
     7 -1.166223631E-01
     8  3.425001214E-02
     9  8.943602646E-02
    10 -1.618709337E-04
    11 -9.845083810E-02
    12  2.891140797E-02
    13  7.552056314E-02
    14  2.451325319E-03
    15 -1.551846465E-02
    16 -3.408153204E-03
    17  1.720330614E-03
    18  2.536921231E-03
    19 -3.064979841E-03
    20  4.783550358E-02
    21 -1.515575079E-02
    22 -3.403768689E-02
    23 -7.371149920E-03
    24 -1.174069433E-02
    25  6.523599828E-02
    26  4.782902454E-03
    27 -5.980201487E-02
    28  3.278454257E-02
    29  9.391238860E-02
    30  7.693069248E-03
    31 -8.690277217E-02
    32  7.156151508E-02
    33  8.220875114E-02
    34 -8.283502767E-03
    35 -7.077921084E-02
    36  4.234068758E-03
    37 -1.247143004E-02
    38 -6.868079515E-03
    39  2.740539612E-03
    40  7.621085834E-03
    41  1.854157183E-01
    42  1.010668217E-02
    43 -1.628947603E-02
    44 -8.542380613E-03
    45  4.200629560E-03
    46  6.690812843E-03
    47  5.542794922E-02
    48 -2.386896813E-02
    49 -1.532653267E-02
    50 -1.868563084E-02
    51  7.868155035E-02
    52 -3.362293500E-02
    53 -1.766545114E-02
    54 -4.074600122E-02
    55  7.365641001E-02
    56 -2.491160003E-02
    57 -3.164926148E-02
    58  5.414393036E-04
    59 -1.570577425E-02
    60 -4.053464749E-03
    61  3.941080248E-03
    62  5.638732483E-03
    63 -1.102406212E-01
    64  7.792943815E-03
    65  1.059373016E-02
    66  9.866509419E-03
    67  6.098216912E-03
    68  9.702266881E-03
    69 -7.595084387E-02
    70  1.761586872E-02
    71  6.021141491E-02
    72 -2.681746360E-02
    73 -1.082223043E-01
    74  2.616803698E-02
    75  8.518086315E-02
    76 -7.370885204E-02
    77 -1.061457050E-01
    78  1.808395636E-02
    79  8.700053500E-02
    80  4.962266610E-03
    81 -2.245975723E-02
    82 -4.387091342E-03
    83  6.517969233E-03
    84  4.018962956E-03
    85 -9.108300033E-02
    86 -1.801657910E-02
    87 -2.893145547E-02
    88  2.254616196E-02
    89 -2.235146462E-03
    90 -3.559890929E-03
    91  8.540330372E-02
    92 -1.489455563E-02
    93 -4.219368830E-02
    94  1.000472118E-02
    95  1.246162384E-01
    96 -2.059021419E-02
    97 -6.052380857E-02
    98  2.286887822E-02
    99  8.650003971E-02
   100 -1.661740490E-02
   101 -5.254406682E-02
   102 -2.740978747E-05
   103 -1.364931819E-02
   104 -2.557629744E-03
   105  2.169673373E-03
   106  2.885362651E-03
   107 -2.544100941E-02
   108  1.338207952E-02
   109 -6.439224312E-03
   110  1.398352177E-02
   111 -3.488578020E-03
   112 -5.550358870E-03
   113 -7.393914865E-02
   114  2.311048891E-02
   115  5.110014577E-02
   116  1.534056251E-02
   117 -1.060852603E-01
   118  3.306248722E-02
   119  7.556973126E-02
   120  4.218683940E-02
   121 -1.001907844E-01
   122  3.308652489E-02
   123  6.025914342E-02
   124  5.219181593E-03
   125 -1.547342532E-02
   126 -2.770739688E-03
   127 -2.234132471E-03
   128  6.341961017E-03
   129  4.842503690E-02
   130 -1.112205744E-02
   131  2.231067257E-02
   132 -1.545148752E-03
   133 -2.983835570E-03
   134 -4.752657021E-03
   135  5.297622901E-02
   136 -1.944089546E-02
   137 -7.074393347E-02
   138  1.336576719E-02
   139  7.566792315E-02
   140 -2.725088854E-02
   141 -1.036896366E-01
   142  3.040061002E-02
   143  6.656254239E-02
   144 -1.862308364E-02
   145 -7.036623764E-02
   146  4.342944969E-03
   147 -1.373327272E-02
   148 -3.281903432E-03
   149  3.626839478E-05
   150  7.477959581E-04
   151 -4.099302901E-02
   152 -1.871317078E-02
   153 -1.559174418E-02
   154 -1.093940756E-02
   155 -2.616625181E-03
   156 -4.162930110E-03
   157 -6.845182363E-02
   158  2.337861025E-02
   159  5.611912671E-02
   160  1.150235669E-02
   161 -1.005407271E-01
   162  3.321694081E-02
   163  8.068451730E-02
   164  3.167918479E-02
   165 -8.384957888E-02
   166  3.398267238E-02
   167  7.522700916E-02
   168 -3.001630946E-04
   169 -1.361254892E-02
   170 -7.357004121E-03
   171  3.212403748E-03
   172  2.940075387E-03
   173  3.681580926E-02
   174 -6.078856434E-03
   175  1.753494634E-02
   176  5.847167014E-03
   177  5.240972471E-03
   178  8.347851020E-03
   179  4.359471380E-02
   180 -1.897664629E-02
   181 -2.662948529E-02
   182 -2.347663056E-02
   183  6.134188535E-02
   184 -2.878657774E-02
   185 -3.644865476E-02
   186 -5.338617650E-02
   187  6.013595631E-02
   188 -2.735285068E-02
   189 -4.059489971E-02
   190  1.048608209E-03
   191 -1.660749858E-02
   192 -7.862941561E-04
   193  1.079785617E-03
   194 -1.012278183E-03
   195  7.225793503E-02
   196 -2.416884994E-02
   197  3.072430748E-02
   198  1.874815387E-02
   199  3.148786845E-03
   200  5.015566940E-03
   201  2.894980609E-02
   202 -2.497927075E-02
   203 -3.956847146E-02
   204 -1.400887612E-02
   205  3.675549800E-02
   206 -3.575023617E-02
   207 -5.591831769E-02
   208 -3.054531839E-02
   209  4.857015471E-02
   210 -2.688613186E-02
   211 -5.430146354E-02
   212  5.456199198E-03
   213 -1.580347497E-02
   214 -4.864120462E-03
   215  1.539800380E-03
   216  3.237406712E-03
   217 -7.424539041E-02
   218 -1.153150933E-02
   219  5.280542926E-03
   220 -4.748712130E-03
   221 -3.114444875E-05
   222 -4.955509254E-05
   223  1.486614824E-02
   224 -4.508230664E-03
   225 -1.137052108E-02
   226  1.418985923E-04
   227  1.906976274E-02
   228 -5.813548305E-03
   229 -1.458326699E-02
   230  2.470574401E-04
   231  2.190200006E-02
   232 -6.630879253E-03
   233 -1.672635008E-02
   234  2.891414630E-03
   235 -7.355689440E-03
   236 -4.878674560E-03
   237  2.570428046E-03
   238  6.141176515E-03
   239  2.544148430E-03
   240 -1.445345376E-02
   241  3.649466104E-03
   242  1.111728152E-02
   243 -3.307395881E-02
   244 -5.830655955E-02
   245 -4.041528993E-02
   246  7.567730272E-04
   247  1.619260912E-03
   248 -4.153746003E-03
   249 -1.547234503E-02
   250 -2.552120658E-02
   251 -4.666324220E-02
   252 -3.102907170E-02
   253  4.049640158E-03
   254  1.966439473E-03
   255 -1.287097394E-03
   256 -1.462070057E-02
   257 -2.106197573E-02
   258 -2.834323164E-02
   259 -2.621359183E-02
   260  3.995004044E-03
   261 -7.618941439E-04
   262 -1.622578607E-05
   263  5.865039035E-03
   264  5.445294726E-02
   265  8.813996168E-02
   266  6.723664041E-02
   267 -7.763728830E-04
   268 -2.163438186E-03
   269  1.679656513E-03
   270  1.073601643E-02
   271  9.613774458E-02
   272  1.522404965E-01
   273  1.140914803E-01
   274  2.993969043E-03
   275  2.003842973E-03
   276 -3.978745210E-03
   277  1.586992868E-02
   278 -2.231681675E-02
   279 -3.706323016E-02
   280 -2.518106845E-02
   281  5.808572813E-03
   282 -1.892698544E-04
   283 -5.885357578E-04
   284 -1.165969965E-02
   285 -8.379760929E-04
   286 -3.422838158E-03
   287  1.461661985E-03
   288  5.251913821E-03
   289 -1.158846100E-03
   290 -2.413690640E-03
   291 -9.974550525E-03
   292 -5.502023093E-02
   293 -8.714550605E-02
   294 -6.518756086E-02
   295  1.005750529E-03
   296 -4.939366130E-04
   297  5.236107032E-03
   298 -9.072778564E-03
   299 -2.974643999E-02
   300 -4.942062405E-02
   301 -3.332108743E-02
   302  4.725984321E-04
   303 -9.862419954E-04
   304 -5.267788673E-03
   305 -1.581061058E-02
   306 -1.150976163E-03
   307 -4.626380604E-03
   308  2.097720427E-03
   309  3.089641804E-03
   310 -1.558992422E-03
   311 -4.283514858E-03
   312 -1.387631254E-02
   313 -4.127909234E-02
   314 -6.537370660E-02
   315 -4.896175978E-02
   316 -5.219704503E-03
   317 -1.135167252E-03
   318 -3.252338569E-04
   319 -6.706669006E-03
   320  5.196886127E-02
   321  8.638629689E-02
   322  5.827979591E-02
   323 -1.028757770E-03
   324 -3.678458003E-04
   325  1.829713887E-03
   326  2.755442708E-02
   327  2.277452058E-03
   328  8.507834385E-03
   329 -3.325242458E-03
   330  2.540703967E-03
   331 -4.467452163E-04
   332 -1.653757346E-03
   333  2.368994079E-02
   334  5.405738841E-02
   335  8.650904939E-02
   336  6.650548827E-02
   337 -7.443811043E-04
   338 -1.883886816E-03
   339  1.683626629E-03
   340  9.063111107E-03
   341 -2.902517764E-02
   342 -4.165415571E-02
   343 -3.621760128E-02
   344  1.422699668E-04
   345 -9.880641707E-04
   346 -3.592250490E-03
   347  3.889394175E-03
   348  2.614466657E-02
   349  4.274818756E-02
   350  3.697906093E-02
   351 -7.674982762E-05
   352 -1.473949036E-03
   353  5.237471255E-04
   354  2.000501484E-02
   355 -1.125495524E-02
   356 -1.840831246E-02
   357 -1.588374510E-02
   358  1.087249808E-03
   359  4.957005804E-04
   360 -3.829902446E-04
   361 -8.596573253E-03
   362 -1.498407782E-02
   363 -2.451424419E-02
   364 -2.104947419E-02
   365  3.014331864E-04
   366  5.691503576E-04
   367 -1.141577962E-03
   368 -1.140155551E-02
Ene=   -1.3898255705E-02
Spin= Alpha
Occup=   0.0000000
     1  2.562990078E-04
     2  5.889839599E-04
     3  2.312663590E-04
     4  3.104113973E-03
     5 -8.881006170E-04
     6 -7.272697227E-03
     7  2.120932608E-04
     8  3.286107253E-03
     9 -8.806324930E-04
    10  7.253066436E-02
    11  4.939816441E-04
    12  7.779689736E-03
    13 -2.574862675E-03
    14 -2.964969798E-03
    15 -2.659166738E-04
    16 -3.463473229E-03
    17 -6.057126394E-03
    18  9.050394908E-04
    19  4.612294879E+00
    20  1.311077263E-01
    21  2.006548633E+00
    22 -5.513974610E-01
    23  1.255586031E-02
    24  2.023703694E-02
    25  9.957855750E-03
    26 -1.637195253E-02
    27 -6.291346843E-03
    28 -5.820283671E-02
    29  1.338913893E-02
    30 -2.192569657E-02
    31 -8.475441085E-03
    32 -1.915834570E-01
    33  4.156646250E-02
    34 -6.192007733E-02
    35 -2.758000718E-02
    36 -6.514968835E-04
    37  1.124295604E-03
    38  2.402265843E-03
    39 -1.492104611E-04
    40 -2.369630216E-03
    41 -2.831366287E+00
    42 -3.119964723E-01
    43 -2.456155693E-01
    44  3.541930197E-01
    45  1.255600735E-02
    46  2.024622706E-02
    47 -1.548126472E-02
    48 -1.289863107E-02
    49 -6.871964840E-04
    50 -5.847317101E-02
    51 -2.077432455E-02
    52 -1.731823330E-02
    53 -1.046386233E-03
    54 -1.887480665E-01
    55 -6.420539215E-02
    56 -4.883108672E-02
    57 -3.355292781E-03
    58  8.902887095E-05
    59 -9.408909347E-04
    60  1.458512260E-03
    61  8.814835302E-04
    62  3.052903744E-03
    63 -2.526999671E+00
    64  3.057346571E-01
    65 -3.905226928E-01
    66  2.251292885E-01
    67  4.969069791E-03
    68  8.106634655E-03
    69  1.608117039E-02
    70  5.677659745E-03
    71 -1.694751683E-02
    72 -2.819822331E-02
    73  2.254879515E-02
    74  7.037704068E-03
    75 -2.362131724E-02
    76 -5.058317627E-02
    77  7.687953651E-02
    78  9.495084681E-03
    79 -7.664611652E-02
    80  1.877636806E-03
    81 -6.755223681E-03
    82 -2.647531353E-04
    83  3.443108182E-03
    84  2.673038116E-04
    85  3.528128136E+00
    86  1.019881836E+00
    87 -2.546909655E-01
    88 -9.341577316E-01
    89  1.238172667E-02
    90  1.979416633E-02
    91 -3.495583240E-03
    92  8.590526817E-03
    93 -2.128804758E-02
    94 -5.264764051E-02
    95 -5.141659085E-03
    96  1.090514484E-02
    97 -2.971902871E-02
    98 -2.719656235E-01
    99 -3.125579897E-03
   100  3.845898535E-02
   101 -4.557066307E-02
   102  3.648536586E-03
   103  2.197482720E-03
   104 -1.090512114E-03
   105 -3.910467338E-03
   106  9.263603485E-04
   107 -4.525594757E+00
   108  1.180803401E-01
   109  2.737465686E-03
   110  4.994124168E-01
   111  4.968371159E-03
   112  8.103347776E-03
   113 -1.958774703E-02
   114  1.052440620E-02
   115 -9.110549173E-03
   116 -2.806961745E-02
   117 -2.768484679E-02
   118  1.395526497E-02
   119 -1.257053614E-02
   120 -5.211724936E-02
   121 -9.499434845E-02
   122  3.171473606E-02
   123 -3.859253787E-02
   124 -2.499216731E-03
   125  4.277098322E-03
   126 -1.159764729E-03
   127  5.185814593E-03
   128 -3.057082884E-03
   129  3.190008338E+00
   130 -1.290776626E+00
   131  9.264858131E-03
   132 -3.877496576E-01
   133  1.238005744E-02
   134  1.979531448E-02
   135  1.887985676E-02
   136  1.341471654E-02
   137  1.553336304E-03
   138 -5.273329835E-02
   139  2.657158674E-02
   140  1.781416675E-02
   141  2.672351334E-03
   142 -2.707501283E-01
   143  3.690536950E-02
   144  4.692741494E-02
   145 -5.380008491E-03
   146 -4.569425799E-03
   147  2.355266288E-03
   148 -1.992359764E-03
   149  8.163989823E-04
   150  2.042582460E-03
   151 -4.412418123E+00
   152 -4.572985944E-01
   153 -1.220991363E-01
   154 -1.124498470E-01
   155  4.967205385E-03
   156  8.099235085E-03
   157  5.897936185E-03
   158  1.603196711E-02
   159  1.690185661E-02
   160 -2.796958165E-02
   161  8.201639724E-03
   162  2.169913962E-02
   163  2.408095704E-02
   164 -5.348358422E-02
   165  2.730964927E-02
   166  5.819054566E-02
   167  8.570155750E-02
   168  4.231694780E-03
   169  2.837678237E-03
   170  5.652592537E-03
   171 -1.235975043E-03
   172  1.691016434E-03
   173  3.090456739E+00
   174  3.186085417E-01
   175  3.646113033E-01
   176  1.236872522E+00
   177  1.238015019E-02
   178  1.980335076E-02
   179 -1.244659751E-02
   180  1.767786206E-02
   181  8.447347226E-03
   182 -5.297018424E-02
   183 -1.769751898E-02
   184  2.379858891E-02
   185  1.232778950E-02
   186 -2.681002637E-01
   187 -2.175350739E-02
   188  5.584760422E-02
   189  8.896213725E-03
   190 -1.643351724E-03
   191 -4.841205596E-03
   192  8.208377922E-05
   193 -2.140871375E-03
   194 -2.190574458E-03
   195 -4.333552477E+00
   196  3.180740197E-01
   197 -2.168830863E-01
   198 -2.773952029E-01
   199  1.255658944E-02
   200  2.024865092E-02
   201  2.690263591E-03
   202 -8.976187331E-03
   203  1.784916952E-02
   204 -5.852396707E-02
   205  3.680499444E-03
   206 -1.198788125E-02
   207  2.396675569E-02
   208 -1.882665332E-01
   209  1.101183122E-02
   210 -3.330133152E-02
   211  7.287467494E-02
   212  1.739531891E-03
   213 -8.335611696E-05
   214 -2.498544021E-03
   215  1.675442244E-03
   216 -1.023739344E-03
   217 -2.523992625E+00
   218 -1.184941112E-01
   219 -4.793175896E-01
   220 -2.193038736E-01
   221  7.554452082E-03
   222  1.212163750E-02
   223 -2.127163124E-03
   224 -2.878830169E-02
   225  8.172989998E-03
   226 -3.317401111E-02
   227 -2.916838715E-03
   228 -3.967684380E-02
   229  1.125590984E-02
   230 -1.617568571E-01
   231 -6.418035769E-03
   232 -8.219919618E-02
   233  2.364206921E-02
   234  1.030981124E-03
   235  1.083649065E-04
   236  1.202068264E-03
   237  2.106473220E-03
   238 -3.162661030E-04
   239 -3.858932137E+00
   240  3.117278207E-02
   241  3.500725062E-01
   242 -1.023563776E-01
   243  1.765888991E-05
   244  5.306336378E-03
   245  2.739718698E-01
   246 -5.084215574E-03
   247  7.373619302E-04
   248 -3.057206609E-03
   249  4.648056707E-01
   250  1.914130554E-05
   251  5.258268206E-03
   252  2.744797720E-01
   253  2.621483514E-03
   254  2.400401435E-03
   255  4.812900619E-03
   256  4.684949289E-01
   257 -1.741291468E-05
   258  5.602997029E-03
   259  2.675060951E-01
   260  3.209073074E-04
   261  2.725816909E-03
   262  5.327652937E-03
   263  4.656026709E-01
   264  1.209454964E-05
   265  5.393758986E-03
   266  2.722169790E-01
   267  3.392179699E-03
   268 -4.190393234E-04
   269 -4.922453717E-03
   270  4.797152636E-01
   271  6.058658506E-03
   272  1.480304389E-02
   273  2.789680811E-01
   274 -4.514763306E-03
   275  1.803057860E-04
   276  4.383356864E-03
   277  8.595784955E-01
   278  1.144472910E-03
   279  3.259673758E-03
   280  2.473781223E-01
   281  1.487346593E-03
   282  4.465066757E-03
   283  4.054457805E-03
   284  4.354144399E-01
   285  1.602455349E-03
   286  1.024967011E-02
   287  2.692927712E-01
   288 -7.399834905E-04
   289 -5.968367534E-03
   290  3.552695540E-04
   291  6.191552990E-01
   292  6.092812318E-03
   293  1.443543447E-02
   294  2.837783670E-01
   295  5.813648599E-03
   296 -1.226926546E-03
   297  2.134029975E-03
   298  8.410577161E-01
   299  1.124503309E-03
   300  3.435098764E-03
   301  2.446668951E-01
   302 -4.828829884E-03
   303  3.093042970E-03
   304 -2.385610797E-03
   305  4.433041955E-01
   306  1.575064267E-03
   307  1.056022756E-02
   308  2.648641560E-01
   309  8.487856882E-04
   310 -5.616749302E-03
   311  1.985155573E-03
   312  6.136033551E-01
   313  6.104446527E-03
   314  1.437173526E-02
   315  2.860027730E-01
   316 -1.579221222E-03
   317 -2.821223697E-03
   318 -5.414593727E-03
   319  8.410973288E-01
   320  1.119802189E-03
   321  3.435066483E-03
   322  2.452568845E-01
   323  4.036556364E-03
   324  1.885949352E-03
   325 -4.350360282E-03
   326  4.419002149E-01
   327  1.575036754E-03
   328  1.054734342E-02
   329  2.662867664E-01
   330 -1.368854005E-03
   331 -5.328500545E-03
   332  2.477554606E-03
   333  6.081478914E-01
   334  6.068012332E-06
   335  5.429693592E-03
   336  2.714338835E-01
   337  5.044373356E-03
   338 -5.605708102E-05
   339 -3.240194743E-03
   340  4.701962258E-01
   341 -9.985760335E-06
   342  5.557338349E-03
   343  2.690457945E-01
   344 -5.757991119E-03
   345  1.419629605E-03
   346 -8.729458094E-04
   347  4.658678788E-01
   348 -1.517180880E-03
   349  2.415261959E-03
   350  1.307158547E-01
   351  3.520533117E-03
   352 -2.452577621E-03
   353 -2.924799656E-03
   354  3.869657546E-01
   355 -1.503987101E-03
   356  2.232717861E-03
   357  1.306972389E-01
   358  1.118793966E-03
   359 -1.649295482E-06
   360  5.082135988E-03
   361  3.861253765E-01
   362 -1.500184945E-03
   363  2.149025232E-03
   364  1.311907996E-01
   365 -4.923719317E-03
   366 -1.302443038E-03
   367 -1.083462169E-03
   368  3.906139545E-01
Ene=    5.6367060290E-03
Spin= Alpha
Occup=   0.0000000
     1  5.544890178E-03
     2  9.145462456E-03
     3 -6.578045425E-04
     4 -9.005636638E-03
     5  2.552026856E-03
     6 -2.957250243E-02
     7 -1.736450864E-03
     8 -2.405115425E-02
     9  6.856759109E-03
    10  3.639658666E-04
    11  5.915571113E-03
    12  8.382047759E-02
    13 -2.399698424E-02
    14  1.877997923E-05
    15  1.510728187E-06
    16  4.439758629E-06
    17  4.514349745E-05
    18 -1.721665241E-05
    19 -7.306030533E+00
    20  1.848191445E-01
    21  2.653917983E+00
    22 -7.579763254E-01
    23 -5.777810065E-03
    24 -9.150169420E-03
    25 -6.079784615E-03
    26  1.893084355E-02
    27  1.900493690E-03
    28  2.183254839E-02
    29 -7.393373808E-03
    30  2.899107860E-02
    31  9.969138352E-04
    32  1.709803788E-01
    33 -1.981205353E-02
    34 -3.100461170E-03
    35  2.019989634E-02
    36  1.867077211E-04
    37  4.557384402E-04
    38  2.895089091E-03
    39  1.427269879E-03
    40 -2.338050995E-03
    41  2.999304332E+00
    42  2.450477808E-01
    43 -1.000918859E-01
    44 -2.112272123E-01
    45 -5.763638352E-03
    46 -9.128235527E-03
    47  1.083328490E-02
    48  1.659600315E-02
    49 -1.813702848E-03
    50  2.180626773E-02
    51  1.415303496E-02
    52  2.597781260E-02
    53 -3.744402550E-03
    54  1.698334726E-01
    55  2.460789823E-02
    56 -8.655130773E-03
    57  1.057512304E-02
    58  4.833102123E-04
    59 -4.092884050E-04
    60  1.955606473E-03
    61  2.558261396E-03
    62  2.317542647E-03
    63  3.030418586E+00
    64 -3.398692019E-01
    65 -2.171525787E-02
    66 -8.374338147E-02
    67  4.282311037E-03
    68  6.921766631E-03
    69  1.043362765E-02
    70 -1.148134611E-02
    71 -7.772722668E-03
    72 -2.035448079E-02
    73  1.336547412E-02
    74 -1.776793854E-02
    75 -9.329649931E-03
    76 -9.573347145E-02
    77  7.641014800E-02
    78 -8.405167428E-02
    79 -5.628368629E-02
    80  1.586197679E-03
    81 -1.431574477E-03
    82  1.246663243E-03
    83  3.179578628E-03
    84 -2.516382609E-04
    85  2.283200846E+00
    86  8.538530218E-01
    87 -4.002008817E-01
    88 -7.368690449E-01
    89  5.988725155E-03
    90  9.435106787E-03
    91  1.905936813E-05
    92  2.177065628E-02
    93 -1.333155463E-02
    94 -2.107787660E-02
    95 -4.407604563E-04
    96  2.990741248E-02
    97 -2.058385634E-02
    98 -2.207841273E-01
    99  1.325687527E-02
   100  6.593767373E-02
   101  2.142848086E-02
   102  1.999708147E-03
   103  9.468566348E-04
   104  4.872785902E-04
   105 -2.485639329E-04
   106  2.088907378E-04
   107 -3.663434281E+00
   108  1.523164932E-01
   109  3.537566353E-01
   110  4.896614750E-01
   111  4.299189413E-03
   112  6.950602711E-03
   113 -1.535176495E-02
   114 -7.958541196E-03
   115 -2.176505761E-03
   116 -2.048876900E-02
   117 -2.015352263E-02
   118 -1.315385887E-02
   119 -2.012394072E-03
   120 -9.568191975E-02
   121 -1.126747768E-01
   122 -5.884572609E-02
   123 -1.599303659E-02
   124  6.182488689E-04
   125  1.056888886E-03
   126  1.083986836E-03
   127  3.521010407E-03
   128 -1.092417042E-03
   129  2.382517732E+00
   130 -1.179264462E+00
   131 -1.335026889E-01
   132 -3.138421379E-01
   133  5.964165869E-03
   134  9.406623237E-03
   135  8.447336068E-03
   136  2.356188557E-02
   137 -4.683057394E-03
   138 -2.130824707E-02
   139  1.376573348E-02
   140  3.304675744E-02
   141 -5.898690605E-03
   142 -2.160423112E-01
   143 -3.236791338E-02
   144  5.575825202E-02
   145 -2.822530600E-02
   146 -1.113369412E-03
   147  1.012389552E-03
   148 -6.417861977E-05
   149  1.666555900E-03
   150  4.441327979E-04
   151 -3.417068534E+00
   152 -4.915986398E-01
   153  2.188931228E-01
   154 -2.267245689E-01
   155  4.283835876E-03
   156  6.919775714E-03
   157  3.109217622E-03
   158 -4.017285040E-03
   159  1.659823397E-02
   160 -2.016404510E-02
   161  3.808263702E-03
   162 -8.075658041E-03
   163  2.237679336E-02
   164 -9.845315489E-02
   165  2.289919039E-02
   166 -3.006012418E-02
   167  1.203861880E-01
   168  2.096828187E-03
   169  7.671869840E-04
   170  2.700917172E-03
   171  2.077096118E-03
   172  4.944085695E-05
   173  1.999924098E+00
   174  2.716816956E-01
   175  1.481497863E-01
   176  1.124103262E+00
   177  5.983357389E-03
   178  9.433238350E-03
   179 -3.382307157E-03
   180  2.520345647E-02
   181 -2.055009788E-03
   182 -2.124665644E-02
   183 -6.136602426E-03
   184  3.575978873E-02
   185 -1.462761135E-03
   186 -2.184699481E-01
   187  3.084956677E-02
   188  4.672180368E-02
   189 -4.256829413E-02
   190  4.528577898E-05
   191 -1.890120307E-03
   192  6.754750813E-04
   193  5.730765298E-04
   194 -9.543155210E-04
   195 -3.534239744E+00
   196  4.042985532E-01
   197  7.716029975E-02
   198 -4.376371780E-01
   199 -5.778468222E-03
   200 -9.144469650E-03
   201 -1.249069043E-03
   202  1.400236758E-02
   203 -1.419980717E-02
   204  2.162353869E-02
   205 -1.252410574E-03
   206  2.275461630E-02
   207 -1.944298083E-02
   208  1.731635364E-01
   209 -7.233874710E-03
   210 -1.733499127E-02
   211 -2.200469928E-02
   212  2.594896825E-03
   213  2.467453729E-04
   214 -1.054304418E-03
   215  2.674662018E-03
   216 -9.663625081E-04
   217  3.136775479E+00
   218  8.284483633E-02
   219  2.614220100E-02
   220  3.403894691E-01
   221 -2.159468656E-02
   222 -3.467476525E-02
   223  2.444833936E-03
   224  3.365545631E-02
   225 -9.586017516E-03
   226  1.022525663E-01
   227  4.049660669E-03
   228  5.525612262E-02
   229 -1.573282929E-02
   230  2.787321622E-01
   231  8.219416967E-03
   232  1.138034258E-01
   233 -3.217887957E-02
   234  1.129697386E-04
   235  1.175932980E-05
   236  1.361277515E-04
   237  1.986852721E-04
   238 -2.332079756E-05
   239  2.468824938E+00
   240  1.344214810E-02
   241  2.116005798E-01
   242 -6.734648678E-02
   243  4.952180845E-03
   244  1.057350384E-02
   245 -1.261080246E-01
   246  2.765990432E-03
   247 -1.220874207E-03
   248  1.959536639E-03
   249 -3.639446556E-01
   250  4.931252372E-03
   251  1.053758252E-02
   252 -1.262675247E-01
   253 -1.541761994E-03
   254 -2.140409412E-03
   255 -2.426268912E-03
   256 -3.687242536E-01
   257  4.923769613E-03
   258  1.063802086E-02
   259 -1.289020824E-01
   260 -1.919671207E-04
   261 -2.321181437E-03
   262 -2.716503558E-03
   263 -3.684402649E-01
   264  4.936442132E-03
   265  1.054631058E-02
   266 -1.263970965E-01
   267 -1.907885974E-03
   268 -5.871003791E-04
   269  2.974571474E-03
   270 -3.528006053E-01
   271  2.773108643E-03
   272  1.738513828E-02
   273  1.451822159E-01
   274 -1.817031979E-03
   275 -2.073958907E-03
   276  2.225280550E-03
   277  8.556346423E-01
   278  4.322659039E-03
   279  8.165845922E-03
   280  9.457547695E-03
   281  3.096319204E-04
   282  7.734767640E-04
   283  9.226591510E-04
   284  3.148301245E-02
   285 -7.897012395E-03
   286 -1.771000213E-02
   287  2.399966132E-01
   288 -5.974911822E-04
   289 -6.133561159E-03
   290  1.056593051E-03
   291  9.211063843E-01
   292  2.759008747E-03
   293  1.756239070E-02
   294  1.452294991E-01
   295  1.987670559E-03
   296 -2.589228747E-03
   297  1.398195525E-03
   298  8.699604734E-01
   299  4.315737707E-03
   300  8.387511263E-03
   301  5.480875012E-03
   302 -1.055544073E-03
   303  4.676585515E-04
   304 -4.527416553E-04
   305  4.051753906E-02
   306 -7.940885720E-03
   307 -1.728020208E-02
   308  2.333039818E-01
   309  1.941957764E-04
   310 -5.951022550E-03
   311  1.889977334E-03
   312  9.105374023E-01
   313  2.813855393E-03
   314  1.697598428E-02
   315  1.521948499E-01
   316 -7.386616476E-04
   317 -3.182369556E-03
   318 -1.387998952E-03
   319  8.539931296E-01
   320  4.311794188E-03
   321  8.270720390E-03
   322  8.559669418E-03
   323  8.636439104E-04
   324  2.177123038E-04
   325 -8.779502581E-04
   326  3.779601325E-02
   327 -7.921455903E-03
   328 -1.742288384E-02
   329  2.364768697E-01
   330 -9.141093312E-04
   331 -5.801082895E-03
   332  2.143286222E-03
   333  9.065733343E-01
   334  4.912356838E-03
   335  1.068414019E-02
   336 -1.282123350E-01
   337 -2.872845637E-03
   338 -7.891460900E-04
   339  1.989053015E-03
   340 -3.699081099E-01
   341  4.940472393E-03
   342  1.064252260E-02
   343 -1.278235625E-01
   344  3.139441681E-03
   345 -1.607168862E-03
   346  6.748370067E-04
   347 -3.665742444E-01
   348  1.309753481E-03
   349  1.314205884E-02
   350 -3.787295016E-01
   351 -6.973023310E-03
   352  4.839125489E-04
   353  6.727074306E-03
   354 -1.146372057E+00
   355  1.317173627E-03
   356  1.290168571E-02
   357 -3.772557272E-01
   358 -2.409588595E-03
   359 -4.141539844E-03
   360 -8.412919328E-03
   361 -1.135342076E+00
   362  1.311424053E-03
   363  1.323563769E-02
   364 -3.798653236E-01
   365  9.005151142E-03
   366 -1.692947452E-03
   367  3.226052077E-03
   368 -1.146947946E+00
Ene=    7.6007341298E-03
Spin= Alpha
Occup=   0.0000000
     1  4.272447613E-06
     2  4.398361112E-06
     3 -9.648442858E-04
     4 -1.151661399E-03
     5 -4.229230655E-03
     6  5.213566601E-05
     7 -2.423308138E-03
     8 -2.917297038E-03
     9 -1.073637433E-02
    10 -1.396163046E-03
    11 -4.950329329E-03
    12 -7.108246582E-03
    13 -2.281174750E-02
    14 -4.526964616E-05
    15  1.860144022E-03
    16  6.220661936E-03
    17 -3.247960500E-03
    18  2.205280722E-03
    19 -6.039691030E-02
    20 -7.268016164E-02
    21 -3.047530077E-01
    22 -5.555421903E-01
    23 -3.073240970E-03
    24 -4.791919050E-03
    25  2.600035351E-03
    26  1.457507921E-02
    27  2.494023537E-02
    28  9.712501061E-03
    29  8.264503771E-05
    30  1.943822929E-02
    31  3.507854102E-02
    32  1.282164722E-01
    33  4.347374715E-02
    34  2.267316382E-02
    35  6.688086663E-02
    36  4.665608326E-04
    37 -4.236900808E-04
    38 -6.003718556E-04
    39 -9.141018341E-04
    40  1.392856818E-03
    41  2.833665145E+00
    42  5.793522289E-01
    43 -1.897602584E-01
    44  5.514447401E-01
    45 -2.804551217E-03
    46 -4.375953353E-03
    47  9.971020834E-03
    48  1.288644166E-02
    49  2.331200302E-02
    50  8.925348648E-03
    51  1.670481539E-02
    52  1.638378422E-02
    53  3.114854925E-02
    54  1.167660514E-01
    55 -6.774030133E-03
    56  2.900880029E-02
    57  7.952648827E-02
    58 -4.083223469E-05
    59  9.501869852E-04
    60 -1.755138215E-04
    61 -1.187369801E-03
    62 -8.626140778E-04
    63  2.265209158E+00
    64 -2.620950014E-01
    65 -1.134279071E-02
    66  8.042542727E-01
    67 -3.163448532E-03
    68 -5.108470826E-03
    69 -1.745819887E-02
    70 -1.996211681E-03
    71  1.095133432E-02
    72  1.499478500E-02
    73 -2.308734831E-02
    74 -2.473694584E-03
    75  1.067042652E-02
    76  1.110078564E-01
    77 -1.404627005E-01
    78 -2.685619645E-02
    79  6.203960850E-02
    80  2.176108930E-03
    81  9.064645719E-04
    82  2.764470012E-03
    83 -1.962792996E-03
    84  5.916070080E-04
    85 -3.003415464E+00
    86 -1.812552951E+00
    87 -6.022411656E-01
    88  7.717569747E-01
    89 -8.470162743E-03
    90 -1.326234152E-02
    91  7.835349354E-03
    92  1.985241189E-03
    93  3.527222489E-02
    94  2.776676402E-02
    95  1.102061560E-02
    96 -1.749893474E-04
    97  5.164915313E-02
    98  3.263799271E-01
    99  1.359467164E-02
   100  5.989131259E-02
   101  2.612927201E-02
   102 -1.092392092E-03
   103 -6.606446620E-04
   104  1.006820042E-03
   105  1.558120142E-03
   106 -2.604924305E-04
   107  5.138983448E+00
   108  1.217859634E-01
   109  7.192327629E-01
   110  6.177112361E-02
   111 -2.892695382E-03
   112 -4.672394841E-03
   113  1.774088072E-02
   114 -6.527120076E-03
   115  2.136258725E-03
   116  1.374790479E-02
   117  2.209653491E-02
   118 -8.529264166E-03
   119 -6.964169161E-04
   120  1.011943938E-01
   121  1.316054094E-01
   122 -5.983513843E-02
   123 -5.007510237E-03
   124  1.592800502E-03
   125  2.346620623E-03
   126  2.295994562E-03
   127 -1.428371125E-03
   128  1.487128470E-03
   129 -2.701527614E+00
   130  1.627242289E+00
   131 -9.930528515E-01
   132 -1.043689539E-01
   133  4.058106509E-03
   134  6.358647288E-03
   135  1.493359268E-02
   136  5.025178483E-03
   137  9.075511306E-03
   138 -1.340721026E-02
   139  2.103800770E-02
   140  9.444280307E-03
   141  1.472073631E-02
   142 -1.547196927E-01
   143  1.741595917E-02
   144 -2.453651607E-02
   145  1.397148166E-02
   146 -1.033753589E-03
   147  4.937961107E-04
   148  1.122723334E-04
   149 -3.187127230E-04
   150  4.414105146E-04
   151 -2.337753491E+00
   152  1.707914742E-01
   153 -3.757991263E-01
   154 -4.445647337E-02
   155  6.087888246E-03
   156  9.836266123E-03
   157  9.808507075E-03
   158  2.036406408E-02
   159  3.136088418E-02
   160 -2.905726749E-02
   161  1.181726652E-02
   162  2.379152788E-02
   163  3.757329739E-02
   164 -2.100079677E-01
   165  6.977243178E-02
   166  1.597173307E-01
   167  2.147401460E-01
   168 -2.988035925E-06
   169  9.366697347E-04
   170  2.015699233E-03
   171 -2.178532393E-03
   172  1.065477584E-03
   173  5.431228762E+00
   174  8.754646976E-01
   175  2.476761970E+00
   176  2.393959597E+00
   177  4.451232283E-03
   178  6.976752294E-03
   179 -9.330835562E-03
   180  8.834772112E-03
   181  1.497485096E-02
   182 -1.477906096E-02
   183 -1.183171682E-02
   184  1.472533179E-02
   185  2.274529340E-02
   186 -1.686321015E-01
   187 -1.768580413E-02
   188 -2.082378964E-02
   189  2.325531554E-02
   190 -5.449064678E-04
   191 -8.097523432E-04
   192  4.072239708E-04
   193 -8.128948463E-04
   194 -9.620364013E-05
   195 -2.449783326E+00
   196 -2.897167181E-01
   197 -2.994890253E-01
   198  7.361005843E-02
   199  5.877654294E-03
   200  9.156357037E-03
   201  6.550155302E-03
   202 -4.923944175E-03
   203  3.609436212E-02
   204 -1.834217418E-02
   205  1.056400050E-02
   206 -3.536047633E-03
   207  5.427925176E-02
   208 -2.496745422E-01
   209  4.583078236E-03
   210 -1.790176999E-03
   211  3.395417040E-02
   212  1.835802790E-03
   213  1.000413954E-04
   214 -1.127602964E-03
   215  2.049796546E-03
   216 -8.298174817E-04
   217 -5.242496602E+00
   218 -2.068314717E-02
   219  5.822274549E-01
   220 -2.741629324E-01
   221 -3.149453606E-05
   222 -4.683145900E-05
   223  4.430034671E-03
   224  5.225934814E-03
   225  1.946675674E-02
   226 -1.502238669E-05
   227  6.734810123E-03
   228  8.120893543E-03
   229  2.985713731E-02
   230  2.405898095E-03
   231  9.219944802E-03
   232  9.016508226E-03
   233  3.941983110E-02
   234  1.628048119E-04
   235 -2.937114910E-04
   236 -1.328018127E-03
   237  5.982193747E-04
   238 -4.479544212E-04
   239  1.571521451E-01
   240  9.259193396E-02
   241  8.699982750E-02
   242  4.377817593E-01
   243 -4.402762068E-03
   244 -1.345872608E-02
   245  7.277021819E-02
   246 -7.034464929E-04
   247  5.044625498E-04
   248  5.008873388E-05
   249  1.427561625E-01
   250  6.645534187E-03
   251  1.816274058E-02
   252 -2.501291198E-01
   253 -2.180433430E-03
   254 -3.330819246E-03
   255 -5.561337585E-03
   256 -8.985550094E-01
   257  6.742450244E-03
   258  1.826208486E-02
   259 -2.414003065E-01
   260 -1.246017506E-03
   261 -3.394619572E-03
   262 -5.640548988E-03
   263 -9.018447144E-01
   264 -4.638008371E-03
   265 -1.460951449E-02
   266  9.359406747E-02
   267  1.007541571E-03
   268  3.053244601E-04
   269 -5.769143686E-04
   270  1.953542226E-01
   271  7.940975710E-04
   272 -1.413162709E-02
   273 -2.428583060E-01
   274  1.309533696E-03
   275  8.428688329E-05
   276 -3.098390964E-03
   277 -1.487786794E+00
   278  6.419924944E-03
   279  1.614094298E-02
   280 -2.991599199E-01
   281 -2.028360863E-03
   282 -5.593815260E-03
   283 -5.877273932E-03
   284 -1.455055916E+00
   285 -8.708263906E-04
   286 -4.653173459E-04
   287 -5.504615572E-02
   288  4.407626675E-04
   289  3.689227202E-03
   290 -3.892807104E-04
   291 -3.978280671E-01
   292  7.309238494E-04
   293 -1.288319944E-02
   294 -2.222201807E-01
   295 -2.148000573E-03
   296  4.894685959E-04
   297 -2.240357469E-03
   298 -1.363136688E+00
   299 -3.073030962E-03
   300 -7.331464472E-03
   301  1.434915297E-01
   302 -3.070190396E-03
   303  1.596792377E-03
   304 -2.101200547E-03
   305  7.017907451E-01
   306  4.073938490E-04
   307  1.219446130E-04
   308  2.497812131E-02
   309  4.258992917E-04
   310 -1.943512446E-03
   311 -1.995456330E-04
   312  1.704829727E-01
   313 -1.449552164E-03
   314  2.630516175E-02
   315  4.694817124E-01
   316 -1.466399182E-03
   317 -3.339837541E-03
   318 -4.826727104E-03
   319  2.841616722E+00
   320 -3.399864402E-03
   321 -7.808183138E-03
   322  1.517744725E-01
   323  2.505343266E-03
   324  9.576228572E-04
   325 -3.519373992E-03
   326  7.693875872E-01
   327  4.412695235E-04
   328  9.576670040E-05
   329  2.568908119E-02
   330 -9.588701320E-04
   331 -1.920676962E-03
   332  1.727495210E-04
   333  2.161525649E-01
   334 -2.276362976E-03
   335 -5.143995633E-03
   336  1.698005736E-01
   337  4.820572075E-03
   338  6.767204352E-05
   339 -3.569037116E-03
   340  7.438003051E-01
   341 -1.947229796E-03
   342 -4.021238371E-03
   343  1.582597546E-01
   344 -5.454868425E-03
   345  1.428729551E-03
   346 -1.190031109E-03
   347  6.989572600E-01
   348 -2.106032462E-03
   349 -4.920640752E-03
   350  4.986271128E-02
   351  1.795716559E-03
   352  4.832363505E-04
   353 -1.681891684E-03
   354  3.498219057E-01
   355  4.036460780E-03
   356  9.275260645E-03
   357 -9.201141633E-02
   358 -1.199389081E-03
   359 -2.997975616E-03
   360 -3.555872833E-03
   361 -6.805724741E-01
   362 -1.901942607E-03
   363 -4.705704526E-03
   364  4.889212162E-02
   365 -1.963923654E-03
   366  9.379029271E-04
   367 -7.299429894E-04
   368  3.242005539E-01
Ene=    7.6087733169E-03
Spin= Alpha
Occup=   0.0000000
     1  7.957256075E-06
     2  1.427913199E-05
     3 -4.382171014E-03
     4  5.486275345E-04
     5  8.473404545E-04
     6 -1.312896338E-04
     7 -1.101636645E-02
     8  1.381688362E-03
     9  2.151203642E-03
    10  1.528458917E-03
    11 -2.387860389E-02
    12  3.310538701E-03
    13  4.497872912E-03
    14  2.022031663E-03
    15 -5.151177494E-03
    16 -2.204538484E-04
    17  1.316621354E-04
    18  5.171916672E-03
    19  1.537867874E-01
    20 -5.560439309E-01
    21  8.986536701E-02
    22  1.092619429E-01
    23  4.996783708E-03
    24  7.788831827E-03
    25  2.929113240E-02
    26 -1.647067053E-02
    27 -6.426999123E-03
    28 -1.572915475E-02
    29  4.294403853E-02
    30 -2.235469877E-02
    31 -1.325743584E-02
    32 -2.101073209E-01
    33  5.375749680E-02
    34 -1.003085877E-02
    35  1.980369922E-02
    36  2.564255015E-04
    37  4.379719121E-04
    38  2.242215322E-03
    39  4.012010494E-04
    40 -1.343964820E-03
    41 -4.345846537E+00
    42  3.066470734E-01
    43  5.785347830E-01
    44  2.423382676E-01
    45 -5.183020309E-03
    46 -8.090183666E-03
    47  3.309880636E-02
    48  8.832184532E-03
    49 -5.916899615E-03
    50  1.661295071E-02
    51  4.975340929E-02
    52  1.093242533E-02
    53 -5.265450633E-03
    54  2.150853962E-01
    55  4.201143298E-02
    56 -2.142781572E-03
    57 -3.596738910E-02
    58 -3.846006196E-04
    59  2.221507462E-05
    60 -1.596047945E-03
    61 -1.264741991E-03
    62 -1.809854198E-03
    63  4.253219285E+00
    64  2.502143492E-02
    65 -5.834100729E-01
    66 -2.817711104E-01
    67  5.180485511E-03
    68  8.364553028E-03
    69  2.128904730E-02
    70  1.637492129E-03
    71 -2.524180506E-02
    72 -2.448006469E-02
    73  2.409629190E-02
    74  1.200894330E-03
    75 -3.151575772E-02
    76 -1.820986454E-01
    77  1.387505847E-01
    78  2.322722101E-02
    79 -1.904341258E-01
    80  1.634665012E-03
    81 -2.422636764E-03
    82 -2.726941489E-04
    83 -1.253526301E-03
    84  1.747357292E-03
    85  4.555466575E+00
    86  1.637993847E+00
    87  7.466645745E-01
    88 -2.447987741E+00
    89 -2.264723479E-04
    90 -3.603066753E-04
    91  6.399208988E-03
    92 -7.293402892E-04
    93 -4.238995452E-04
    94  9.183613735E-04
    95  1.189119186E-02
    96 -1.554051954E-03
    97 -1.167383422E-03
    98  6.696360856E-03
    99 -6.967446973E-04
   100  2.623659284E-03
   101  1.104521954E-03
   102  7.175223716E-05
   103 -2.944289236E-04
   104 -5.999798512E-05
   105  1.567911105E-04
   106  5.453063145E-04
   107  1.133649603E-01
   108 -2.209253572E-01
   109  5.382300536E-02
   110  5.530288820E-02
   111 -5.336977949E-03
   112 -8.621758415E-03
   113  2.956765382E-02
   114 -8.818183941E-03
   115  1.441129233E-02
   116  2.535415504E-02
   117  3.485949251E-02
   118 -9.574276364E-03
   119  1.877519516E-02
   120  1.858807049E-01
   121  2.013390973E-01
   122 -7.262674291E-02
   123  1.172348242E-01
   124  7.011416961E-04
   125 -3.131485781E-03
   126  5.552949259E-04
   127  6.665400285E-04
   128  1.413866102E-03
   129 -4.499552515E+00
   130  2.333295600E+00
   131 -1.293575770E+00
   132  1.574512732E+00
   133  7.466337040E-03
   134  1.169698921E-02
   135  3.122156803E-02
   136  5.538603950E-03
   137  4.377840050E-03
   138 -2.466454521E-02
   139  4.552263932E-02
   140  1.036490472E-02
   141  4.317230153E-03
   142 -2.850803026E-01
   143  3.358509455E-02
   144 -4.268512701E-02
   145  2.368066433E-02
   146 -1.397327642E-03
   147  4.402125884E-04
   148 -8.995500538E-04
   149 -6.841918634E-05
   150  1.083511387E-03
   151 -4.310212725E+00
   152  1.969714019E-01
   153 -5.305974660E-01
   154  3.431977962E-01
   155  1.642252029E-04
   156  2.627970073E-04
   157 -5.010505379E-03
   158  1.244492945E-03
   159  2.005287166E-03
   160 -6.944435300E-04
   161 -9.661982358E-03
   162  2.006490588E-03
   163  3.264742344E-03
   164 -6.759306545E-03
   165 -6.305718468E-02
   166  1.234295753E-02
   167  1.982929552E-02
   168  1.576486794E-03
   169 -3.975199792E-03
   170  4.679119973E-04
   171 -7.831571621E-04
   172  7.786681264E-04
   173  2.128392520E-01
   174 -8.807418019E-01
   175  2.071710446E-01
   176  2.505937163E-01
   177 -7.234136374E-03
   178 -1.134287026E-02
   179  2.364984775E-02
   180 -1.250081003E-02
   181 -1.580086462E-02
   182  2.418876573E-02
   183  3.486469576E-02
   184 -2.051983585E-02
   185 -2.094845546E-02
   186  2.729612689E-01
   187  2.980608219E-02
   188  3.397120196E-02
   189 -3.759481323E-02
   190  6.970554480E-04
   191  1.159932689E-03
   192  2.047709693E-04
   193  1.033006006E-03
   194  1.017556788E-03
   195  4.151478574E+00
   196  1.495024562E-01
   197  4.672129062E-01
   198 -4.255142783E-01
   199  1.406354718E-04
   200  2.158847150E-04
   201  2.476717839E-02
   202 -3.448837980E-03
   203 -4.477118122E-03
   204 -3.536927289E-04
   205  3.178225877E-02
   206 -4.296037904E-03
   207 -5.537100119E-03
   208 -6.799091546E-03
   209  9.232989566E-02
   210 -1.348081371E-02
   211 -1.955286002E-02
   212  4.289221410E-04
   213 -9.713840458E-04
   214  1.223558100E-05
   215 -7.203692060E-05
   216  3.701963227E-04
   217 -2.189498569E-01
   218  8.884680639E-01
   219 -8.249002688E-02
   220 -2.088207185E-01
   221 -3.257326688E-05
   222 -5.551200863E-05
   223  2.014354579E-02
   224 -2.526063323E-03
   225 -3.896362661E-03
   226  2.502318919E-04
   227  3.085850480E-02
   228 -3.837786626E-03
   229 -5.981886023E-03
   230 -9.943912952E-04
   231  4.094369204E-02
   232 -4.720232945E-03
   233 -7.968528893E-03
   234 -3.545545780E-04
   235  9.393174320E-04
   236  9.667752009E-05
   237 -8.165891074E-05
   238 -1.191288756E-03
   239 -7.917017996E-02
   240  4.447714049E-01
   241 -3.183763010E-02
   242 -9.122005778E-02
   243 -5.199739434E-03
   244 -1.350763001E-02
   245  2.387924928E-01
   246 -6.413975612E-03
   247  1.498159365E-03
   248 -3.185365977E-03
   249  9.422125831E-01
   250  1.567048864E-03
   251  6.030337048E-03
   252  3.933589217E-02
   253  1.301657236E-03
   254  1.006193101E-03
   255  2.172125603E-03
   256  3.052713023E-01
   257 -1.169596603E-03
   258 -5.292045934E-03
   259 -4.855537266E-02
   260 -9.474481069E-05
   261 -1.363288281E-03
   262 -2.792086181E-03
   263 -3.433126672E-01
   264  4.996448509E-03
   265  1.253673053E-02
   266 -2.305352159E-01
   267 -4.665025949E-03
   268  4.399568035E-05
   269  5.612410194E-03
   270 -9.257549953E-01
   271 -1.245778817E-03
   272  2.267836108E-02
   273  3.989475030E-01
   274 -4.142707235E-03
   275 -5.756872565E-04
   276  3.072968050E-03
   277  2.404097098E+00
   278  1.782075762E-04
   279  4.635665286E-04
   280 -9.102106208E-03
   281 -7.355346619E-04
   282 -7.780418113E-05
   283 -1.428829004E-05
   284 -4.343902318E-02
   285 -3.809778476E-05
   286  7.653775196E-05
   287 -2.833851488E-04
   288 -9.097529160E-04
   289  2.386808829E-04
   290  1.955760627E-04
   291 -1.957968897E-03
   292  1.256404458E-03
   293 -2.291743959E-02
   294 -4.166458998E-01
   295 -4.881002629E-03
   296  1.838524584E-03
   297 -1.251305655E-03
   298 -2.486401261E+00
   299 -5.656626751E-03
   300 -1.392904766E-02
   301  2.623281616E-01
   302 -6.093154673E-03
   303  3.326966039E-03
   304 -2.489369268E-03
   305  1.292657360E+00
   306  7.227933519E-04
   307  5.579918175E-04
   308  4.578425957E-02
   309  1.900466778E-04
   310 -2.994047654E-03
   311  1.466815456E-03
   312  3.465994143E-01
   313 -5.515956435E-05
   314  9.423266947E-04
   315  9.946174150E-03
   316 -1.486541026E-03
   317  1.222473963E-04
   318  1.964473739E-04
   319  6.806610923E-02
   320  5.503616786E-03
   321  1.350856747E-02
   322 -2.552095280E-01
   323 -5.042871448E-03
   324 -1.768317479E-03
   325  4.801773766E-03
   326 -1.258244426E+00
   327 -7.287103622E-04
   328 -4.540948945E-04
   329 -4.185706774E-02
   330  2.869382103E-04
   331  2.829448143E-03
   332 -1.585452607E-03
   333 -3.166413297E-01
   334  6.422669370E-03
   335  1.858124838E-02
   336 -1.867207702E-01
   337 -3.076620712E-03
   338 -2.541897779E-04
   339  3.008953949E-03
   340 -6.006177082E-01
   341 -6.504840531E-03
   342 -1.891296307E-02
   343  1.977868472E-01
   344 -4.125376607E-03
   345  1.292091980E-03
   346 -1.538772506E-03
   347  6.453781751E-01
   348  3.447787959E-03
   349  7.958233774E-03
   350 -8.057212797E-02
   351 -2.759191962E-03
   352 -7.340284644E-04
   353  2.971794109E-03
   354 -5.882474382E-01
   355  1.158026230E-04
   356  2.006861579E-04
   357 -2.178321684E-03
   358  1.121527339E-04
   359 -1.053115717E-04
   360 -1.440145017E-04
   361 -2.513436662E-02
   362 -3.526077947E-03
   363 -8.365623873E-03
   364  8.477757544E-02
   365 -3.518366188E-03
   366  1.629583773E-03
   367 -1.637037867E-03
   368  5.977622115E-01
Ene=    2.3012764061E-02
Spin= Alpha
Occup=   0.0000000
     1 -3.032024781E-03
     2 -4.938974330E-03
     3 -1.648157358E-03
     4 -2.235609927E-02
     5  6.399097904E-03
     6  1.567381949E-02
     7 -2.592773758E-03
     8 -3.477929151E-02
     9  9.837411463E-03
    10 -1.186797218E-03
    11 -9.453086686E-03
    12 -1.353514959E-01
    13  3.850546153E-02
    14 -2.094978294E-03
    15 -2.023244286E-04
    16 -2.439734476E-03
    17 -4.190825295E-03
    18  6.076113671E-04
    19 -1.097211743E+01
    20 -3.045352319E-01
    21 -3.885959413E+00
    22  9.959610250E-01
    23  3.339127964E-03
    24  5.187111387E-03
    25  1.975259844E-03
    26 -1.881199934E-02
    27  1.763964881E-03
    28 -8.433961503E-03
    29  4.373022064E-03
    30 -2.623850757E-02
    31  8.456934016E-04
    32 -1.807521334E-01
    33 -1.990708986E-02
    34 -4.285108410E-02
    35  2.739488517E-02
    36  1.805254746E-03
    37 -2.754840801E-03
    38  2.402888144E-03
    39  3.988533747E-03
    40 -1.361545026E-03
    41  1.245612140E+00
    42  7.237367142E-01
    43 -4.491666092E-01
    44 -5.886980799E-01
    45  3.328096092E-03
    46  5.163949918E-03
    47 -5.667527955E-03
    48 -1.777230560E-02
    49  3.415119207E-03
    50 -8.226724795E-03
    51 -9.974874631E-03
    52 -2.423168824E-02
    53  4.027830868E-03
    54 -1.825183194E-01
    55  1.887398801E-02
    56 -4.743745139E-02
    57  1.858558218E-02
    58 -1.609531219E-05
    59  1.812994617E-03
    60  1.520244833E-03
    61  5.358110063E-03
    62 -3.964205213E-04
    63  1.026550995E+00
    64 -9.522011786E-01
    65 -1.643435789E-01
    66 -2.394109491E-01
    67  6.033141837E-03
    68  9.750007961E-03
    69  3.442511034E-03
    70 -2.836083050E-03
    71 -2.783618645E-03
    72 -2.873318397E-02
    73  6.230362091E-03
    74 -5.532219249E-03
    75 -4.962752947E-03
    76 -9.211161286E-02
    77 -1.048146464E-02
    78  2.581283833E-02
    79  4.744323948E-03
    80 -2.631326726E-03
    81 -4.594996114E-03
    82  6.001117426E-04
    83 -3.559183855E-03
    84 -3.363957623E-03
    85 -1.010452917E+00
    86 -3.222092944E-01
    87  7.822924326E-01
    88  9.876663343E-02
    89 -6.953399689E-04
    90 -1.032474339E-03
    91 -6.219704838E-03
    92 -3.905702626E-02
    93 -4.216616348E-03
    94 -2.950175696E-04
    95 -8.157900565E-03
    96 -5.025893739E-02
    97 -6.462536732E-03
    98  8.629121559E-02
    99 -3.348632941E-02
   100 -1.868992350E-01
   101 -3.311165080E-02
   102  4.271332175E-03
   103  2.553749694E-03
   104  4.673937270E-03
   105 -4.779652569E-04
   106  1.242935777E-03
   107  3.838419597E-01
   108 -2.859454167E-01
   109 -2.040676174E+00
   110  1.018152696E-03
   111  6.049771441E-03
   112  9.777173272E-03
   113 -4.880605235E-03
   114 -1.694566029E-03
   115 -9.563093667E-04
   116 -2.882229064E-02
   117 -8.880602060E-03
   118 -3.538663051E-03
   119 -1.661553778E-03
   120 -9.239486050E-02
   121  1.670964720E-02
   122  2.306783224E-02
   123 -1.521439920E-03
   124 -5.332613650E-03
   125  1.971226651E-03
   126 -2.060162212E-03
   127  5.810277177E-05
   128  3.943257044E-03
   129 -8.017825012E-01
   130  4.914840191E-01
   131  7.281397758E-01
   132 -8.819502045E-02
   133 -6.864480937E-04
   134 -1.021903260E-03
   135  1.185937260E-02
   136 -3.498113525E-02
   137  1.415635711E-02
   138 -2.748720171E-04
   139  1.625020018E-02
   140 -4.486951888E-02
   141  1.836029718E-02
   142  8.550121053E-02
   143  6.885209599E-02
   144 -1.634936097E-01
   145  7.147776610E-02
   146 -2.113620967E-03
   147  3.695303583E-03
   148 -5.677350306E-04
   149  5.028858651E-03
   150 -2.115183807E-03
   151  1.806326195E-01
   152  3.719295553E-01
   153 -1.898109389E+00
   154  6.700474582E-01
   155  6.134488135E-03
   156  9.914041170E-03
   157  1.120221735E-03
   158 -2.775322208E-04
   159  5.281633773E-03
   160 -2.926168767E-02
   161  1.981068200E-03
   162 -1.143201522E-03
   163  9.502350713E-03
   164 -9.382580982E-02
   165 -2.188906133E-03
   166  2.001472332E-02
   167 -1.955001797E-02
   168  4.104723159E-03
   169  2.223306637E-03
   170 -3.168300417E-03
   171 -4.439304583E-03
   172  6.126375392E-04
   173 -7.193948131E-01
   174 -4.067347886E-02
   175  6.482764356E-01
   176 -5.676185608E-01
   177 -6.893031478E-04
   178 -1.029521381E-03
   179 -1.340592151E-02
   180 -3.149995624E-02
   181  1.968104060E-02
   182 -1.672944649E-04
   183 -1.796271387E-02
   184 -4.007176094E-02
   185  2.589491761E-02
   186  8.427445450E-02
   187 -7.268604172E-02
   188 -1.450039256E-01
   189  1.015953448E-01
   190  1.683112183E-03
   191 -5.852702660E-03
   192  4.202280506E-04
   193  3.276195585E-03
   194 -2.836162506E-04
   195  2.165804800E-01
   196 -5.388852419E-01
   197 -1.767837719E+00
   198  8.812503791E-01
   199  3.325594245E-03
   200  5.156492132E-03
   201 -1.721084593E-04
   202 -1.661327169E-02
   203  9.151929891E-03
   204 -8.183222028E-03
   205  3.241036709E-04
   206 -2.194557008E-02
   207  1.462302999E-02
   208 -1.821685767E-01
   209 -8.980128873E-03
   210 -5.365669801E-02
   211 -8.790042698E-03
   212  4.099528791E-03
   213  1.467226983E-03
   214  2.963783775E-03
   215  2.618868587E-03
   216 -3.119514188E-05
   217  7.133907988E-01
   218  2.053945874E-01
   219  3.706509090E-02
   220  8.885264487E-01
   221 -1.700373554E-02
   222 -2.713835754E-02
   223  7.850491918E-04
   224  1.048751863E-02
   225 -3.301088937E-03
   226  7.204626738E-02
   227  1.786078028E-03
   228  2.335494023E-02
   229 -7.040736350E-03
   230  3.844108213E-01
   231 -5.479203488E-03
   232 -7.379659874E-02
   233  1.952472532E-02
   234  1.354272225E-04
   235 -1.267469112E-06
   236  1.724287835E-04
   237  2.358691804E-04
   238 -1.503023401E-05
   239  1.107714674E+01
   240 -1.276751184E-01
   241 -1.639213812E+00
   242  4.588538679E-01
   243  3.335373316E-04
   244  6.268715270E-03
   245  5.629406510E-02
   246 -3.492734650E-03
   247 -2.211749577E-03
   248  7.372017962E-04
   249  7.248393630E-01
   250  3.300986040E-04
   251  6.316588102E-03
   252  5.891877753E-02
   253 -3.938670920E-04
   254 -1.484760811E-03
   255  3.934048057E-03
   256  7.190389731E-01
   257  3.643846143E-04
   258  5.981491104E-03
   259  6.443306269E-02
   260  1.579627619E-03
   261 -1.754406917E-03
   262  3.500295324E-03
   263  7.216294612E-01
   264  3.597709188E-04
   265  6.246494478E-03
   266  5.685731743E-02
   267  2.762884697E-03
   268 -3.066458626E-03
   269 -6.196918220E-04
   270  7.008132898E-01
   271  9.069763448E-04
   272 -1.703763663E-03
   273  7.239333717E-02
   274 -2.730508587E-03
   275  2.186062176E-03
   276  2.221677617E-03
   277  3.239912907E-01
   278  2.427285009E-03
   279  7.885291245E-04
   280  3.387942700E-01
   281  1.521311263E-03
   282  2.866859753E-03
   283  5.100469606E-03
   284  1.253877432E+00
   285  2.828928609E-03
   286  2.901136910E-03
   287 -3.882741887E-01
   288  4.981818709E-04
   289  7.390464562E-03
   290 -2.332779203E-03
   291 -2.273191328E+00
   292  8.487154202E-04
   293 -1.395286919E-03
   294  6.965062434E-02
   295  3.834391403E-03
   296  1.294929406E-03
   297  7.676684362E-04
   298  3.401802017E-01
   299  2.460208365E-03
   300  5.499864312E-04
   301  3.395782346E-01
   302 -5.474725107E-03
   303  1.327503289E-03
   304 -2.095520403E-03
   305  1.227132087E+00
   306  2.875497077E-03
   307  2.454513764E-03
   308 -3.798311969E-01
   309  7.694570944E-04
   310  7.401206413E-03
   311 -2.074255445E-03
   312 -2.245680904E+00
   313  7.849189777E-04
   314 -1.948243338E-03
   315  7.736665814E-02
   316 -8.618289338E-04
   317  2.433949147E-04
   318 -4.066587141E-03
   319  3.709545286E-01
   320  2.459379143E-03
   321  6.018369226E-04
   322  3.364199278E-01
   323  4.262463851E-03
   324 -5.066207313E-06
   325 -4.214724147E-03
   326  1.235845671E+00
   327  2.859404855E-03
   328  2.581290757E-03
   329 -3.837229162E-01
   330  3.737166816E-04
   331  7.444186413E-03
   332 -1.985249403E-03
   333 -2.237423059E+00
   334  4.190047592E-04
   335  5.782258581E-03
   336  6.464451007E-02
   337  1.365242996E-03
   338 -3.385073057E-03
   339 -2.083056572E-03
   340  7.029327066E-01
   341  4.141339530E-04
   342  5.671932396E-03
   343  6.622894727E-02
   344 -2.945363117E-03
   345 -2.792850230E-03
   346 -1.156083487E-03
   347  7.102609747E-01
   348  1.384763538E-03
   349  1.389946473E-02
   350 -2.457732503E-01
   351 -3.786303662E-03
   352 -9.903025711E-04
   353  3.907568140E-03
   354 -1.176090875E+00
   355  1.291742092E-03
   356  1.351114218E-02
   357 -2.390619734E-01
   358 -1.341118257E-03
   359 -3.387715554E-03
   360 -4.019987116E-03
   361 -1.144793447E+00
   362  1.318624877E-03
   363  1.423586449E-02
   364 -2.476252526E-01
   365  4.662693735E-03
   366 -2.137523744E-03
   367  2.047143718E-03
   368 -1.178540046E+00
Ene=    2.6387020441E-02
Spin= Alpha
Occup=   0.0000000
     1 -2.331142401E-05
     2 -3.614133980E-05
     3 -6.370211455E-05
     4 -1.219942381E-04
     5  8.665305773E-05
     6  3.230355454E-05
     7 -1.106665544E-03
     8  6.521103270E-04
     9  2.805071200E-03
    10  1.999493637E-03
    11 -1.906846513E-02
    12  1.468991558E-02
    13  4.720959162E-02
    14  3.755118001E-03
    15  6.908147309E-03
    16 -2.069880727E-04
    17 -1.682728505E-03
    18  2.623340625E-03
    19  8.867455496E-02
    20 -1.166661632E-01
    21  1.932498141E-01
    22  2.875812681E-01
    23  3.383138665E-03
    24  5.234499855E-03
    25  3.717045869E-03
    26 -4.428500717E-03
    27  2.443588401E-02
    28 -8.575673541E-03
    29  5.656568172E-03
    30 -7.653924295E-03
    31  3.269127773E-02
    32 -1.518695204E-01
    33 -3.049271337E-02
    34  4.665541534E-02
    35  1.192400471E-01
    36 -8.809361572E-04
    37  9.076812724E-04
    38  3.133504634E-04
    39  4.403783665E-03
    40 -2.675725101E-03
    41 -5.616544489E+00
    42 -8.240632079E-01
    43  4.552892206E-01
    44  1.726460507E+00
    45 -3.077325112E-04
    46 -4.796426658E-04
    47 -1.321548706E-02
    48  1.330465445E-02
    49  4.032755268E-02
    50  8.738806373E-04
    51 -1.769468013E-02
    52  1.812285236E-02
    53  5.442435216E-02
    54  1.286199136E-02
    55 -5.441981688E-02
    56  4.379143310E-02
    57  1.473916260E-01
    58 -1.588536586E-03
    59 -6.461714664E-03
    60 -4.290647605E-03
    61  2.987293744E-03
    62 -9.795067671E-04
    63  4.698586407E-01
    64 -6.046802114E-01
    65  4.510253287E-01
    66  1.485119931E+00
    67  1.181007202E-02
    68  1.916465970E-02
    69  1.689631896E-02
    70  7.361353533E-03
    71 -2.058095647E-02
    72 -5.727301666E-02
    73  1.823336675E-02
    74  1.197399221E-02
    75 -2.116656625E-02
    76 -2.821909659E-01
    77  1.405036921E-01
    78  5.287688145E-02
    79 -1.551035577E-01
    80 -2.273505942E-03
    81  4.462912717E-03
    82  1.824526429E-03
    83  1.866676978E-04
    84  3.039547503E-03
    85  6.471494838E+00
    86  3.114122214E+00
    87 -1.811055711E-01
    88 -3.130155361E+00
    89 -1.992276769E-03
    90 -3.306509892E-03
    91 -5.904194889E-03
    92  1.904349646E-02
    93  1.238109709E-02
    94  1.214500158E-02
    95 -6.318438185E-03
    96  2.469795891E-02
    97  1.686253635E-02
    98 -1.101258720E-02
    99 -2.194852294E-02
   100  6.303751166E-02
   101  8.806709084E-02
   102  1.924585528E-04
   103 -3.056988799E-03
   104 -2.651726625E-03
   105 -5.553849829E-03
   106  1.488192172E-03
   107 -4.571179782E+00
   108  3.816516622E-01
   109  5.156696874E-01
   110  2.091627197E+00
   111 -1.007715846E-03
   112 -1.637957150E-03
   113  3.028240394E-03
   114 -2.340038716E-03
   115 -2.840102021E-03
   116  4.945157478E-03
   117  2.277042367E-03
   118 -2.007472943E-03
   119 -8.053333785E-05
   120  2.341505907E-02
   121  1.747000509E-02
   122 -1.236076159E-02
   123 -4.130519980E-03
   124 -5.224754328E-03
   125 -1.454869726E-03
   126  5.793388685E-03
   127 -1.133281244E-03
   128 -2.783218509E-03
   129 -3.874371737E-01
   130  3.635382283E-01
   131 -1.371444958E-01
   132 -8.760809241E-02
   133 -2.244628432E-04
   134 -3.694972339E-04
   135 -6.508468737E-03
   136  6.467967832E-03
   137  1.681490719E-02
   138  1.250489734E-03
   139 -8.076425923E-03
   140  7.787738747E-03
   141  2.005779236E-02
   142  2.866957915E-04
   143 -3.062368133E-02
   144  2.689579812E-02
   145  7.383178532E-02
   146 -1.774311159E-03
   147 -5.144838018E-03
   148 -3.064239497E-03
   149  2.068815453E-03
   150 -7.686793995E-04
   151 -4.238922104E-01
   152 -2.672957357E-01
   153  6.671093035E-02
   154  1.719580088E-01
   155 -1.070275234E-02
   156 -1.737344605E-02
   157 -3.819779776E-03
   158 -1.784990883E-02
   159 -1.741351078E-02
   160  5.212393670E-02
   161 -5.698480620E-03
   162 -2.185432347E-02
   163 -1.600748415E-02
   164  2.532054836E-01
   165 -4.133911319E-02
   166 -1.341921605E-01
   167 -1.386748412E-01
   168  3.244269454E-03
   169  1.483250645E-03
   170  2.519303543E-03
   171 -3.544995538E-03
   172 -3.473440084E-03
   173 -5.819325735E+00
   174 -8.663927317E-01
   175 -1.798805415E+00
   176 -3.473402498E+00
   177  2.167782566E-03
   178  3.588030632E-03
   179 -7.374103592E-03
   180 -1.051026478E-02
   181  2.108271523E-02
   182 -1.296606948E-02
   183 -1.094511005E-02
   184 -1.348477841E-02
   185  2.756479215E-02
   186  9.096923934E-03
   187 -5.147681289E-02
   188 -7.836331507E-03
   189  1.021267321E-01
   190  1.182100504E-03
   191  1.455088861E-03
   192  9.424890585E-04
   193  6.846081906E-03
   194 -8.750062859E-04
   195  4.703026209E+00
   196 -1.608016032E+00
   197  5.815296741E-01
   198  1.606219510E+00
   199 -3.054279042E-03
   200 -4.723447487E-03
   201 -2.109551954E-02
   202  1.522968713E-02
   203  1.333012151E-02
   204  7.682972299E-03
   205 -2.864200563E-02
   206  2.168279814E-02
   207  1.677102949E-02
   208  1.384945168E-01
   209 -6.582946057E-02
   210  2.560275407E-02
   211  1.179521131E-01
   212  2.766641134E-06
   213 -4.324547846E-03
   214 -2.078916445E-04
   215 -3.533023554E-03
   216  2.052412941E-03
   217  5.137233688E+00
   218 -5.012399384E-01
   219  5.715146742E-01
   220  1.751453209E+00
   221 -1.142035415E-04
   222 -1.868028119E-04
   223 -1.062916442E-02
   224  8.607861344E-03
   225  2.716564355E-02
   226  6.628341892E-04
   227 -1.496207334E-02
   228  1.209610159E-02
   229  3.825009591E-02
   230  2.154236794E-04
   231 -3.347880539E-02
   232  2.799560861E-02
   233  8.547083970E-02
   234 -6.684830474E-04
   235 -6.494515779E-04
   236  5.225678805E-04
   237  9.146365121E-06
   238 -4.890661519E-04
   239 -8.626867225E-02
   240 -3.853574415E-01
   241  3.286479636E-01
   242  9.809263683E-01
   243  1.811433047E-03
   244 -1.069799129E-02
   245  2.294939140E-01
   246 -4.825777206E-03
   247  2.020885513E-04
   248  1.190285703E-03
   249  6.524026112E-01
   250  8.042099393E-04
   251 -6.095359960E-03
   252 -1.000781654E-01
   253 -2.368011566E-03
   254 -3.354707467E-03
   255 -1.421515212E-03
   256 -7.097371771E-01
   257 -1.263697662E-03
   258  5.884140290E-03
   259 -3.859746691E-01
   260 -3.387123587E-03
   261 -4.546884974E-03
   262 -6.673710487E-03
   263 -1.568825599E+00
   264  1.057200624E-03
   265 -4.345839946E-03
   266  3.763061316E-01
   267  6.650065353E-03
   268  1.136527399E-03
   269 -5.454748397E-03
   270  1.587027471E+00
   271 -1.147908320E-02
   272 -3.710627909E-03
   273  3.814127704E-01
   274 -5.805120194E-03
   275 -1.147623732E-03
   276  2.950761319E-03
   277  3.383953414E+00
   278  2.095636949E-03
   279  4.173577046E-03
   280 -2.327728119E-01
   281 -4.234886393E-03
   282 -2.339715498E-03
   283 -3.227321876E-03
   284 -1.827445919E+00
   285  4.020411871E-03
   286 -1.374548537E-03
   287  1.815215440E-01
   288 -2.481134077E-03
   289 -2.296303743E-03
   290  1.997094757E-03
   291  5.335738514E-01
   292  9.906392046E-04
   293  5.413968481E-04
   294 -3.400177095E-02
   295  8.700535703E-04
   296 -1.153412479E-03
   297 -4.696872433E-03
   298 -2.839690080E-01
   299  2.281301526E-04
   300  3.070243049E-04
   301 -2.173566765E-02
   302 -1.124200972E-03
   303  1.376841659E-03
   304  5.173688167E-03
   305 -1.761145499E-01
   306  4.011155861E-04
   307  2.240998892E-05
   308  1.467310041E-02
   309 -1.323619104E-03
   310  1.039857103E-03
   311  4.118885835E-03
   312  4.836205578E-02
   313  1.043803809E-02
   314  3.795447540E-03
   315 -3.490755269E-01
   316  4.123511580E-03
   317  3.029903349E-03
   318  3.793609168E-03
   319 -3.087033076E+00
   320 -2.228246383E-03
   321 -5.217147301E-03
   322  2.634761799E-01
   323  5.457558084E-03
   324  8.665543925E-04
   325 -2.200620538E-03
   326  2.014786188E+00
   327 -4.382353371E-03
   328  1.563964638E-03
   329 -1.988388585E-01
   330  1.017199171E-03
   331  3.694752693E-03
   332  9.461145394E-04
   333 -6.054219283E-01
   334 -5.521170209E-04
   335  4.972819177E-03
   336  1.593120509E-01
   337  3.898612986E-03
   338  2.320317266E-03
   339 -2.605961439E-03
   340  9.331665454E-01
   341 -1.861313138E-03
   342  1.061663051E-02
   343 -2.710337332E-01
   344  4.400755744E-03
   345  6.532159270E-04
   346  3.796193779E-03
   347 -8.438361010E-01
   348 -4.875053250E-03
   349 -5.459641251E-03
   350  1.569985646E-01
   351  4.828486817E-03
   352  1.754733283E-04
   353 -3.074974485E-03
   354  1.482589810E+00
   355  4.469881103E-03
   356  5.356282689E-03
   357 -1.514225325E-01
   358 -2.828579567E-03
   359 -2.261600005E-03
   360 -4.063194537E-03
   361 -1.366806622E+00
   362  4.151561383E-04
   363  5.838342133E-04
   364 -1.764599663E-02
   365 -2.838588162E-04
   366  6.579741161E-04
   367  2.728633826E-03
   368 -1.360460168E-01
Ene=    2.6407661827E-02
Spin= Alpha
Occup=   0.0000000
     1  6.823121708E-06
     2  1.073995218E-05
     3 -4.164365297E-05
     4  7.223836453E-05
     5  5.041553734E-05
     6 -6.726292328E-05
     7 -2.708691823E-03
     8 -2.221625915E-05
     9 -9.981754086E-04
    10  4.669194828E-04
    11 -4.981969753E-02
    12 -1.604926362E-03
    13 -1.874338083E-02
    14 -5.970307109E-03
    15  3.663368650E-03
    16 -1.884655614E-03
    17  4.099976701E-03
    18  1.424878752E-03
    19  1.122263659E-01
    20 -2.170780327E-01
    21 -9.112194508E-02
    22 -1.454567945E-01
    23  1.623829014E-03
    24  2.517169745E-03
    25 -3.234937743E-02
    26 -9.449295716E-03
    27 -2.331711970E-02
    28 -4.256873654E-03
    29 -4.333882800E-02
    30 -1.361620101E-02
    31 -3.164601290E-02
    32 -7.153849834E-02
    33 -1.392602022E-01
    34 -5.128619884E-03
    35 -7.009014487E-02
    36  4.480221917E-03
    37 -6.618387421E-04
    38  5.359112574E-03
    39 -2.743875122E-03
    40  2.426174190E-03
    41 -2.394180286E+00
    42 -1.616203297E+00
    43 -6.609088849E-02
    44 -5.365495774E-01
    45 -3.700323746E-03
    46 -5.733949830E-03
    47 -1.122510521E-02
    48  1.003319667E-02
    49 -1.032314192E-02
    50  9.588421199E-03
    51 -1.401121136E-02
    52  1.524658262E-02
    53 -1.407538720E-02
    54  1.650527852E-01
    55 -1.141065647E-01
    56 -1.642211382E-02
    57 -4.365920760E-02
    58 -1.300889117E-03
    59  7.309761996E-04
    60 -1.848803041E-03
    61 -3.461781449E-03
    62 -7.049690903E-04
    63  5.758987409E+00
    64 -1.822753413E+00
    65  6.638109057E-02
    66 -7.042758668E-01
    67  5.607907860E-03
    68  9.099267253E-03
    69  1.113416222E-02
    70  4.208981893E-03
    71 -6.640391538E-03
    72 -2.710029477E-02
    73  9.680431542E-03
    74  6.097413620E-03
    75 -9.219157654E-03
    76 -1.354344063E-01
    77  7.340935493E-02
    78  2.634665974E-02
    79 -6.448798271E-02
    80  4.911961939E-03
    81  3.092749662E-03
    82 -3.586909266E-03
    83 -1.101129765E-03
    84 -4.108781584E-03
    85  2.718559009E+00
    86  1.580221799E+00
    87 -3.290005039E-02
    88 -1.244488473E+00
    89  1.306837322E-03
    90  2.171759065E-03
    91 -1.845661569E-02
    92 -1.015852347E-02
    93 -3.492261877E-03
    94 -8.065873741E-03
    95 -2.237539063E-02
    96 -1.355029254E-02
    97 -5.532236153E-03
    98  9.030058395E-03
    99 -8.712323654E-02
   100 -2.907817849E-02
   101 -3.901421195E-02
   102  2.712112884E-03
   103 -5.031619808E-03
   104  2.539444404E-03
   105  2.591630108E-03
   106  5.877293154E-04
   107  3.164611849E+00
   108 -5.671555838E-01
   109 -3.230718581E-01
   110 -1.374843032E+00
   111 -1.302368680E-02
   112 -2.113568898E-02
   113  2.410934244E-02
   114 -1.432615249E-02
   115  1.191640548E-02
   116  6.318864691E-02
   117  2.401913178E-02
   118 -1.947399271E-02
   119  1.313011614E-02
   120  3.111376411E-01
   121  1.928897258E-01
   122 -1.058524200E-01
   123  9.132668573E-02
   124 -3.008988343E-03
   125  3.149006916E-03
   126 -2.023131217E-03
   127  2.595127080E-03
   128 -1.191936446E-05
   129 -6.846348344E+00
   130  4.465280008E+00
   131 -8.606931388E-01
   132  1.615730387E+00
   133 -2.369635984E-03
   134 -3.927435418E-03
   135 -1.573443613E-02
   136  1.659678170E-02
   137 -1.143846481E-02
   138  1.432168940E-02
   139 -2.161991777E-02
   140  2.156560915E-02
   141 -1.522033821E-02
   142 -1.192699084E-02
   143 -1.036784309E-01
   144  3.834522808E-02
   145 -4.795368678E-02
   146 -3.642683240E-03
   147  6.817717075E-04
   148 -3.054073723E-03
   149 -5.175051871E-03
   150  1.832360466E-03
   151 -5.214838423E+00
   152 -2.473180613E+00
   153 -5.748749321E-02
   154 -7.308878584E-01
   155  7.367203224E-03
   156  1.195658891E-02
   157  7.474985740E-03
   158  1.157768839E-02
   159  1.095168017E-02
   160 -3.581663378E-02
   161  5.507673566E-03
   162  1.473650168E-02
   163  1.072673625E-02
   164 -1.752463740E-01
   165  4.181766930E-02
   166  9.007226484E-02
   167  9.327908106E-02
   168 -1.727517010E-03
   169 -2.014096362E-03
   170  5.405183344E-04
   171 -5.163908739E-04
   172 -7.168098718E-03
   173  4.169448370E+00
   174  8.765611022E-01
   175  1.231453115E+00
   176  2.338826512E+00
   177  1.061302024E-03
   178  1.747553358E-03
   179 -1.810220832E-02
   180 -7.950397305E-03
   181 -5.060727953E-03
   182 -6.031329153E-03
   183 -2.274452850E-02
   184 -9.968936362E-03
   185 -4.847908838E-03
   186  8.232122751E-04
   187 -8.799261518E-02
   188 -1.720419936E-02
   189 -1.853276733E-02
   190  4.785351365E-03
   191 -5.460555245E-05
   192  4.201996422E-03
   193 -6.015211465E-04
   194  2.106407145E-03
   195  2.227530280E+00
   196 -9.502577409E-01
   197  2.646045561E-01
   198  5.515240871E-01
   199  2.050527265E-03
   200  3.163154659E-03
   201 -3.789763970E-02
   202 -3.362424839E-03
   203  2.185652040E-03
   204 -4.912286500E-03
   205 -5.114753178E-02
   206 -5.236468783E-03
   207  3.712817530E-03
   208 -9.622305859E-02
   209 -1.457334134E-01
   210  7.410976268E-03
   211 -3.979641962E-02
   212  3.606825521E-03
   213 -6.159223707E-03
   214  8.434491211E-04
   215  1.077238155E-03
   216  1.533240600E-03
   217 -3.700045323E+00
   218 -1.617934471E+00
   219 -9.939929428E-02
   220 -8.060200981E-01
   221  3.941858268E-05
   222  6.321388510E-05
   223 -2.841641812E-02
   224 -1.056386930E-03
   225 -1.102128785E-02
   226 -1.913398247E-04
   227 -4.013908617E-02
   228 -1.428638227E-03
   229 -1.553982805E-02
   230 -8.690996092E-04
   231 -8.847856241E-02
   232 -3.636074971E-03
   233 -3.449710583E-02
   234  7.576420388E-04
   235 -2.432346041E-04
   236 -5.104387087E-06
   237 -4.735175244E-04
   238 -7.432418248E-04
   239  3.956206036E-03
   240 -1.034952557E+00
   241 -2.960833703E-02
   242 -3.936120597E-01
   243 -4.563815297E-04
   244  8.173686609E-04
   245 -3.179403533E-01
   246  6.467081285E-03
   247 -3.249617843E-03
   248  2.909931302E-03
   249 -1.434496038E+00
   250  1.647909380E-03
   251 -8.613932359E-03
   252  3.708624445E-01
   253  1.100945992E-04
   254  3.968298562E-03
   255  7.180018158E-03
   256  1.419603757E+00
   257 -1.328836366E-03
   258  8.304324438E-03
   259 -3.028044409E-02
   260 -1.983341270E-03
   261  2.307226571E-03
   262 -3.137574614E-04
   263  1.692834338E-01
   264 -1.510181893E-03
   265  9.259490662E-03
   266 -9.264788077E-02
   267 -2.554329971E-03
   268  1.615865928E-03
   269 -1.116454458E-03
   270 -7.752504365E-02
   271 -5.439692240E-03
   272 -2.014573189E-03
   273  1.844173150E-01
   274  9.840536746E-04
   275  2.541906583E-04
   276  5.249381727E-03
   277  1.587267861E+00
   278 -1.408175410E-03
   279 -2.878926441E-03
   280  1.610597506E-01
   281 -3.500057630E-03
   282  2.464300638E-03
   283  3.614877748E-03
   284  1.253579352E+00
   285 -2.743699667E-03
   286  1.162065821E-03
   287 -1.262366746E-01
   288 -3.511415463E-03
   289  2.352919028E-03
   290 -2.356276044E-04
   291 -3.805977160E-01
   292  1.264833934E-02
   293  4.427196198E-03
   294 -4.260508585E-01
   295 -6.087658072E-03
   296  2.540674197E-03
   297 -2.210915717E-03
   298 -3.737921411E+00
   299  2.473156844E-03
   300  5.438755897E-03
   301 -2.861668878E-01
   302  5.378924452E-03
   303 -1.985207404E-03
   304  1.757579621E-03
   305 -2.203501198E+00
   306  4.811993578E-03
   307 -1.460029791E-03
   308  2.181449256E-01
   309 -9.688534295E-04
   310 -3.631750632E-03
   311  4.189071018E-04
   312  6.513208795E-01
   313 -7.221187824E-03
   314 -2.328037625E-03
   315  2.372809206E-01
   316  2.950703541E-03
   317 -2.857605480E-03
   318 -3.864654516E-03
   319  2.126511810E+00
   320 -1.110178295E-03
   321 -2.096418304E-03
   322  1.193315366E-01
   323 -1.621868411E-03
   324 -4.916679495E-04
   325 -5.271051572E-03
   326  9.442471519E-01
   327 -2.085265124E-03
   328  3.437167737E-04
   329 -8.931997961E-02
   330 -2.944171312E-03
   331  9.640053897E-04
   332 -3.032737238E-03
   333 -2.424078341E-01
   334  1.827623471E-03
   335 -9.657260988E-03
   336  3.537910540E-01
   337  3.735715951E-03
   338 -7.534050927E-04
   339 -6.559364290E-03
   340  1.268502331E+00
   341 -9.524905743E-05
   342 -1.209630301E-03
   343 -2.733077945E-01
   344  5.884731359E-03
   345 -3.385720953E-03
   346  2.423858757E-03
   347 -1.343666939E+00
   348 -2.312814230E-03
   349 -2.614115962E-03
   350  7.605466479E-02
   351  1.732950759E-04
   352 -3.725724727E-04
   353 -3.654388033E-03
   354  7.014052011E-01
   355 -3.119877676E-03
   356 -3.817774556E-03
   357  1.039856857E-01
   358 -1.325875854E-03
   359  2.019751330E-03
   360  3.525961139E-03
   361  9.382017480E-01
   362  5.447797489E-03
   363  6.071192287E-03
   364 -1.724162997E-01
   365  5.762349396E-03
   366 -1.442433037E-03
   367  1.937887173E-03
   368 -1.642393592E+00
Ene=    3.3330609614E-02
Spin= Alpha
Occup=   0.0000000
     1  2.155689668E-06
     2  3.298774186E-06
     3 -1.672556717E-02
     4  2.707213018E-03
     5  5.078460012E-03
     6 -1.650440701E-05
     7 -2.917443566E-02
     8  4.696567040E-03
     9  8.819017846E-03
    10  2.827879774E-04
    11 -2.499254295E-02
    12  4.610248226E-03
    13  7.595502054E-03
    14  2.810059433E-04
    15  6.222210524E-05
    16 -1.905410153E-03
    17  1.908555191E-03
    18  6.451028576E-03
    19  4.752326612E-02
    20  3.072360164E+00
    21 -4.680274148E-01
    22 -9.543998352E-01
    23  9.465728186E-03
    24  1.508475317E-02
    25  1.695130010E-02
    26 -1.397670132E-02
    27 -1.429624786E-02
    28 -3.893159568E-02
    29  3.235330395E-02
    30 -2.819865246E-02
    31 -2.625306383E-02
    32 -1.784122364E-01
    33  3.720442614E-03
    34  2.569250907E-02
    35 -4.381485319E-02
    36  1.838418646E-03
    37 -1.122547213E-03
    38 -1.902426530E-04
    39  3.364435855E-04
    40 -1.657187345E-03
    41  3.315572975E+00
    42  1.050510084E+00
    43 -6.015618474E-01
    44 -1.489915084E+00
    45 -8.640105105E-03
    46 -1.376891099E-02
    47  2.209995702E-02
    48  7.696609636E-03
    49  4.861335132E-03
    50  3.553399549E-02
    51  4.217576490E-02
    52  1.602368810E-02
    53  8.189407625E-03
    54  1.632566786E-01
    55  1.062769512E-02
    56 -2.354637702E-02
    57  4.553547225E-02
    58 -1.245438062E-03
    59 -1.639751237E-03
    60  1.559052606E-03
    61 -1.613887809E-03
    62 -1.037684325E-03
    63 -2.993191045E+00
    64  1.486520559E+00
    65  2.533218980E-01
    66  9.730492177E-01
    67  1.016922029E-03
    68  1.612491373E-03
    69  5.784329759E-04
    70  1.227493062E-02
    71  7.679095131E-03
    72 -3.317989320E-03
    73  1.552782540E-03
    74  1.765444767E-02
    75  9.909823345E-03
    76 -2.959852046E-02
    77  2.502649569E-03
    78  1.201980839E-01
    79  7.157752879E-02
    80  1.242093334E-03
    81  6.967190763E-04
    82  1.975645163E-04
    83  2.172503265E-03
    84  3.065020190E-03
    85 -2.179303692E+00
    86 -4.852240957E-01
    87  2.283614627E-01
    88  7.313814698E-01
    89 -1.120374459E-03
    90 -1.781440854E-03
    91  4.454232515E-04
    92 -8.085485998E-04
    93  1.778189041E-03
    94  4.256804272E-03
    95  9.421518350E-04
    96 -1.227328021E-03
    97  3.551025122E-03
    98  3.217824403E-02
    99 -6.686741123E-03
   100  3.074062700E-04
   101 -4.408176530E-03
   102  4.393804304E-04
   103 -1.160883943E-03
   104  1.040683581E-03
   105 -1.393296440E-03
   106 -3.550557418E-03
   107  3.701973204E-01
   108  3.851279317E-02
   109 -7.721285516E-02
   110  3.296629917E-04
   111 -9.467292352E-04
   112 -1.503986190E-03
   113 -4.393419660E-03
   114 -1.142309902E-02
   115 -8.850260019E-03
   116  3.198101404E-03
   117 -5.393607619E-03
   118 -1.662769308E-02
   119 -1.196819610E-02
   120  2.648523403E-02
   121 -4.442820794E-02
   122 -1.111385706E-01
   123 -8.070441483E-02
   124 -1.133816599E-03
   125 -2.128309174E-04
   126 -2.066977898E-03
   127 -3.387633414E-05
   128  3.132109038E-03
   129  1.994734861E+00
   130 -6.831254796E-01
   131 -8.792845906E-02
   132 -5.058006749E-01
   133 -1.155268912E-02
   134 -1.837929333E-02
   135 -1.650793224E-02
   136 -1.255375751E-02
   137 -1.229509313E-03
   138  4.433257332E-02
   139 -3.353840934E-02
   140 -2.152900420E-02
   141 -3.724306538E-03
   142  3.269778489E-01
   143  5.316015583E-02
   144  1.008501134E-02
   145  1.680654579E-02
   146 -1.751745517E-03
   147 -5.511849422E-04
   148  6.675443306E-04
   149 -9.459422609E-04
   150 -1.708670412E-03
   151  3.501500245E+00
   152 -4.928050332E-02
   153 -7.361592676E-01
   154  1.835689579E-01
   155 -9.507945782E-05
   156 -1.514759482E-04
   157  1.732808488E-02
   158 -3.004441086E-03
   159 -2.924665854E-03
   160  3.097579174E-04
   161  2.423181891E-02
   162 -4.316630638E-03
   163 -4.201919752E-03
   164  2.652602572E-03
   165  1.592709412E-01
   166 -2.797537341E-02
   167 -2.557583561E-02
   168  4.927002856E-04
   169 -9.613995504E-04
   170 -8.388842747E-04
   171  5.180177965E-04
   172  3.131975014E-03
   173  2.862506304E-01
   174  5.215585190E-01
   175 -4.221029273E-02
   176 -6.645343927E-03
   177  1.267004325E-02
   178  2.015107687E-02
   179 -1.175656929E-02
   180  1.790688098E-02
   181  7.815024978E-03
   182 -4.844788738E-02
   183 -2.450518342E-02
   184  3.198789800E-02
   185  1.736293980E-02
   186 -3.609047286E-01
   187  4.270953784E-02
   188 -2.394514411E-02
   189 -3.951086024E-02
   190  1.380950928E-03
   191  5.868635997E-04
   192  4.991908721E-04
   193  7.003165365E-05
   194 -1.783332975E-03
   195 -3.977750679E+00
   196  8.917952544E-02
   197  7.899365892E-01
   198 -2.255819303E-01
   199 -8.524367405E-04
   200 -1.361891746E-03
   201 -1.423533176E-03
   202  3.036431585E-04
   203 -2.111577610E-03
   204  3.607941521E-03
   205 -1.623072878E-03
   206  5.799713449E-04
   207 -4.262022810E-03
   208  1.513696827E-02
   209 -5.566604525E-02
   210  3.861780348E-03
   211  1.054348795E-02
   212  4.257088735E-04
   213 -1.328447369E-03
   214  1.110075297E-03
   215 -1.545729660E-03
   216 -4.288025548E-03
   217 -3.286882303E-01
   218 -9.737814405E-01
   219  8.414639858E-02
   220  3.821222087E-02
   221  1.968588201E-05
   222  2.942828729E-05
   223  3.104201468E-02
   224 -4.980028603E-03
   225 -9.459010647E-03
   226 -1.702693487E-05
   227  5.121000819E-02
   228 -8.247095364E-03
   229 -1.558845255E-02
   230 -1.344362026E-03
   231  2.010191991E-02
   232 -2.563279215E-03
   233 -6.365953219E-03
   234 -1.943703831E-04
   235  5.776491872E-04
   236 -3.426079860E-05
   237  8.754584239E-05
   238 -6.983883879E-05
   239 -4.462155645E-02
   240  2.152886555E-01
   241 -2.613041016E-02
   242 -6.835162388E-02
   243 -4.661362223E-03
   244 -1.050794949E-02
   245  9.544666761E-02
   246 -4.340755661E-03
   247  3.358435274E-03
   248 -2.683834203E-03
   249  1.441010754E+00
   250 -5.181207307E-03
   251 -3.463841423E-03
   252  1.237775708E-01
   253  5.694458206E-04
   254  2.331720915E-03
   255  4.755348544E-03
   256  1.951229810E+00
   257  4.807090848E-03
   258  1.782795602E-03
   259 -1.189189779E-01
   260 -2.063672219E-03
   261 -1.384044997E-03
   262 -4.200971403E-03
   263 -1.885686013E+00
   264  4.128354255E-03
   265  1.119317741E-02
   266 -8.227941287E-02
   267 -3.096599375E-03
   268 -2.581292629E-03
   269  4.318673112E-03
   270 -1.208935869E+00
   271  2.385258502E-03
   272  2.778005979E-03
   273 -1.463132317E-02
   274  7.299372093E-04
   275  3.649948441E-03
   276  9.322315569E-04
   277 -2.572415737E-01
   278  5.227946696E-04
   279  1.020289796E-03
   280 -7.896129475E-03
   281 -3.148568846E-03
   282  2.097215437E-04
   283  1.964679382E-04
   284 -9.896037132E-02
   285  5.024169845E-04
   286  1.014194773E-03
   287 -2.174835207E-02
   288  3.110394740E-03
   289  3.427235900E-05
   290 -8.378724367E-04
   291 -2.089483486E-01
   292 -2.177503289E-03
   293 -2.405468496E-03
   294  1.217363118E-02
   295 -4.395586115E-04
   296 -3.528167517E-03
   297 -1.509549904E-03
   298  2.251607469E-01
   299  5.391014044E-03
   300  1.143844911E-02
   301 -8.441252910E-02
   302  4.655260743E-03
   303 -2.015234557E-04
   304  3.388085966E-03
   305 -1.082944912E+00
   306  5.299743656E-03
   307  9.547910438E-03
   308 -2.121172467E-01
   309  1.225715363E-03
   310  4.325604838E-03
   311 -2.934404661E-03
   312 -2.161120769E+00
   313 -2.237939595E-04
   314 -2.065185760E-04
   315  9.421137275E-04
   316  3.844076588E-03
   317 -7.771488070E-04
   318 -6.741991710E-04
   319  2.964856492E-02
   320 -5.898728360E-03
   321 -1.281784771E-02
   322  9.378034021E-02
   323  3.393336446E-03
   324 -8.033424196E-04
   325 -5.058031446E-03
   326  1.185686864E+00
   327 -5.819042335E-03
   328 -1.051339020E-02
   329  2.355335801E-01
   330  8.580717934E-04
   331 -5.195175277E-03
   332  2.192279161E-03
   333  2.375869787E+00
   334 -1.636222572E-04
   335  8.907167156E-03
   336  2.149990742E-02
   337 -1.203097944E-03
   338 -3.328713618E-03
   339  1.151165426E-04
   340  4.355367644E-01
   341  1.040426304E-03
   342 -7.647136502E-03
   343 -4.175711103E-02
   344  5.975035079E-04
   345  3.146844244E-03
   346  6.114869690E-04
   347 -7.354808005E-01
   348  1.021717605E-02
   349  3.302195806E-02
   350 -1.001954973E-01
   351 -4.581033747E-03
   352 -1.122227904E-03
   353  4.548502787E-03
   354 -1.030321873E+00
   355 -9.132993132E-04
   356 -2.992914382E-03
   357  9.179098715E-03
   358 -1.271424061E-04
   359  4.021795447E-04
   360  5.036889366E-04
   361  9.573383843E-02
   362 -9.308811012E-03
   363 -3.002044969E-02
   364  9.020377780E-02
   365 -5.105752554E-03
   366  2.299407916E-03
   367 -2.066911571E-03
   368  9.388690254E-01
Ene=    3.3353135988E-02
Spin= Alpha
Occup=   0.0000000
     1 -1.270416209E-05
     2 -1.731674079E-05
     3 -5.616174311E-03
     4 -4.261032727E-03
     5 -1.622687440E-02
     6 -4.171758825E-05
     7 -9.722762127E-03
     8 -7.398293311E-03
     9 -2.822937367E-02
    10  2.368330851E-03
    11 -9.261598784E-03
    12 -5.812886081E-03
    13 -2.493218132E-02
    14 -4.561172479E-03
    15 -9.153107597E-04
    16  4.919539932E-03
    17 -3.323839169E-04
    18  1.773188260E-03
    19  5.547304253E-02
    20  1.056748213E+00
    21  9.320962086E-01
    22  2.988067253E+00
    23 -4.493175158E-03
    24 -7.157527781E-03
    25 -9.004056894E-03
    26  6.384632666E-03
    27  5.845939896E-03
    28  1.839693655E-02
    29 -1.631055900E-02
    30  1.315669750E-02
    31  1.152529273E-02
    32  8.611128959E-02
    33 -4.518413811E-02
    34 -2.276963735E-02
    35 -2.334401851E-02
    36  3.114586964E-03
    37  9.542378760E-04
    38 -1.884910079E-03
    39 -1.408383010E-03
    40 -2.033921580E-03
    41 -1.614072306E+00
    42 -1.248264886E+00
    43  1.135101238E-01
    44 -2.617147953E-02
    45 -5.977688804E-03
    46 -9.527986554E-03
    47  1.552696151E-02
    48  4.977199108E-03
    49  2.164773742E-03
    50  2.463810963E-02
    51  2.932471804E-02
    52  1.079077056E-02
    53  4.657609033E-03
    54  1.128919597E-01
    55  2.555380336E-02
    56 -3.475440514E-02
    57 -3.242432971E-02
    58  2.819934500E-03
    59  9.377107974E-04
    60 -2.548306088E-03
    61 -5.892906052E-04
    62  1.365492042E-03
    63 -2.233662565E+00
    64  1.373461645E+00
    65 -1.477419840E-01
    66 -4.097257511E-01
    67 -4.544018105E-04
    68 -7.213962552E-04
    69  1.345515788E-02
    70 -2.863022147E-03
    71  1.030246190E-02
    72  1.522878797E-03
    73  1.847545783E-02
    74 -4.334479028E-03
    75  1.485356867E-02
    76  1.211309872E-02
    77  1.247297499E-01
    78 -2.971182459E-02
    79  9.345330909E-02
    80 -1.808972380E-03
    81 -8.488554380E-04
    82  2.323598637E-03
    83 -1.448614201E-03
    84  1.074009559E-03
    85  1.132924214E+00
    86  6.591441410E-01
    87 -3.050514035E-02
    88  3.955946626E-02
    89  1.399338246E-02
    90  2.224893447E-02
    91 -3.745490478E-03
    92  9.906098580E-03
    93 -2.279203612E-02
    94 -5.332520668E-02
    95 -7.863037951E-03
    96  1.515988910E-02
    97 -4.523844153E-02
    98 -4.008709731E-01
    99  1.340965496E-02
   100  7.221877851E-03
   101  6.791780408E-02
   102  9.624586452E-04
   103 -1.088074961E-04
   104 -4.513360613E-04
   105  1.201472316E-03
   106 -7.701883181E-04
   107 -4.544271111E+00
   108  6.853786054E-02
   109  8.755822295E-01
   110 -1.986041349E-01
   111 -7.281797656E-04
   112 -1.155395931E-03
   113 -8.864872390E-03
   114 -1.884910187E-03
   115  1.390262809E-02
   116  2.379558556E-03
   117 -1.186662608E-02
   118 -3.155103688E-03
   119  1.984914065E-02
   120  2.230410548E-02
   121 -8.670457233E-02
   122 -2.116776071E-02
   123  1.263459629E-01
   124 -2.579915816E-03
   125  4.878939761E-04
   126  1.942372950E-03
   127 -1.274464598E-03
   128  1.200381652E-03
   129  1.765192932E+00
   130 -7.196056637E-01
   131  1.361835162E-01
   132  2.081795326E-01
   133 -7.998329856E-03
   134 -1.271633201E-02
   135 -1.145709530E-02
   136 -8.665310782E-03
   137 -7.232415878E-04
   138  3.044175759E-02
   139 -2.332104798E-02
   140 -1.476418889E-02
   141 -2.155763537E-03
   142  2.289355078E-01
   143  3.984184987E-02
   144  5.159093628E-03
   145  3.130408767E-03
   146  1.892783851E-03
   147  1.427356160E-03
   148 -2.580668700E-03
   149 -2.408734917E-04
   150  6.343714482E-04
   151  2.556236238E+00
   152 -2.496946875E-02
   153 -4.839303985E-01
   154  1.700088274E-01
   155  1.242059726E-03
   156  1.970154161E-03
   157  2.233514766E-04
   158  8.169721008E-03
   159 -1.087184667E-02
   160 -4.037842776E-03
   161  5.920335132E-04
   162  1.249048426E-02
   163 -1.447357883E-02
   164 -3.833105433E-02
   165  1.298284486E-03
   166  7.952964133E-02
   167 -1.074327391E-01
   168 -1.716735404E-03
   169 -7.287613289E-04
   170  3.127049644E-03
   171  1.879895769E-03
   172  4.009582520E-04
   173 -2.691745943E+00
   174 -1.801315860E-01
   175 -3.163258364E-01
   176 -9.171468321E-01
   177 -6.026106709E-03
   178 -9.588091013E-03
   179  5.556478276E-03
   180 -8.599133660E-03
   181 -3.637685829E-03
   182  2.314512798E-02
   183  1.185299713E-02
   184 -1.534932322E-02
   185 -7.923894298E-03
   186  1.699626405E-01
   187 -2.684625118E-02
   188  1.003006226E-02
   189  1.135079478E-02
   190  2.771064589E-03
   191  6.213884693E-05
   192 -1.890675727E-03
   193 -1.084702400E-03
   194 -1.514009007E-03
   195  1.718879818E+00
   196  5.085196846E-03
   197 -3.967454041E-01
   198  1.169520774E-01
   199  1.047441467E-02
   200  1.670363188E-02
   201  5.670844708E-03
   202 -2.117942681E-03
   203  2.826897563E-02
   204 -4.340268162E-02
   205  1.074288510E-02
   206 -5.922583444E-03
   207  5.413401208E-02
   208 -1.941236380E-01
   209  4.788665549E-03
   210  4.419357099E-02
   211  1.668386937E-02
   212  1.708533546E-03
   213  5.872683434E-04
   214  8.643337507E-04
   215  1.039713723E-04
   216 -1.965259980E-04
   217  3.985109913E+00
   218  4.182912120E-01
   219  3.591583553E-01
   220  2.044056695E+00
   221 -5.899043918E-05
   222 -9.901555510E-05
   223  1.025033287E-02
   224  7.824822305E-03
   225  3.001447728E-02
   226  4.221774988E-04
   227  1.692348080E-02
   228  1.282223112E-02
   229  4.949618123E-02
   230 -8.863419050E-04
   231  6.822432500E-03
   232  6.622757996E-03
   233  1.953839466E-02
   234 -3.078658560E-04
   235 -2.011497630E-04
   236 -2.910843579E-04
   237  3.323444492E-04
   238 -1.750313272E-04
   239 -1.635538884E-01
   240  6.615396078E-02
   241  8.358506304E-02
   242  1.885822977E-01
   243  2.881217827E-03
   244 -4.264276292E-03
   245 -7.786532797E-02
   246  3.084661162E-03
   247  1.285740428E-03
   248 -8.472631357E-04
   249 -1.334210639E+00
   250  1.783562481E-03
   251  1.101219412E-02
   252 -2.259583380E-02
   253 -1.790293526E-03
   254 -4.106700188E-03
   255 -6.356944141E-04
   256 -2.769698716E-01
   257  2.593180037E-03
   258  1.117421913E-02
   259 -4.068471013E-02
   260 -1.144282516E-04
   261 -4.678960603E-03
   262 -1.812442154E-03
   263 -5.756537441E-01
   264  3.580856848E-03
   265 -2.487772285E-03
   266 -9.276053224E-02
   267 -3.243857590E-03
   268  1.699342301E-03
   269  1.104251625E-03
   270 -1.544926293E+00
   271 -1.167214966E-03
   272 -1.010081318E-03
   273  6.477648584E-03
   274  2.742163929E-03
   275 -1.048375001E-03
   276  2.697022624E-03
   277  1.330300586E-01
   278 -6.493118651E-03
   279 -1.436633261E-02
   280  1.059107912E-01
   281  1.392774613E-03
   282  2.586163434E-03
   283  5.986897476E-03
   284  1.311008315E+00
   285 -6.418761936E-03
   286 -1.180870019E-02
   287  2.599719422E-01
   288 -7.530638160E-05
   289 -5.706358365E-03
   290  2.029819851E-03
   291  2.628400047E+00
   292 -1.459265629E-03
   293 -1.228075689E-03
   294  1.607714231E-03
   295 -1.692972575E-03
   296 -1.017648558E-03
   297  3.397724351E-03
   298  1.601918881E-01
   299  3.735604502E-03
   300  7.910475095E-03
   301 -6.108343206E-02
   302  4.245060855E-03
   303 -1.218521585E-03
   304 -1.152493517E-03
   305 -7.512252333E-01
   306  3.659819803E-03
   307  7.068387481E-03
   308 -1.512236431E-01
   309 -2.397326229E-04
   310  4.088226780E-03
   311  1.532565992E-03
   312 -1.501859654E+00
   313  2.569855135E-03
   314  2.960013277E-03
   315 -8.643675284E-03
   316  3.259900750E-04
   317  3.167111247E-03
   318 -2.107504445E-03
   319 -2.652839944E-01
   320  2.836988801E-03
   321  5.674364744E-03
   322 -4.073025518E-02
   323 -4.000919395E-03
   324 -1.461159023E-04
   325 -7.555267854E-05
   326 -5.676758355E-01
   327  2.763464801E-03
   328  5.049413177E-03
   329 -1.101646788E-01
   330  2.029982843E-03
   331  3.042138293E-03
   332  1.431598161E-03
   333 -1.135182116E+00
   334 -5.481490240E-03
   335 -6.747317804E-03
   336  1.200004479E-01
   337  3.964596642E-03
   338  8.010211494E-04
   339 -4.582736025E-03
   340  1.925320839E+00
   341 -5.396586691E-03
   342 -8.127636565E-03
   343  1.142843966E-01
   344 -5.063723558E-03
   345  2.562572728E-03
   346 -2.475839081E-03
   347  1.830620495E+00
   348 -4.854385918E-03
   349 -1.557261721E-02
   350  4.496418543E-02
   351  1.927925857E-03
   352  4.751058756E-04
   353 -2.378535087E-03
   354  4.877615218E-01
   355  1.124264910E-02
   356  3.628213866E-02
   357 -1.126587277E-01
   358 -1.819033934E-03
   359 -4.436089703E-03
   360 -5.388634478E-03
   361 -1.128597677E+00
   362 -6.384471978E-03
   363 -2.049852624E-02
   364  5.948783816E-02
   365 -3.362889843E-03
   366  1.462844213E-03
   367 -1.725668167E-03
   368  6.367931269E-01
Ene=    4.9110928309E-02
Spin= Alpha
Occup=   0.0000000
     1  8.684399857E-03
     2  1.429823917E-02
     3 -1.418977827E-03
     4 -1.960353621E-02
     5  5.458314182E-03
     6 -4.649586691E-02
     7 -1.614539806E-03
     8 -2.195708280E-02
     9  5.868529221E-03
    10 -3.602727396E-01
    11 -1.368574191E-02
    12 -1.886457642E-01
    13  5.360148490E-02
    14  4.446279876E-04
    15  3.651765661E-05
    16  5.023365022E-04
    17  9.020811353E-04
    18 -1.306310692E-04
    19 -4.145918070E+00
    20 -6.305871178E-01
    21 -8.061291328E+00
    22  2.111402698E+00
    23  1.089744612E-02
    24  1.756974738E-02
    25  1.657749196E-02
    26 -1.414308362E-02
    27 -1.321873529E-02
    28 -4.883614470E-02
    29  2.155582947E-02
    30 -1.782282789E-02
    31 -1.727941138E-02
    32 -2.067023686E-01
    33  6.913621874E-02
    34 -8.737433262E-02
    35 -5.028279188E-02
    36  1.155848214E-04
    37  6.740622365E-03
    38  9.842726447E-04
    39  1.741272284E-05
    40  4.688806508E-04
    41 -4.523490958E+00
    42  5.588954689E-01
    43  6.152215558E-01
    44 -6.337990611E-01
    45  1.094163101E-02
    46  1.763760662E-02
    47 -2.352765942E-02
    48 -8.716317580E-03
    49 -4.472869903E-03
    50 -4.893547811E-02
    51 -3.055495734E-02
    52 -1.068252098E-02
    53 -5.816050988E-03
    54 -2.082262927E-01
    55 -1.030199267E-01
    56 -6.345641876E-02
    57 -1.404362322E-02
    58  4.354917852E-03
    59 -3.859589110E-03
    60  2.470004676E-03
    61 -2.360118106E-03
    62  1.047831853E-03
    63 -4.855070008E+00
    64 -5.408196812E-01
    65  8.435969154E-01
    66 -4.304303042E-01
    67 -4.511312949E-03
    68 -7.228671831E-03
    69 -1.397255392E-02
    70 -1.823613565E-03
    71  1.411480362E-02
    72  2.119479498E-02
    73 -1.538756617E-02
    74  3.566783350E-03
    75  1.436504187E-02
    76  4.280131027E-02
    77 -1.318882748E-01
    78 -1.794426442E-02
    79  1.341418081E-01
    80  1.765763189E-03
    81  2.122851419E-03
    82 -2.555238567E-03
    83  1.580917293E-03
    84  3.980752639E-03
    85 -1.095732718E+00
    86 -2.350683205E+00
    87  5.778768547E-01
    88  2.129860907E+00
    89  5.618690722E-03
    90  9.373990297E-03
    91  1.338719095E-03
    92  1.532970491E-02
    93 -3.333460920E-03
    94 -3.483823751E-02
    95  3.291010502E-03
    96  2.360060172E-02
    97 -8.270317372E-05
    98  5.596537637E-02
    99 -2.227181612E-02
   100  8.247781864E-02
   101 -1.476867093E-01
   102 -5.963180390E-03
   103 -2.147962890E-03
   104 -1.659583046E-03
   105 -2.054262228E-03
   106  1.206052993E-04
   107  3.397251252E+00
   108 -1.898205921E-01
   109  6.077045185E-01
   110 -1.189369879E+00
   111 -4.549391286E-03
   112 -7.290618739E-03
   113  1.758109275E-02
   114 -6.119747451E-03
   115  7.192055275E-03
   116  2.136334692E-02
   117  2.007620002E-02
   118 -1.408617820E-03
   119  6.478162531E-03
   120  4.497853557E-02
   121  1.670485175E-01
   122 -5.665880078E-02
   123  6.946094157E-02
   124  2.971235705E-03
   125 -6.734293064E-04
   126 -1.972963369E-04
   127 -1.543016641E-03
   128 -4.556915439E-03
   129 -8.038735189E-01
   130  3.075764472E+00
   131 -7.872366064E-02
   132  9.338369740E-01
   133  5.597490173E-03
   134  9.328814491E-03
   135  1.272741166E-04
   136  1.501215212E-02
   137 -4.491442119E-03
   138 -3.444382869E-02
   139 -4.645937683E-03
   140  2.143033662E-02
   141 -8.186277728E-03
   142  5.305790547E-02
   143  1.249944659E-01
   144  1.164868952E-01
   145  5.773580489E-03
   146  1.425918918E-03
   147 -2.156049243E-03
   148 -1.442401791E-03
   149 -6.037437736E-03
   150 -1.471135379E-03
   151  3.092135370E+00
   152  9.668664815E-01
   153  8.814771427E-01
   154  2.529187537E-02
   155 -4.624789289E-03
   156 -7.406191666E-03
   157 -5.016882695E-03
   158 -1.102209096E-02
   159 -1.597499292E-02
   160  2.139315139E-02
   161 -5.230066714E-03
   162 -7.111741396E-03
   163 -1.945746347E-02
   164  5.108524463E-02
   165 -4.791333093E-02
   166 -1.013729645E-01
   167 -1.506798600E-01
   168 -4.348563171E-03
   169 -1.465986069E-03
   170  3.251780129E-03
   171  8.191814147E-04
   172  4.576906872E-04
   173 -2.668156728E-01
   174 -7.493950719E-01
   175 -8.250131116E-01
   176 -2.898960106E+00
   177  5.621983537E-03
   178  9.368373422E-03
   179  1.768960217E-03
   180  1.470554621E-02
   181 -4.784467176E-03
   182 -3.460503787E-02
   183  6.149006455E-03
   184  1.999194735E-02
   185 -1.040816181E-02
   186  5.339584974E-02
   187 -7.890204045E-02
   188  1.432108914E-01
   189  5.030727360E-02
   190 -1.000920626E-03
   191  3.829146345E-03
   192 -3.363302269E-03
   193 -3.287129129E-03
   194  3.025649178E-03
   195  3.120965068E+00
   196 -6.378648767E-01
   197  1.080087884E+00
   198  4.074043428E-01
   199  1.100766271E-02
   200  1.772924607E-02
   201  5.168858445E-03
   202 -2.507508549E-03
   203  2.488723964E-02
   204 -4.889490097E-02
   205  6.712463617E-03
   206 -2.492194817E-03
   207  3.218505355E-02
   208 -2.118880878E-01
   209  2.125003693E-02
   210 -3.464143304E-02
   211  1.136217756E-01
   212 -3.660930743E-03
   213 -2.803619457E-03
   214 -2.540263303E-03
   215  4.018282266E-03
   216 -1.774449585E-03
   217 -5.631417301E+00
   218  1.981811686E-01
   219  9.914449715E-01
   220  1.993676178E-01
   221 -2.610448879E-03
   222 -4.011060206E-03
   223 -4.089981884E-05
   224 -1.635282889E-03
   225  3.024363176E-04
   226  7.635630915E-03
   227  5.597489342E-04
   228  5.563285708E-03
   229 -1.696054789E-03
   230  1.460155753E-01
   231 -1.237705310E-02
   232 -1.743747163E-01
   233  4.732812932E-02
   234  2.901926126E-03
   235  2.440898930E-04
   236  3.442902035E-03
   237  5.905922424E-03
   238 -8.622377892E-04
   239  1.480904877E+01
   240 -1.994564823E-01
   241 -2.640912313E+00
   242  7.533755061E-01
   243  3.428813647E-03
   244  1.878184988E-02
   245  2.168560698E-01
   246 -4.170218440E-03
   247  1.223527689E-03
   248 -6.763555574E-03
   249  1.393578492E+00
   250  3.407295367E-03
   251  1.903615354E-02
   252  2.164241494E-01
   253  6.182631969E-03
   254  3.452117267E-03
   255  3.778374897E-03
   256  1.366735905E+00
   257  3.434376576E-03
   258  1.848522074E-02
   259  2.283209097E-01
   260 -2.963986736E-03
   261  4.707812737E-03
   262  5.803466362E-03
   263  1.392348463E+00
   264  3.414903897E-03
   265  1.861224643E-02
   266  2.196808067E-01
   267  1.173433796E-03
   268  4.964072806E-04
   269 -7.928227773E-03
   270  1.358550188E+00
   271  2.764526801E-03
   272  1.124099634E-02
   273 -4.464626706E-01
   274  3.920240284E-03
   275 -1.071850946E-03
   276 -3.650039394E-03
   277 -3.587118657E+00
   278 -2.298041590E-03
   279  1.500233120E-02
   280  1.799062787E-02
   281 -3.639473563E-05
   282  4.244980397E-03
   283 -2.836893814E-03
   284 -1.862367555E-01
   285  4.681656946E-03
   286  2.321583326E-02
   287  2.391019197E-01
   288 -1.314132513E-03
   289 -6.769240680E-03
   290 -1.720573993E-03
   291  1.217405352E+00
   292  2.719171895E-03
   293  1.163582813E-02
   294 -4.545719120E-01
   295 -5.218912344E-03
   296  1.842977154E-04
   297 -1.677107480E-03
   298 -3.594675299E+00
   299 -2.282869008E-03
   300  1.488710980E-02
   301  1.864540129E-02
   302  1.916834809E-03
   303  4.650652140E-03
   304 -8.765001380E-04
   305 -2.175150168E-01
   306  4.757327286E-03
   307  2.238863082E-02
   308  2.503192405E-01
   309  3.032035778E-03
   310 -5.791822950E-03
   311  2.706404859E-03
   312  1.265907563E+00
   313  2.738450051E-03
   314  1.162585676E-02
   315 -4.590847503E-01
   316  1.364901419E-03
   317  1.669803059E-03
   318  5.063344452E-03
   319 -3.591361013E+00
   320 -2.291496129E-03
   321  1.462927899E-02
   322  2.124729061E-02
   323 -8.112166201E-04
   324  5.022441210E-03
   325 -2.981931795E-04
   326 -1.679256914E-01
   327  4.733564538E-03
   328  2.258323206E-02
   329  2.427029101E-01
   330 -3.007092806E-03
   331 -4.974539812E-03
   332  4.009176826E-03
   333  1.244060963E+00
   334  3.455747398E-03
   335  1.769316611E-02
   336  2.360114376E-01
   337  7.716666999E-03
   338  1.900972256E-03
   339 -1.264603595E-03
   340  1.370770575E+00
   341  3.474092864E-03
   342  1.760107206E-02
   343  2.404199192E-01
   344 -6.793689374E-03
   345  3.886820646E-03
   346  1.919054063E-03
   347  1.401762841E+00
   348  4.901376079E-03
   349  3.901939093E-02
   350 -2.280086910E-01
   351  4.720508589E-04
   352 -4.520129035E-03
   353  4.906506083E-04
   354 -1.280530906E+00
   355  4.987462893E-03
   356  3.929079669E-02
   357 -2.198041786E-01
   358 -3.361028333E-05
   359 -3.937676630E-03
   360  2.256054678E-03
   361 -1.244690008E+00
   362  4.879864850E-03
   363  3.964174443E-02
   364 -2.288014475E-01
   365 -1.370137211E-03
   366 -4.259807987E-03
   367  8.837927600E-04
   368 -1.279988500E+00
Ene=    5.7616384248E-02
Spin= Alpha
Occup=   0.0000000
     1  2.874363906E-05
     2  5.421511907E-05
     3 -1.324482998E-02
     4  5.145156590E-03
     5  1.542809688E-02
     6 -4.143378652E-04
     7 -2.419325464E-02
     8  9.440029039E-03
     9  2.839017293E-02
    10  4.217634924E-03
    11 -1.462599919E-02
    12  6.715610352E-03
    13  1.370134381E-02
    14 -1.794155214E-03
    15  5.045973556E-03
    16  4.257235114E-03
    17 -2.292347498E-03
    18 -3.023416259E-03
    19  3.089425362E-01
    20  2.306129802E-01
    21  2.081077181E-01
    22 -3.682613222E-01
    23  1.148769709E-02
    24  1.853611855E-02
    25  1.875434205E-03
    26 -3.751990334E-03
    27  1.779554412E-03
    28 -5.284026300E-02
    29  6.453956343E-03
    30 -3.218433015E-03
    31 -3.236326236E-03
    32 -2.028496436E-01
    33  1.028329755E-02
    34  6.326311363E-02
    35  7.594156739E-03
    36  1.913782786E-04
    37 -3.337362777E-03
    38 -1.027384940E-03
    39  5.740484595E-04
    40  8.036666486E-04
    41 -1.019660532E+01
    42 -1.173154502E-01
    43  7.246761688E-01
    44  4.199967811E-01
    45 -4.437089495E-03
    46 -7.160277115E-03
    47 -3.541626749E-03
    48  5.405790105E-03
    49  1.252970363E-02
    50  2.037652007E-02
    51 -4.841996110E-04
    52  3.895373679E-03
    53  1.122206644E-02
    54  8.134830183E-02
    55 -5.170899122E-02
    56  1.956804891E-02
    57  1.477678773E-01
    58 -7.464735623E-04
    59 -1.672165519E-03
    60  1.894135650E-03
    61 -5.702309513E-04
    62 -1.126428270E-04
    63  3.787397380E+00
    64 -8.600948521E-01
    65  4.323487520E-01
    66  2.198160903E+00
    67 -8.541472827E-03
    68 -1.366068048E-02
    69 -2.127341464E-03
    70 -7.656300258E-04
    71  1.615833354E-03
    72  3.298670213E-02
    73  3.490585277E-04
    74 -1.177406421E-02
    75 -2.346726828E-06
    76  3.114927154E-01
    77 -2.164800073E-02
    78  1.253971562E-01
    79 -3.597465020E-04
    80 -3.060914163E-04
    81 -1.675611789E-03
    82  2.245966981E-03
    83  3.416692078E-04
    84 -2.974850767E-03
    85  8.195103388E+00
    86 -9.230075300E-02
    87  2.228738955E+00
    88 -1.729841621E-01
    89  1.397138603E-03
    90  2.282113748E-03
    91 -1.884060028E-03
    92 -1.758112294E-02
    93 -8.511950027E-03
    94 -7.053643755E-03
    95 -6.836892175E-03
    96 -2.072815962E-02
    97 -8.712901309E-03
    98 -2.019442291E-02
    99  1.240465189E-02
   100 -1.072233493E-01
   101 -5.481847804E-02
   102 -2.218780612E-06
   103  4.538550450E-03
   104  1.523767928E-03
   105  1.411311010E-03
   106 -1.914027349E-03
   107 -2.978366622E+00
   108 -1.832664177E-01
   109 -2.542551306E+00
   110 -3.959777981E-01
   111  3.250047809E-03
   112  5.194591963E-03
   113  5.055404087E-04
   114 -6.976990820E-04
   115 -3.936385065E-03
   116 -1.244683746E-02
   117  5.229931891E-03
   118  7.247817818E-04
   119 -1.172276398E-02
   120 -1.214624993E-01
   121 -2.722669976E-02
   122 -4.321719217E-02
   123  2.237181699E-02
   124  2.068853297E-03
   125 -2.862357780E-05
   126 -2.057288463E-03
   127 -6.300951555E-04
   128 -2.367191368E-04
   129 -2.383122888E+00
   130 -6.445500775E-01
   131 -5.875495128E-01
   132  9.178382499E-01
   133  7.706102822E-04
   134  1.271539524E-03
   135  8.225847311E-03
   136 -1.004967423E-02
   137  2.640595339E-03
   138 -4.252034023E-03
   139  7.915661168E-03
   140 -1.070475247E-02
   141  8.432594894E-03
   142 -7.568697252E-03
   143  5.990587962E-02
   144 -6.630645073E-02
   145 -1.325763301E-02
   146  4.609901450E-04
   147  4.308100779E-03
   148  3.530440118E-03
   149 -5.455598528E-04
   150 -1.410600446E-04
   151 -1.483332539E+00
   152  7.326296351E-01
   153 -1.520047699E+00
   154  3.445595475E-01
   155  5.204358411E-03
   156  8.305272572E-03
   157  3.833214292E-03
   158  6.297005383E-04
   159  3.153810021E-04
   160 -1.942664802E-02
   161  1.032350770E-02
   162  4.474441948E-03
   163 -5.877122691E-03
   164 -1.999195674E-01
   165 -1.173326883E-02
   166 -6.209886961E-02
   167  4.758896912E-02
   168 -2.330200735E-03
   169 -6.715876361E-04
   170  1.868912488E-04
   171  2.609575749E-04
   172  2.272125482E-03
   173 -4.908025488E+00
   174 -7.179507891E-01
   175 -1.091541716E+00
   176  8.484581764E-01
   177 -2.261277016E-03
   178 -3.743754297E-03
   179  1.702756971E-02
   180  1.843970700E-02
   181 -2.111003223E-02
   182  1.288930694E-02
   183  2.075658164E-02
   184  2.257060109E-02
   185 -2.446189696E-02
   186  1.430252098E-02
   187  9.849961434E-02
   188  1.123008282E-01
   189 -1.343914086E-01
   190 -1.235265198E-03
   191  2.122762080E-03
   192 -9.317892463E-04
   193 -3.341655155E-03
   194  8.421374135E-04
   195  3.735236446E+00
   196  1.628954925E+00
   197  3.175111528E+00
   198 -2.382619583E+00
   199 -6.900412930E-03
   200 -1.112597842E-02
   201 -1.145232401E-02
   202  3.654334542E-03
   203  1.422757824E-03
   204  3.144741008E-02
   205 -1.043823555E-02
   206  1.208040030E-03
   207 -2.354439575E-03
   208  1.273836166E-01
   209 -1.283758942E-01
   210 -2.105871409E-02
   211  4.858349829E-02
   212 -3.895809961E-04
   213 -1.318018155E-03
   214 -9.774883490E-04
   215  5.417520403E-04
   216 -2.388212204E-03
   217  6.149165786E+00
   218 -1.904053902E+00
   219 -8.422046684E-02
   220  8.343357025E-01
   221 -6.897352147E-05
   222 -1.186272958E-04
   223 -2.915861932E-02
   224  1.182443260E-02
   225  3.370529097E-02
   226  6.921700276E-04
   227 -4.375414696E-02
   228  1.763365064E-02
   229  5.047210430E-02
   230 -4.048633305E-03
   231 -1.254796133E-01
   232  5.397284186E-02
   233  1.471289242E-01
   234  1.679575747E-03
   235 -7.081413066E-03
   236 -4.569213813E-03
   237  2.618662823E-03
   238  2.753262945E-03
   239 -3.497717299E-01
   240 -1.178083361E+00
   241  5.506366986E-01
   242  1.350454848E+00
   243 -3.244848207E-03
   244 -2.789121368E-02
   245  4.146244253E-01
   246 -4.622549950E-03
   247  5.652788299E-04
   248  7.361364706E-04
   249  1.988055370E+00
   250 -3.363942329E-03
   251 -2.991636496E-02
   252  3.425508845E-01
   253 -1.214087085E-03
   254  6.583755619E-04
   255  4.393568828E-03
   256  1.353582385E+00
   257  9.172037175E-04
   258  4.983769530E-03
   259 -4.077120269E-01
   260 -1.282724301E-03
   261 -2.662371568E-03
   262 -1.437301445E-03
   263 -2.925586283E+00
   264  1.720615853E-03
   265  1.738623668E-02
   266  1.255275766E-01
   267 -1.236486181E-03
   268  2.571752201E-03
   269 -9.873876066E-04
   270  1.705298712E+00
   271 -2.401660153E-04
   272 -4.475446319E-03
   273 -2.025253527E-01
   274  1.210836416E-03
   275  5.400526934E-03
   276 -1.784896604E-03
   277 -1.674083008E+00
   278 -5.383179935E-04
   279 -1.151221998E-02
   280  4.072726185E-01
   281  1.262752059E-03
   282  1.927543570E-03
   283  3.007321938E-03
   284  2.683466395E+00
   285  5.171732050E-04
   286  5.336980516E-03
   287 -2.188159322E-01
   288  4.972174013E-03
   289  1.510845078E-03
   290 -1.730114531E-03
   291 -2.222631442E+00
   292  2.114233496E-05
   293  2.975283286E-03
   294  6.435555615E-02
   295 -7.200221580E-04
   296 -1.336430562E-03
   297  2.980884155E-03
   298  6.525328803E-01
   299 -3.367775151E-04
   300 -6.906964261E-03
   301  2.601394272E-01
   302 -2.095416212E-03
   303  5.572288536E-04
   304 -1.241443995E-03
   305  1.772945736E+00
   306  2.916090328E-04
   307  4.489362346E-03
   308 -1.578425262E-01
   309  1.727919670E-03
   310 -9.133240426E-05
   311 -5.671989461E-03
   312 -1.496987686E+00
   313  8.135471678E-05
   314  3.335012150E-03
   315  1.222605974E-01
   316 -2.437170705E-03
   317 -3.048293055E-03
   318  1.030207627E-03
   319  1.021129938E+00
   320  9.115977334E-04
   321  1.655831798E-02
   322 -6.648452963E-01
   323 -4.531227536E-03
   324 -3.808911460E-04
   325  4.449827954E-03
   326 -4.521395480E+00
   327 -7.432826338E-04
   328 -8.168496637E-03
   329  3.865140496E-01
   330 -6.690174347E-04
   331 -3.669729191E-03
   332  4.110957320E-04
   333  3.780762079E+00
   334  2.358039556E-03
   335  2.299519655E-02
   336  3.913234458E-03
   337 -6.070477859E-05
   338  2.920274574E-03
   339  1.701685993E-03
   340  9.714304932E-01
   341  1.704092890E-03
   342  1.235453078E-02
   343 -4.466114117E-01
   344  2.488802487E-03
   345 -1.489620782E-03
   346  2.401101600E-03
   347 -2.940791921E+00
   348  6.456175535E-03
   349  2.640914864E-02
   350  3.732544728E-01
   351  7.084962929E-03
   352  3.481364583E-03
   353 -6.723396676E-03
   354  3.774461110E+00
   355 -3.963758531E-03
   356 -1.548602874E-02
   357 -2.383868655E-01
   358 -5.529501052E-03
   359 -4.107208821E-03
   360 -3.112080535E-03
   361 -2.291810384E+00
   362 -2.443506672E-03
   363 -9.280219915E-03
   364 -1.575883102E-01
   365  1.845415565E-03
   366 -8.636273487E-04
   367  6.060162533E-03
   368 -1.520559213E+00
Ene=    5.7641947232E-02
Spin= Alpha
Occup=   0.0000000
     1 -3.124944423E-05
     2 -4.803358535E-05
     3 -1.625047242E-02
     4 -2.596945910E-03
     5 -1.305357140E-02
     6  6.549146290E-06
     7 -2.976927494E-02
     8 -4.662519923E-03
     9 -2.402316629E-02
    10  2.947350663E-03
    11 -1.738393050E-02
    12 -5.965588798E-03
    13 -1.290257523E-02
    14 -8.839540146E-04
    15  1.793406344E-03
    16 -4.872341214E-03
    17  2.361057959E-03
    18 -5.290218658E-03
    19  1.971876963E-01
    20  2.098120397E-01
    21 -1.725434021E-01
    22  1.351976855E-01
    23  1.394786768E-03
    24  2.252310181E-03
    25 -1.026023908E-02
    26 -2.666730166E-03
    27 -1.040129799E-02
    28 -6.467737935E-03
    29 -7.798965836E-03
    30 -2.199667542E-03
    31 -9.141452493E-03
    32 -2.531019892E-02
    33 -1.170244542E-01
    34 -1.770245271E-02
    35 -1.160383305E-01
    36  1.860690775E-03
    37 -2.077615678E-04
    38 -1.006868983E-03
    39 -5.581535916E-04
    40 -1.204032093E-03
    41 -1.011644501E+00
    42 -1.750099132E+00
    43 -3.252700511E-01
    44 -1.766794644E+00
    45 -1.056374945E-02
    46 -1.704575333E-02
    47  2.772950059E-03
    48  1.887030532E-03
    49 -6.127408550E-03
    50  4.854063630E-02
    51  7.989106961E-03
    52  3.596428882E-04
    53 -2.894271205E-03
    54  1.880500829E-01
    55  3.889211183E-03
    56 -7.316632802E-02
    57 -4.853638209E-02
    58  2.146784987E-03
    59 -1.565558941E-03
    60  7.226514980E-04
    61 -9.576205606E-04
    62  1.997111707E-03
    63  9.363357113E+00
    64 -2.448432615E-01
    65 -7.836935052E-01
    66 -9.069615234E-01
    67 -9.219104301E-04
    68 -1.475260030E-03
    69  3.002831040E-03
    70  6.361820575E-04
    71  3.145205623E-03
    72  3.617290143E-03
    73  9.478940395E-03
    74  7.919632318E-04
    75  9.046121328E-03
    76  3.391250905E-02
    77 -1.368983793E-02
    78  1.252874369E-02
    79 -1.037186739E-02
    80 -1.595771568E-03
    81 -5.783656463E-04
    82  1.681188112E-03
    83  3.554145238E-04
    84  1.354590864E-03
    85  3.894449339E-01
    86 -7.202892390E-01
    87  1.394273196E-01
    88 -5.997659891E-01
    89 -1.840694165E-03
    90 -3.024601331E-03
    91  7.301539556E-03
    92  2.326726340E-02
    93  1.064100350E-02
    94  9.873294036E-03
    95  5.191572108E-03
    96  2.875623954E-02
    97  1.299387997E-02
    98  1.906512325E-02
    99  6.137701289E-02
   100  1.371978011E-01
   101  6.060321860E-02
   102 -3.261266536E-03
   103  2.085629726E-03
   104 -2.353335714E-03
   105 -1.114108362E-03
   106 -1.676234088E-03
   107  3.449135520E+00
   108  7.539136228E-01
   109  3.304414702E+00
   110  5.505500626E-01
   111  7.899978159E-03
   112  1.262829926E-02
   113 -2.463035889E-03
   114  1.699739060E-03
   115  6.495105895E-04
   116 -3.027573922E-02
   117  2.152780493E-03
   118  1.154924245E-02
   119  2.646789534E-03
   120 -2.913621442E-01
   121 -4.726866433E-02
   122 -1.081693001E-01
   123  1.410970469E-02
   124  8.484706217E-04
   125 -8.404601944E-04
   126  5.745528685E-05
   127 -2.519422378E-03
   128 -2.884101507E-03
   129 -7.504996823E+00
   130 -4.871350849E-01
   131 -2.024096131E+00
   132  9.285841549E-02
   133  1.918062089E-03
   134  3.173189159E-03
   135  1.708143185E-02
   136 -2.133132056E-02
   137  1.294935036E-02
   138 -1.081854049E-02
   139  2.078215249E-02
   140 -2.674258403E-02
   141  1.313191784E-02
   142 -1.375447482E-02
   143  1.000580880E-01
   144 -1.233891144E-01
   145  9.199289745E-02
   146 -1.044272353E-04
   147 -2.564405852E-04
   148 -4.761851600E-04
   149  4.412659652E-03
   150 -9.273093607E-04
   151 -3.346014207E+00
   152  1.450985134E+00
   153 -3.286237854E+00
   154  1.604067413E+00
   155 -6.788056405E-03
   156 -1.085123936E-02
   157  2.137869001E-03
   158 -1.638557498E-03
   159 -1.920246424E-03
   160  2.595739941E-02
   161  7.841559332E-03
   162 -8.958828440E-03
   163  3.342771587E-03
   164  2.528536731E-01
   165 -1.164428054E-02
   166  8.774196625E-02
   167 -5.891953456E-02
   168  2.945063784E-03
   169  9.810578202E-04
   170 -1.238454186E-03
   171  9.080360104E-04
   172  1.262454739E-03
   173  6.421867395E+00
   174 -5.328167331E-01
   175  1.740596320E+00
   176 -7.916286031E-01
   177 -3.279475534E-04
   178 -5.392869967E-04
   179  4.304629355E-03
   180  2.764317850E-03
   181 -7.056836403E-04
   182  1.783678163E-03
   183  7.322407027E-04
   184  2.512163074E-03
   185 -5.152313023E-03
   186  3.543660918E-03
   187  4.921096077E-02
   188  2.125308238E-02
   189  1.909105666E-02
   190 -2.517253563E-03
   191  1.075878225E-03
   192 -3.686061148E-03
   193  2.280104881E-03
   194 -2.710742403E-03
   195  7.466098066E-01
   196  4.015582762E-01
   197  4.956987467E-01
   198 -5.905700707E-02
   199  9.236428263E-03
   200  1.489108574E-02
   201 -8.612115414E-03
   202 -1.638095660E-03
   203  3.456668187E-03
   204 -4.211372746E-02
   205 -5.645569592E-03
   206  1.322742077E-03
   207  7.535545254E-03
   208 -1.690247156E-01
   209 -9.542461304E-02
   210  5.854191896E-02
   211 -6.136437206E-03
   212  1.069207017E-03
   213  5.884017881E-04
   214  2.217089267E-03
   215 -2.002953872E-03
   216 -4.279459684E-04
   217 -8.829255441E+00
   218 -1.545944522E+00
   219  6.091766081E-01
   220 -3.631856295E-01
   221 -5.194340889E-06
   222 -5.977993457E-06
   223 -3.579097016E-02
   224 -5.547970798E-03
   225 -2.867911552E-02
   226 -9.485810530E-05
   227 -5.369234012E-02
   228 -8.154763955E-03
   229 -4.285901782E-02
   230  1.752018698E-03
   231 -1.546333868E-01
   232 -2.619720148E-02
   233 -1.255553474E-01
   234  2.311656459E-03
   235 -2.226418641E-03
   236  5.757818494E-03
   237 -3.477100254E-03
   238  5.747449335E-03
   239  1.624637114E-01
   240 -1.453884477E+00
   241 -2.505672377E-01
   242 -1.147270869E+00
   243 -8.163321450E-04
   244 -1.023116438E-02
   245 -2.422430250E-01
   246 -1.215096654E-04
   247 -2.375193860E-03
   248  1.354076908E-03
   249 -2.239492437E+00
   250 -1.076141529E-05
   251  3.014051576E-03
   252  3.241663144E-01
   253  4.939867315E-04
   254  2.792674835E-03
   255  4.664600689E-04
   256  2.653762828E+00
   257  3.231779212E-03
   258  2.903675822E-02
   259 -2.322344741E-01
   260 -2.782651811E-03
   261  7.516415512E-04
   262 -3.208574226E-03
   263 -5.485902788E-01
   264  2.900707696E-03
   265  2.370350066E-02
   266 -4.580618749E-01
   267 -4.259701995E-03
   268  6.761241697E-05
   269  1.531158753E-03
   270 -2.480296673E+00
   271  2.646162189E-05
   272 -1.124533266E-03
   273 -1.298921463E-02
   274 -1.865493931E-03
   275  2.572499620E-04
   276 -2.083771414E-03
   277 -1.816596259E-01
   278  6.747077616E-04
   279  1.387773563E-02
   280 -5.377994265E-01
   281 -1.058539491E-03
   282 -2.721821764E-03
   283 -4.246625690E-03
   284 -3.649504219E+00
   285 -6.208019525E-04
   286 -6.479565170E-03
   287  3.048119445E-01
   288  3.430517041E-03
   289 -3.377535912E-03
   290  1.421450140E-04
   291  2.998898627E+00
   292  2.405352291E-04
   293  4.568800821E-03
   294  1.865345307E-01
   295  5.756109527E-04
   296 -5.351352351E-03
   297  6.053310644E-04
   298  1.559476642E+00
   299 -8.785264263E-04
   300 -1.521246702E-02
   301  6.048897453E-01
   302 -5.200935606E-03
   303  1.620360122E-03
   304 -1.907667817E-03
   305  4.117433482E+00
   306  7.346005166E-04
   307  8.421859622E-03
   308 -3.592101748E-01
   309 -3.247551291E-04
   310  4.071178341E-03
   311  1.310512257E-03
   312 -3.481619618E+00
   313 -1.177129216E-04
   314 -4.217003261E-03
   315 -1.554942490E-01
   316 -1.148747409E-03
   317  4.736294435E-03
   318 -4.732189952E-04
   319 -1.303868157E+00
   320  3.044692732E-05
   321  2.538947335E-03
   322 -9.369155021E-02
   323 -3.408964014E-04
   324 -2.909448391E-06
   325  8.945014710E-04
   326 -5.869488238E-01
   327 -7.456339625E-05
   328 -9.386313467E-04
   329  4.284328683E-02
   330  4.279034637E-03
   331  4.477790448E-04
   332  4.456044512E-03
   333  4.961563461E-01
   334 -2.390053295E-03
   335 -2.018445035E-02
   336  4.811015179E-01
   337  1.671085255E-03
   338  1.583641438E-04
   339 -3.901281056E-03
   340  2.768841510E+00
   341 -2.883203253E-03
   342 -2.812232152E-02
   343  1.430895467E-01
   344 -2.312511636E-03
   345 -2.360157254E-03
   346 -2.108423362E-03
   347 -1.518141383E-01
   348  7.289307106E-04
   349  2.713725909E-03
   350  4.661293450E-02
   351 -2.727564066E-03
   352 -3.255280095E-04
   353 -4.544038744E-03
   354  4.691452358E-01
   355  5.197068382E-03
   356  2.054837804E-02
   357  3.115597222E-01
   358 -1.011999970E-03
   359  6.595284026E-03
   360  5.962173931E-03
   361  3.052874720E+00
   362 -5.927249838E-03
   363 -2.374383835E-02
   364 -3.525994567E-01
   365  7.915066207E-03
   366 -5.600781854E-03
   367  1.880913968E-03
   368 -3.527167981E+00
Ene=    6.0475030549E-02
Spin= Alpha
Occup=   0.0000000
     1 -6.322187436E-04
     2 -5.446862800E-04
     3 -7.257153468E-04
     4 -1.590051265E-02
     5  4.753708338E-03
     6 -1.299668019E-02
     7 -2.151096157E-03
     8 -1.682357182E-02
     9  4.351645159E-03
    10  2.465809036E-01
    11  2.500486704E-02
    12 -2.563524819E-01
    13  9.186395052E-02
    14 -2.289710392E-03
    15  3.366954737E-05
    16 -1.257999090E-03
    17 -2.239984834E-03
    18  1.598728282E-03
    19  1.117144999E+01
    20  1.271959358E-01
    21 -3.228032567E+00
    22  9.703463428E-01
    23  5.332002364E-03
    24  8.745658196E-03
    25 -2.543675149E-03
    26 -2.446324790E-04
    27 -7.634516125E-03
    28 -2.972723044E-02
    29 -1.432805380E-04
    30 -1.543810511E-03
    31 -1.341672825E-02
    32 -5.018767034E-02
    33 -1.191108336E-01
    34  2.595397909E-02
    35  1.739136387E-02
    36 -1.361023164E-03
    37 -5.997402446E-04
    38  3.473076523E-03
    39 -2.091294133E-03
    40 -3.069502906E-03
    41 -5.838738400E+00
    42 -1.873346374E+00
    43 -5.026414344E-01
    44  1.248793548E+00
    45  3.205666317E-03
    46  5.188445240E-03
    47 -4.236119189E-04
    48  1.560940711E-03
    49 -2.082214337E-03
    50 -1.472245077E-02
    51 -3.874016674E-03
    52  1.783623842E-03
    53 -3.435538645E-03
    54 -1.035907351E-01
    55  1.270632306E-01
    56 -1.739487493E-02
    57  2.884198733E-02
    58 -1.773008164E-03
    59  2.491856178E-04
    60  7.119843353E-04
    61  1.038514469E-03
    62  3.619853133E-03
    63 -2.715021850E+00
    64  1.853331534E+00
    65 -1.822388876E+00
    66  9.475717590E-01
    67  4.540525344E-03
    68  7.114441572E-03
    69  5.039522784E-03
    70  7.704629707E-03
    71 -1.111892969E-02
    72 -1.450614426E-02
    73  5.480292918E-03
    74  9.894722517E-03
    75 -1.402804823E-02
    76 -1.295702898E-01
    77  3.060359972E-02
    78  3.709675237E-02
    79 -5.218405456E-02
    80  3.704530217E-03
    81 -4.649621240E-04
    82 -2.944300685E-03
    83  4.932663331E-03
    84  2.484046903E-03
    85 -1.002805965E+01
    86 -2.381454923E-02
    87 -2.585511044E-01
    88 -1.890817755E-01
    89 -1.120017313E-02
    90 -1.807549304E-02
    91  4.914463496E-03
    92  1.214184752E-02
    93  1.636553421E-02
    94  5.268820341E-02
    95  5.458845159E-03
    96  1.528973242E-02
    97  2.162820681E-02
    98  1.763081104E-01
    99  5.054007234E-02
   100  1.131966016E-01
   101  4.464611422E-02
   102 -5.777854820E-04
   103 -1.273947325E-03
   104 -5.272635837E-03
   105  4.856388057E-04
   106 -1.112957650E-03
   107  1.372462224E+01
   108  4.442896421E-01
   109  1.743326699E+00
   110 -1.067000715E+00
   111  8.024872658E-03
   112  1.254317902E-02
   113 -1.297637191E-02
   114  1.092695637E-02
   115 -7.871133776E-03
   116 -2.396417574E-02
   117 -1.409457624E-02
   118  1.276746524E-02
   119 -9.353709858E-03
   120 -3.183087620E-01
   121 -4.737058677E-02
   122  7.295712637E-02
   123 -3.455350647E-02
   124  2.166829558E-03
   125  1.042415783E-03
   126  2.222889553E-07
   127  2.347073377E-03
   128 -4.688576906E-03
   129 -1.775895953E+01
   130 -1.490638716E-01
   131  2.665976751E-02
   132  8.643803351E-03
   133 -5.712396112E-03
   134 -9.205260560E-03
   135 -2.403000484E-02
   136  1.703929200E-02
   137 -1.247750966E-02
   138  2.579972438E-02
   139 -2.871994836E-02
   140  2.313168213E-02
   141 -1.628400859E-02
   142  1.136551036E-01
   143 -1.482790406E-01
   144  1.339761091E-01
   145 -7.680824392E-02
   146 -6.293939584E-04
   147 -3.084061206E-03
   148  2.110370012E-04
   149 -4.922446196E-03
   150  5.473325541E-03
   151  7.011601139E+00
   152 -8.117012728E-01
   153  2.304245731E+00
   154 -8.625062855E-01
   155  3.882727262E-03
   156  6.089780608E-03
   157 -1.211805815E-04
   158  1.259912629E-02
   159  5.221129117E-03
   160 -1.290149673E-02
   161 -6.865371955E-04
   162  1.585802578E-02
   163  6.382859544E-03
   164 -9.199243109E-02
   165  5.244895197E-03
   166  6.284708876E-02
   167  3.242326203E-02
   168 -2.108144461E-03
   169  4.095934794E-04
   170  6.895732910E-03
   171  1.661417930E-03
   172 -4.456450132E-04
   173 -7.742553594E+00
   174 -3.807104063E-02
   175  4.563386483E-02
   176  2.907708385E-01
   177 -1.034911803E-02
   178 -1.671248008E-02
   179  1.533389899E-02
   180  3.908603809E-03
   181 -1.630055433E-02
   182  4.889499662E-02
   183  1.879010428E-02
   184  4.647567983E-03
   185 -2.164373692E-02
   186  1.625369521E-01
   187  9.912619677E-02
   188  8.439851147E-02
   189 -6.815711196E-02
   190 -2.266198410E-03
   191  3.513595888E-03
   192  1.668267874E-03
   193 -3.452995489E-03
   194 -1.832280314E-03
   195  1.281704994E+01
   196  3.618305240E-01
   197  2.179657028E+00
   198  9.637588118E-03
   199  5.713289053E-03
   200  9.361343011E-03
   201 -5.279798268E-03
   202  3.310447978E-03
   203  4.383809612E-03
   204 -3.171780427E-02
   205 -5.705953737E-03
   206  5.837695407E-03
   207  1.044989183E-02
   208 -4.764183978E-02
   209 -8.041571003E-02
   210  1.632021645E-03
   211 -8.601427871E-02
   212  3.636537206E-03
   213 -2.127532109E-04
   214 -4.055258870E-03
   215  1.294851942E-04
   216 -3.705261330E-04
   217 -7.545741104E+00
   218 -1.097215007E+00
   219 -1.025003036E+00
   220 -1.818343946E+00
   221 -2.745977485E-03
   222 -4.279131903E-03
   223  4.514735204E-03
   224 -2.858885635E-03
   225  3.190574401E-03
   226  9.826189289E-03
   227  1.011795851E-02
   228  9.166080654E-05
   229  5.047318383E-03
   230  1.249889685E-01
   231 -4.111859957E-02
   232 -1.032705868E-01
   233  1.285873169E-02
   234  2.193917788E-03
   235 -1.981703278E-04
   236  1.680730683E-03
   237  2.434327820E-03
   238 -9.027768660E-04
   239  6.739836833E+00
   240 -2.510766235E-02
   241 -1.738292588E+00
   242  5.749183165E-01
   243 -1.243329583E-03
   244 -3.496585926E-02
   245  1.609498689E-01
   246 -1.025601581E-03
   247  3.521511138E-03
   248  1.361577415E-03
   249  7.598281628E-02
   250  1.071700554E-04
   251 -1.493272798E-02
   252  2.771191011E-01
   253 -1.928434749E-03
   254  4.372287627E-03
   255  1.694558642E-03
   256  1.566827246E+00
   257 -1.677133293E-04
   258 -1.254702986E-02
   259  1.227318110E-01
   260  2.461068907E-03
   261  1.163849307E-03
   262 -3.253340827E-04
   263  4.398010288E-01
   264 -4.582095824E-04
   265 -1.484056125E-02
   266  8.445039111E-02
   267  1.823233332E-03
   268  1.544234126E-03
   269  1.069172606E-03
   270  7.418249170E-02
   271  4.097270718E-03
   272 -4.264928766E-03
   273  3.958283495E-01
   274 -4.787009017E-03
   275  2.358669381E-03
   276  2.109143253E-03
   277  2.379917991E+00
   278 -4.123406061E-03
   279  6.431883377E-03
   280 -6.305297311E-01
   281 -1.994020851E-03
   282 -5.036723753E-03
   283 -7.408586559E-03
   284 -4.099255306E+00
   285  3.563339133E-03
   286  4.273640954E-02
   287 -2.589036469E-01
   288  2.746527931E-04
   289  3.724990970E-03
   290  7.289046170E-04
   291 -3.045662516E-01
   292  3.688425813E-03
   293 -1.117228660E-02
   294  6.121147958E-01
   295  7.032210978E-03
   296  8.549897334E-04
   297  1.597426670E-03
   298  3.810451115E+00
   299 -6.048492863E-03
   300 -1.321318374E-02
   301 -6.002800512E-01
   302  7.869489447E-03
   303 -2.785557972E-03
   304  3.279815978E-03
   305 -4.638403952E+00
   306  4.790580720E-03
   307  2.650018602E-02
   308  8.355848916E-02
   309 -3.179055651E-03
   310 -1.457105489E-03
   311 -5.850042070E-04
   312  2.060571367E+00
   313  4.119513402E-03
   314 -2.134371880E-03
   315  3.422048852E-01
   316 -2.262202805E-03
   317  2.903526955E-04
   318 -4.837789369E-03
   319  2.154330062E+00
   320 -4.454422336E-03
   321  3.795270589E-03
   322 -6.384326820E-01
   323 -6.278466326E-03
   324 -7.751185670E-04
   325  6.683072356E-03
   326 -4.186251457E+00
   327  3.730189812E-03
   328  4.030171467E-02
   329 -2.121312352E-01
   330  1.270883945E-03
   331  1.995247940E-03
   332 -2.340719388E-03
   333  1.301495793E-01
   334  8.985172992E-05
   335 -1.984048091E-02
   336  3.216327577E-01
   337 -3.176217837E-05
   338  2.809504755E-03
   339 -4.557591466E-03
   340  1.625822402E+00
   341 -1.147297032E-03
   342 -3.567970087E-02
   343  1.971659371E-01
   344  2.424369278E-04
   345  2.472991737E-03
   346 -3.477154518E-03
   347  1.458144033E-01
   348  1.379477195E-03
   349  2.072696426E-02
   350 -2.145581038E-01
   351 -1.181802353E-03
   352 -2.117907496E-03
   353 -9.957318970E-07
   354 -4.982511931E-01
   355  2.167543112E-03
   356  2.481615607E-02
   357 -2.095509755E-01
   358 -1.261145277E-03
   359 -2.444400051E-03
   360  2.705418788E-04
   361 -6.616309636E-01
   362 -3.077336390E-03
   363  2.268332639E-03
   364 -2.595057205E-01
   365 -8.096976714E-04
   366 -1.987286909E-04
   367 -3.481854968E-04
   368  1.920432777E-01
Ene=    6.0651073893E-02
Spin= Alpha
Occup=   0.0000000
     1  2.514601094E-05
     2  4.182741979E-05
     3  4.809495301E-04
     4 -5.028230697E-04
     5 -1.127648170E-03
     6 -3.912189522E-05
     7 -1.503034106E-03
     8  6.602644163E-04
     9  3.527727053E-03
    10  6.720499415E-04
    11  6.347815376E-02
    12 -4.302419543E-02
    13 -1.440444999E-01
    14  3.034126551E-03
    15  2.246504890E-03
    16 -3.186878461E-03
    17  4.962893516E-04
    18  2.518650954E-03
    19 -1.693327715E-01
    20  6.473020164E-01
    21 -1.016120646E-01
    22 -1.398700837E+00
    23  5.227761131E-03
    24  8.751857441E-03
    25  1.123536364E-02
    26 -6.743495517E-04
    27  4.404116408E-03
    28 -3.682356402E-02
    29  1.756117997E-02
    30 -7.584036106E-04
    31  3.406121940E-03
    32  1.284817116E-01
    33  1.182169173E-01
    34  5.713231600E-02
    35  1.209011312E-02
    36 -1.683667220E-03
    37  1.298165175E-03
    38 -7.234888616E-05
    39 -6.067628721E-04
    40 -2.552971163E-03
    41 -7.435357047E+00
    42  6.860889016E-01
    43  2.250788498E+00
    44  3.180474241E-02
    45 -6.801851225E-04
    46 -1.129760267E-03
    47 -7.043174490E-03
    48  7.946641139E-03
    49  2.555491487E-02
    50  4.439815378E-03
    51 -8.948886275E-03
    52  1.047457136E-02
    53  3.462968771E-02
    54 -1.156261475E-02
    55 -6.541678249E-02
    56  6.404965858E-02
    57  2.349274674E-01
    58  4.840895099E-05
    59 -2.912275186E-03
    60 -3.110773628E-03
    61  2.005040686E-03
    62 -3.419650467E-04
    63  1.017798555E+00
    64 -5.949217192E-01
    65  2.345471102E-01
    66  2.049244049E+00
    67 -8.257691354E-03
    68 -1.289138453E-02
    69 -6.052167191E-03
    70  1.820014936E-03
    71  1.227177340E-02
    72  2.323424727E-02
    73 -4.132686294E-03
    74  3.322520226E-03
    75  1.305796075E-02
    76  4.334728907E-01
    77 -6.407909296E-03
    78 -4.105336416E-02
    79  3.706164871E-02
    80  8.228414704E-04
    81 -2.785077661E-04
    82  5.516741257E-04
    83  1.142663685E-03
    84  3.933435963E-03
    85  1.740196768E+01
    86  1.052071914E-01
    87 -2.501355049E-01
    88  2.953789434E-01
    89  9.364175025E-03
    90  1.516026974E-02
    91  3.115565537E-03
    92  1.965685907E-02
    93  6.106230262E-03
    94 -4.654555671E-02
    95  1.525746144E-03
    96  2.832412959E-02
    97  3.796290759E-03
    98 -9.897116598E-02
    99  9.534003609E-02
   100  8.597695272E-02
   101  9.414336322E-02
   102 -1.442110706E-03
   103 -8.317114532E-04
   104 -3.955762762E-03
   105 -2.467334226E-03
   106  4.645146453E-04
   107 -1.113638554E+01
   108  1.676337121E+00
   109  9.215003133E-01
   110  1.817775083E+00
   111  1.093402995E-03
   112  1.698331938E-03
   113 -4.942855254E-03
   114  3.749698287E-03
   115  1.059448337E-02
   116 -2.923377197E-03
   117 -6.080951605E-03
   118  4.895698779E-03
   119  1.578765533E-02
   120 -5.969416055E-02
   121 -1.667522584E-02
   122  1.765646048E-02
   123  3.218422748E-02
   124 -2.561504760E-03
   125  1.793864148E-03
   126  5.668249454E-03
   127 -2.344829744E-03
   128 -9.838822155E-04
   129 -1.944904244E+00
   130 -3.532286699E-01
   131  1.907014304E-01
   132  4.797855044E-01
   133  1.381322707E-03
   134  2.232589108E-03
   135 -2.037461337E-03
   136  2.967805331E-03
   137 -2.650882439E-05
   138 -6.778612572E-03
   139 -3.023002443E-03
   140  5.324908129E-03
   141  3.078227057E-03
   142 -1.595786278E-02
   143  8.214678815E-03
   144 -1.830412548E-02
   145 -1.038721542E-01
   146  2.460825186E-04
   147 -5.159741819E-04
   148 -1.120437316E-03
   149 -2.468340774E-04
   150  6.240305821E-04
   151 -1.759685238E+00
   152  1.536778302E-01
   153 -4.390427089E-01
   154 -1.823938620E+00
   155  7.145548053E-03
   156  1.114423452E-02
   157 -4.373442806E-03
   158  5.592632677E-03
   159  1.144532137E-02
   160 -1.975789506E-02
   161 -7.742685112E-03
   162  4.524157041E-03
   163  1.198085897E-02
   164 -3.798648411E-01
   165 -1.590911762E-02
   166  4.955429435E-02
   167  1.108502890E-02
   168  6.130288497E-04
   169  2.010644118E-03
   170 -1.788812695E-03
   171 -1.000299604E-03
   172 -4.107211211E-03
   173 -1.495558758E+01
   174 -2.580977537E-01
   175  2.604612396E-01
   176  2.043473562E-01
   177 -1.109568376E-02
   178 -1.800085106E-02
   179 -1.007521060E-02
   180 -1.628020627E-02
   181  1.404040765E-02
   182  5.621965767E-02
   183 -9.143493455E-03
   184 -2.623362542E-02
   185  1.746918601E-02
   186  1.045484947E-01
   187 -1.394848832E-01
   188 -3.978291491E-02
   189  8.510839950E-02
   190  2.697798163E-03
   191 -1.243470273E-03
   192  7.297383685E-04
   193  4.762169400E-03
   194  3.475252301E-04
   195  1.214868083E+01
   196 -2.356130337E+00
   197 -1.202742665E-01
   198  1.326447697E+00
   199 -4.430562277E-03
   200 -7.391791648E-03
   201 -1.735000705E-02
   202  1.937296980E-03
   203 -8.647561445E-04
   204  3.043603311E-02
   205 -2.418694232E-02
   206  8.646698877E-04
   207 -3.677676749E-03
   208 -9.916622853E-02
   209 -1.635984551E-01
   210 -4.327130978E-02
   211  8.646731905E-04
   212  5.517650748E-04
   213 -2.034909524E-03
   214  2.293162959E-03
   215 -2.615621720E-04
   216  2.083531660E-03
   217  6.864801198E+00
   218 -1.367644997E+00
   219 -1.794525087E+00
   220  9.310041118E-01
   221  1.606850729E-05
   222  3.130926569E-05
   223  6.656407455E-03
   224 -4.828829948E-03
   225 -1.508124264E-02
   226 -4.419317845E-05
   227  1.447166793E-02
   228 -1.046576822E-02
   229 -3.273070478E-02
   230 -1.155829217E-03
   231 -5.117497828E-02
   232  3.645224185E-02
   233  1.144769406E-01
   234 -1.891696705E-03
   235 -2.694805290E-03
   236  1.039451871E-03
   237  2.823104482E-04
   238 -1.522529977E-03
   239 -1.772655781E-01
   240  1.478783009E-01
   241 -8.463292622E-02
   242 -3.375095759E-01
   243  3.485491513E-04
   244 -1.238086905E-02
   245  3.806742105E-01
   246 -3.436561176E-03
   247  5.154196764E-03
   248 -1.350370139E-03
   249  2.478343061E+00
   250 -1.744160067E-03
   251 -4.007713190E-02
   252  1.857076599E-01
   253 -1.816403890E-04
   254  4.238534230E-03
   255  7.641026227E-05
   256  1.027729761E-01
   257 -2.587527740E-03
   258 -3.263383321E-02
   259 -2.784760907E-01
   260 -1.624778966E-03
   261 -2.639346780E-03
   262 -2.678083358E-03
   263 -3.191684944E+00
   264  2.754764084E-03
   265  3.906921114E-02
   266  2.118190587E-01
   267  2.482486536E-03
   268  1.020379796E-04
   269 -1.865956549E-03
   270  2.874216943E+00
   271  1.031188756E-03
   272  1.510886053E-02
   273 -4.866612949E-01
   274  4.594449717E-03
   275  4.190300033E-04
   276 -1.620717413E-03
   277 -3.325787922E+00
   278 -3.391698717E-03
   279 -3.460158165E-02
   280  7.046196323E-02
   281  8.278513019E-04
   282 -4.002776480E-05
   283  3.387971296E-04
   284 -7.786573799E-01
   285  2.013689963E-03
   286 -2.478516835E-02
   287  5.541166290E-01
   288 -8.343461171E-04
   289 -7.036744857E-03
   290  4.940920529E-03
   291  3.800067854E+00
   292 -1.183151040E-04
   293 -2.099150066E-03
   294  7.039274852E-02
   295 -9.642707210E-04
   296  1.424985496E-03
   297  5.100828749E-03
   298  5.304090270E-01
   299 -5.957660378E-04
   300 -5.876039342E-03
   301  8.108398783E-03
   302  3.066528252E-04
   303 -3.761082757E-04
   304 -1.100534639E-03
   305 -1.457807754E-01
   306  3.617275753E-04
   307 -3.317320622E-03
   308  8.465487717E-02
   309 -9.528690595E-04
   310 -7.494649322E-04
   311  1.612680787E-03
   312  5.985582533E-01
   313 -9.198357212E-04
   314 -1.299846115E-02
   315  4.271983748E-01
   316 -4.089301966E-03
   317 -1.380231629E-03
   318 -2.505047188E-03
   319  2.945822106E+00
   320  3.846209316E-03
   321  3.830147752E-02
   322 -8.296251329E-02
   323 -9.248286463E-04
   324  1.285924424E-04
   325  2.274199529E-04
   326  7.970950364E-01
   327 -2.197117818E-03
   328  2.937568151E-02
   329 -6.349800155E-01
   330 -1.067478790E-03
   331  1.006551466E-02
   332 -2.163741555E-04
   333 -4.381555561E+00
   334  2.192467718E-03
   335  4.441751422E-02
   336 -9.171686175E-02
   337  1.315709828E-04
   338 -2.847775110E-03
   339  1.133173828E-03
   340  7.625921385E-01
   341 -1.075785723E-03
   342  7.017134495E-04
   343 -3.878169938E-01
   344  3.159958187E-03
   345 -4.146433540E-03
   346  3.456656304E-03
   347 -2.923815579E+00
   348  1.045273509E-02
   349  4.516284584E-02
   350  9.690057804E-02
   351 -1.145027683E-03
   352 -3.519286569E-03
   353  4.222846721E-03
   354 -1.623961562E+00
   355 -9.086393330E-03
   356 -3.746903770E-02
   357 -1.011571157E-01
   358 -1.685355767E-03
   359  4.688261337E-03
   360  1.750844300E-03
   361  1.396792924E+00
   362 -1.425317255E-03
   363 -5.223730397E-03
   364 -2.223495229E-02
   365 -1.487559585E-03
   366  1.734650042E-03
   367  3.684057651E-03
   368  2.098394427E-01
Ene=    6.0693429951E-02
Spin= Alpha
Occup=   0.0000000
     1  1.473247698E-04
     2  9.359952616E-05
     3  1.166304676E-03
     4  4.926223522E-03
     5 -9.201014255E-04
     6  3.889280098E-03
     7 -3.503514449E-03
     8  5.176133466E-03
     9 -3.057388570E-03
    10 -7.087240312E-02
    11  1.479475676E-01
    12  8.122879179E-02
    13  4.022351202E-02
    14 -2.743143949E-03
    15  6.121090229E-04
    16  1.146518046E-03
    17  2.619660443E-03
    18  3.627725750E-03
    19 -2.795860912E+00
    20  1.390676109E+00
    21  5.990254228E-01
    22  3.054721290E-01
    23  7.733153786E-04
    24  1.332952913E-03
    25 -1.635504639E-02
    26 -5.003034199E-03
    27 -1.808913292E-02
    28 -7.260073824E-03
    29 -2.173385657E-02
    30 -6.127716830E-03
    31 -2.475669302E-02
    32  6.459242685E-02
    33 -1.167032274E-01
    34 -2.777188038E-02
    35 -1.997936959E-01
    36  1.304791929E-03
    37  7.316049806E-05
    38  2.338724063E-03
    39 -2.023911079E-03
    40  2.677084295E-03
    41 -1.478123054E+00
    42 -7.648407466E-01
    43  8.151589526E-01
    44 -2.103182108E+00
    45 -6.990412754E-03
    46 -1.165037789E-02
    47  6.978822192E-03
    48 -2.124303644E-04
    49 -1.207906008E-03
    50  4.682378101E-02
    51  1.392824491E-02
    52 -1.197261957E-03
    53 -3.052608887E-05
    54 -1.141460405E-01
    55  3.574294335E-02
    56 -6.833035830E-02
    57  2.514782184E-04
    58  1.006266866E-03
    59  1.286341532E-03
    60 -3.058096735E-04
    61  2.425717718E-04
    62 -3.898953881E-03
    63  9.077155134E+00
    64 -7.027907080E-01
    65 -1.865318043E+00
    66  1.356329297E-01
    67 -5.066798651E-03
    68 -7.917857437E-03
    69 -1.374859422E-02
    70 -3.736566455E-03
    71 -9.759941139E-04
    72  1.491525626E-02
    73 -1.709326658E-02
    74 -4.471252818E-03
    75 -4.302555788E-03
    76  2.316436600E-01
    77 -4.601285980E-02
    78 -3.645925682E-02
    79  4.856563623E-03
    80  7.974001449E-04
    81  1.002351620E-03
    82 -4.166702260E-03
    83  4.904698472E-04
    84 -4.393903660E-03
    85  9.866711277E+00
    86 -6.047336649E-01
    87 -5.892460034E-02
    88 -1.231468455E-01
    89 -4.021839079E-03
    90 -6.524320218E-03
    91 -5.742371569E-03
    92 -1.889206899E-02
    93 -9.350601156E-03
    94  2.084799273E-02
    95 -9.254690427E-03
    96 -2.615543234E-02
    97 -8.212220779E-03
    98  2.529427909E-02
    99  3.653883610E-02
   100 -1.184160686E-01
   101 -1.148502118E-01
   102  1.480337206E-03
   103  5.666731546E-04
   104  4.482615805E-03
   105  2.077314876E-03
   106  1.244172249E-03
   107  4.708394008E+00
   108  8.464591295E-01
   109 -1.561147288E+00
   110 -1.598672270E+00
   111  6.975215631E-03
   112  1.088779989E-02
   113 -9.312347290E-03
   114 -1.669845460E-03
   115 -3.774398931E-03
   116 -1.931850311E-02
   117 -8.173884732E-03
   118 -3.937700513E-03
   119 -3.526923396E-03
   120 -3.965249244E-01
   121 -3.374765577E-03
   122  3.046474703E-02
   123 -1.351903404E-02
   124 -1.806693153E-03
   125 -9.493925981E-04
   126 -6.024887344E-04
   127 -7.692793042E-04
   128  4.858357414E-03
   129 -1.416987791E+01
   130 -2.539221640E-02
   131  3.153429246E-01
   132 -1.535689554E-01
   133  1.415593964E-02
   134  2.295410403E-02
   135 -4.531370021E-03
   136  1.617165132E-02
   137 -6.471222505E-03
   138 -7.104496137E-02
   139 -1.226991213E-03
   140  2.522644407E-02
   141 -8.823720795E-03
   142 -1.476090471E-01
   143 -1.103357374E-01
   144  4.025591169E-02
   145 -3.083116160E-02
   146 -1.699489550E-03
   147 -3.727260462E-04
   148 -1.459427001E-03
   149 -3.447452894E-03
   150  1.273694643E-03
   151 -1.560708624E+01
   152 -2.462551942E+00
   153  4.845334413E-02
   154 -5.003107122E-01
   155 -6.820227714E-03
   156 -1.065287036E-02
   157 -1.202878413E-02
   158 -6.063533278E-03
   159 -7.270223878E-03
   160  1.971522271E-02
   161 -1.581813022E-02
   162 -5.526969808E-03
   163 -6.503009464E-03
   164  3.255926073E-01
   165 -4.150843037E-02
   166 -4.928278148E-02
   167 -9.378336247E-03
   168 -1.293673845E-03
   169  2.125513109E-03
   170  6.169852909E-04
   171 -1.094533847E-03
   172 -4.570207439E-03
   173  1.395923542E+01
   174 -5.662295001E-01
   175 -6.957860423E-02
   176 -1.503623579E-01
   177 -1.700888614E-03
   178 -2.770487586E-03
   179 -1.011142827E-02
   180 -8.315293307E-03
   181  9.899043976E-03
   182  9.399246647E-03
   183 -1.400355110E-02
   184 -1.345651929E-02
   185  1.016194385E-02
   186  8.382774754E-04
   187 -1.069037443E-02
   188 -2.452691710E-02
   189  1.410815560E-01
   190  1.552298848E-03
   191 -1.786872574E-03
   192  6.618990423E-04
   193  2.933532783E-03
   194  1.595425819E-03
   195  2.172799431E+00
   196  2.268424421E-01
   197 -2.409653042E-01
   198  2.065877688E+00
   199  1.847651483E-03
   200  3.124262087E-03
   201 -2.029507981E-02
   202  2.258481980E-03
   203  7.224283949E-03
   204 -1.468453045E-02
   205 -2.708387480E-02
   206  4.356065761E-03
   207  1.039769682E-02
   208  9.033645088E-02
   209 -1.703460284E-01
   210  7.491403693E-02
   211  9.467043827E-02
   212  3.944629481E-04
   213 -3.288618253E-03
   214 -6.443055299E-04
   215 -7.057208072E-05
   216  1.705759505E-03
   217 -3.776253312E+00
   218 -1.330889870E+00
   219  2.110311435E+00
   220  2.679666682E-01
   221  7.777289774E-04
   222  1.201258936E-03
   223  1.443191997E-02
   224  1.833955045E-03
   225  6.226004849E-03
   226 -2.662475428E-03
   227  3.165745972E-02
   228  2.133784758E-03
   229  1.418660527E-02
   230 -3.781932678E-02
   231 -1.149545601E-01
   232  2.475928828E-02
   233 -5.901909453E-02
   234  2.247528168E-03
   235 -1.209516408E-03
   236 -1.393282767E-04
   237 -2.583735507E-03
   238 -1.274756950E-03
   239 -1.800461866E+00
   240  3.315954577E-01
   241  5.129342817E-01
   242  1.752072208E-04
   243 -2.522637624E-03
   244 -3.635186588E-02
   245 -1.654820106E-01
   246  2.404652349E-03
   247 -4.456134371E-04
   248 -6.972032144E-05
   249 -2.383849202E+00
   250  2.239888698E-03
   251  2.782638609E-02
   252  2.757700131E-01
   253  8.976357474E-04
   254  3.031489432E-03
   255  2.779159792E-03
   256  3.060229237E+00
   257  1.243151892E-03
   258  3.793544770E-02
   259 -3.230838851E-01
   260 -2.658621809E-03
   261 -5.552127786E-03
   262 -4.897818192E-04
   263 -1.224424990E+00
   264  6.493610704E-04
   265  2.929690878E-02
   266 -3.748802337E-01
   267 -3.985515185E-03
   268 -4.919012737E-03
   269  2.313513189E-03
   270 -1.861329383E+00
   271 -7.144604004E-04
   272  6.947846897E-03
   273 -3.271172909E-01
   274 -8.106567808E-04
   275 -1.411308698E-03
   276 -5.646348834E-03
   277 -2.282353662E+00
   278  3.894288164E-03
   279  2.586024889E-02
   280  1.312699688E-01
   281  1.486155837E-03
   282  1.325439104E-03
   283  1.608341551E-03
   284  1.812026136E+00
   285 -2.694232584E-03
   286  6.851410582E-03
   287 -3.573451993E-01
   288 -1.313462722E-03
   289  4.698016578E-03
   290 -3.727331527E-03
   291 -2.927474384E+00
   292 -2.291330658E-03
   293 -1.330174496E-02
   294  3.631868636E-01
   295  2.563906654E-03
   296 -1.696727787E-03
   297  6.201368214E-04
   298  2.650070556E+00
   299 -2.542868655E-03
   300 -3.918249585E-02
   301  2.757388184E-01
   302 -3.349891570E-03
   303  8.821325986E-04
   304 -1.161467866E-03
   305  5.093927442E-01
   306  1.062069722E-03
   307 -4.062625498E-02
   308  6.852824942E-01
   309 -3.017308919E-03
   310 -1.000395230E-02
   311  1.933879318E-03
   312  4.285735573E+00
   313 -4.817923090E-04
   314  1.051500334E-02
   315 -4.354176547E-01
   316 -2.946998373E-03
   317  1.979382576E-03
   318  4.914750452E-03
   319 -2.984619856E+00
   320  3.047211433E-03
   321  1.791783481E-02
   322  1.340742155E-01
   323  2.415285805E-03
   324  4.950960155E-04
   325 -9.548093947E-04
   326  1.592946098E+00
   327 -2.195394240E-03
   328  4.023041418E-04
   329 -2.204651041E-01
   330 -2.066817709E-03
   331  3.465954824E-03
   332 -5.341200950E-04
   333 -1.892699855E+00
   334  1.832441517E-03
   335  1.757961535E-02
   336  3.148622379E-01
   337  2.673014873E-03
   338  2.053109013E-03
   339 -3.377293653E-03
   340  2.923036823E+00
   341 -2.307267278E-03
   342 -3.832021922E-02
   343 -6.135868745E-02
   344  1.239284270E-03
   345  1.038555102E-03
   346  7.102971893E-04
   347 -1.762509822E+00
   348  4.280861809E-03
   349  1.261356832E-02
   350  1.212362963E-01
   351 -3.487740549E-03
   352 -1.542271881E-03
   353 -1.716788831E-03
   354 -5.172622808E-01
   355  6.608713200E-03
   356  2.188696644E-02
   357  1.480118521E-01
   358 -3.853248355E-03
   359 -2.180701409E-03
   360 -2.418206639E-04
   361 -8.891707974E-01
   362 -1.094423655E-02
   363 -5.138423708E-02
   364 -4.107149831E-02
   365 -2.076826030E-03
   366  4.782838867E-03
   367 -2.604724965E-03
   368  1.712513499E+00
Ene=    6.7105591391E-02
Spin= Alpha
Occup=   0.0000000
     1 -7.305156998E-06
     2 -1.490259301E-05
     3 -4.004448746E-05
     4  1.735759335E-04
     5 -1.267038765E-05
     6  6.553935575E-05
     7 -4.245174095E-05
     8  3.506963413E-04
     9 -2.878856468E-05
    10 -1.298547462E-03
    11  2.925839048E-04
    12 -5.108036752E-04
    13  8.003779259E-04
    14  2.139017278E-05
    15  1.760506603E-05
    16  3.168028408E-05
    17  5.943047468E-05
    18 -1.622853249E-05
    19  6.383589500E-02
    20  2.924282221E-02
    21 -1.935751232E-01
    22  1.454902637E-01
    23  1.427850361E-05
    24  1.616375510E-05
    25  2.439149093E-02
    26  5.212001457E-03
    27  2.489604089E-02
    28  1.328164975E-04
    29  2.654999485E-02
    30  5.704379476E-03
    31  2.698564435E-02
    32 -3.113575166E-03
    33  1.739499100E-01
    34  3.769781739E-02
    35  1.793788457E-01
    36 -1.482278214E-03
    37  7.899494671E-04
    38 -3.464335036E-03
    39  2.250484948E-03
    40 -2.835597262E-03
    41 -2.264885557E-02
    42  4.469961628E+00
    43  9.605666445E-01
    44  4.605547580E+00
    45 -6.921155016E-05
    46 -1.225810361E-04
    47  9.837885487E-03
    48 -9.911445891E-03
    49 -3.236682613E-02
    50  6.662135995E-04
    51  1.064799958E-02
    52 -1.061585892E-02
    53 -3.508417569E-02
    54 -3.284690522E-03
    55  7.187034351E-02
    56 -7.145464395E-02
    57 -2.320855777E-01
    58 -6.086686308E-05
    59  3.358874201E-03
    60  3.521204608E-03
    61 -2.133879137E-03
    62 -6.206037214E-05
    63 -1.914601098E-01
    64  1.859909951E+00
    65 -1.820769808E+00
    66 -6.016521054E+00
    67 -2.730491711E-05
    68 -4.022096428E-05
    69  1.048275873E-02
    70  2.210717236E-03
    71  1.076785552E-02
    72  1.459707707E-05
    73  2.269746827E-02
    74  4.840601991E-03
    75  2.313462533E-02
    76  1.953667608E-03
    77 -4.590894493E-02
    78 -8.841073606E-03
    79 -4.438525493E-02
    80 -2.787031952E-03
    81 -4.910950687E-04
    82  1.907855597E-03
    83  6.281248354E-04
    84  2.436208695E-03
    85 -2.778470135E-01
    86 -2.701220148E+00
    87 -5.951677210E-01
    88 -2.638077842E+00
    89  9.749457933E-05
    90  1.702462875E-04
    91 -2.841177420E-03
    92  3.419189955E-04
    93  4.380047799E-04
    94 -8.263008546E-04
    95 -1.059704939E-02
    96  1.212654015E-03
    97  1.930530479E-03
    98  3.225607238E-03
    99 -2.768590759E-02
   100  3.693328552E-03
   101  4.451954342E-03
   102 -1.922010295E-03
   103  4.918620670E-03
   104  1.438782663E-05
   105  2.536782849E-04
   106 -3.204422889E-03
   107  2.312787238E-01
   108 -1.581358131E+00
   109  2.731130323E-01
   110  3.069718651E-01
   111 -4.069866817E-06
   112 -3.091374322E-06
   113  4.256841797E-03
   114 -4.364682113E-03
   115 -1.393024779E-02
   116 -7.888551956E-05
   117  9.157716731E-03
   118 -9.324542925E-03
   119 -3.001806479E-02
   120  8.275534417E-04
   121 -1.654271910E-02
   122  1.805633828E-02
   123  5.798518446E-02
   124  2.470191653E-03
   125  1.008553823E-03
   126 -2.915672710E-03
   127  5.680131047E-04
   128  1.450457026E-03
   129 -1.644991799E-01
   130 -1.010135871E+00
   131  1.081707536E+00
   132  3.501842032E+00
   133  1.303447751E-04
   134  2.248983630E-04
   135  1.102893137E-03
   136 -8.888027761E-04
   137 -2.548692027E-03
   138 -1.021380665E-03
   139  3.507346888E-03
   140 -3.071102353E-03
   141 -9.866645013E-03
   142  3.123720509E-03
   143  9.970490051E-03
   144 -9.283659224E-03
   145 -2.415574729E-02
   146 -3.530189017E-05
   147 -3.994866897E-03
   148 -3.976122835E-03
   149  2.454801818E-03
   150 -6.341552345E-05
   151  2.025794414E-01
   152  5.023824329E-01
   153 -4.599283074E-01
   154 -1.517414752E+00
   155 -1.918392059E-05
   156 -2.839721539E-05
   157 -1.471908478E-02
   158  1.895322174E-03
   159  3.244293919E-03
   160  2.031673063E-05
   161 -3.164105214E-02
   162  4.243082978E-03
   163  6.936405979E-03
   164  1.088424810E-03
   165  6.069174153E-02
   166 -8.770213880E-03
   167 -1.440784874E-02
   168  3.153871359E-04
   169 -5.492133899E-04
   170  9.770697766E-04
   171 -1.294966999E-03
   172 -3.868077454E-03
   173 -2.698088213E-01
   174  3.696041087E+00
   175 -5.231839133E-01
   176 -8.892843183E-01
   177  9.614657935E-05
   178  1.658262000E-04
   179  1.877351903E-03
   180  4.523469489E-04
   181  2.185028658E-03
   182 -7.686996772E-04
   183  7.376118209E-03
   184  1.753184259E-03
   185  7.900556170E-03
   186  2.520553947E-03
   187  1.715153619E-02
   188  2.991223217E-03
   189  2.073314944E-02
   190  1.926358310E-03
   191 -8.926167977E-04
   192  3.935061022E-03
   193 -2.650279511E-03
   194  3.242649067E-03
   195  1.423516323E-01
   196  1.108107000E+00
   197  2.504892544E-01
   198  1.194756625E+00
   199 -4.329736993E-05
   200 -7.611042189E-05
   201 -3.415540269E-02
   202  4.628847652E-03
   203  7.469222226E-03
   204  4.260114202E-04
   205 -3.702212811E-02
   206  5.089657489E-03
   207  8.097007910E-03
   208 -2.781023985E-03
   209 -2.456215377E-01
   210  3.293537231E-02
   211  5.299768640E-02
   212  1.562421756E-03
   213 -4.162123821E-03
   214 -2.777447353E-05
   215 -1.564122937E-04
   216  2.888246473E-03
   217  1.535764414E-01
   218 -6.309621272E+00
   219  8.943844566E-01
   220  1.413485767E+00
   221  1.327287567E-05
   222  2.139704154E-05
   223 -5.233554940E-05
   224  4.665279975E-05
   225  5.680044873E-05
   226 -1.109691373E-04
   227 -8.364212594E-05
   228  3.115010259E-05
   229  5.256932707E-05
   230  4.030183389E-04
   231 -2.134724897E-04
   232  4.461558624E-04
   233  1.366487653E-04
   234 -1.163825660E-05
   235 -4.677795240E-05
   236 -4.897374871E-05
   237 -3.588089508E-05
   238  1.288861669E-05
   239  2.152867428E-01
   240 -1.677977153E-02
   241 -4.377036986E-02
   242  1.928063919E-02
   243  1.417789004E-03
   244 -1.440510743E-02
   245  6.898977744E-01
   246 -5.859364609E-03
   247  9.615597958E-04
   248 -7.808764662E-05
   249  6.589713559E+00
   250 -1.386635842E-03
   251  1.441128735E-02
   252 -6.896887551E-01
   253  4.090088253E-04
   254 -2.205378924E-03
   255 -5.484053209E-03
   256 -6.602356357E+00
   257  1.469509954E-03
   258 -1.475948069E-02
   259  6.946324414E-01
   260  3.115467296E-03
   261  1.657808588E-03
   262  4.715573020E-03
   263  6.623394938E+00
   264 -1.383333925E-03
   265  1.476406787E-02
   266 -6.938219589E-01
   267 -5.398527287E-03
   268  4.903723388E-04
   269  2.543961052E-03
   270 -6.663498668E+00
   271  2.036082086E-05
   272 -3.262332752E-04
   273  5.444540527E-04
   274 -2.052074285E-03
   275 -4.680417878E-04
   276 -2.079298964E-03
   277 -4.021105575E-02
   278 -4.804428201E-06
   279  1.091015703E-03
   280 -6.944976005E-03
   281  5.790268446E-03
   282 -7.406109262E-04
   283 -1.206789936E-03
   284 -7.550660210E-03
   285 -3.545589495E-05
   286 -4.168334857E-04
   287  1.363539576E-03
   288  1.717402996E-03
   289 -3.100612318E-04
   290 -3.953022550E-04
   291  3.309938325E-02
   292  1.245010490E-05
   293 -3.783778029E-04
   294  2.006240348E-03
   295 -8.384199856E-04
   296  7.926227521E-04
   297  2.726010051E-03
   298 -1.366521698E-02
   299  2.502430613E-05
   300  6.463191260E-04
   301  3.185762594E-03
   302 -1.751309275E-03
   303  1.735924655E-03
   304  5.425695425E-03
   305  3.766998115E-02
   306 -4.530974535E-05
   307 -2.290491756E-04
   308 -2.711135392E-03
   309 -4.575312815E-04
   310  4.301920826E-04
   311  1.656590097E-03
   312 -2.211030374E-02
   313  3.417487477E-05
   314 -4.122525312E-04
   315  2.747333614E-03
   316  2.862521249E-03
   317 -4.365195371E-04
   318 -6.124554106E-04
   319 -2.129218562E-02
   320  4.962547973E-05
   321  5.221543750E-04
   322  2.267462122E-03
   323 -4.051625335E-03
   324 -8.692641204E-04
   325 -4.258843328E-03
   326  4.024418025E-02
   327 -7.399878355E-05
   328 -2.885991654E-04
   329 -3.788509090E-03
   330 -1.247242194E-03
   331 -3.201277626E-04
   332 -1.205098253E-03
   333 -2.634356739E-02
   334  1.449898602E-03
   335 -1.418301859E-02
   336  6.876462717E-01
   337  2.802342956E-03
   338 -1.091437381E-03
   339 -5.090366466E-03
   340  6.606973276E+00
   341 -1.409756178E-03
   342  1.462206692E-02
   343 -6.959328385E-01
   344  4.843655597E-03
   345 -1.433953962E-06
   346  3.477818899E-03
   347 -6.633594940E+00
   348  3.309976086E-05
   349 -4.288541894E-04
   350  4.154575439E-03
   351 -9.771031106E-04
   352 -1.652773151E-04
   353 -1.062385462E-03
   354  3.288400791E-02
   355 -3.191093864E-05
   356 -3.709182413E-05
   357 -9.696103007E-04
   358  1.369963980E-03
   359 -1.689897490E-04
   360 -3.195987507E-04
   361 -8.571648041E-03
   362 -4.254610239E-05
   363 -3.572248644E-04
   364  1.310019852E-03
   365 -3.911144583E-04
   366  4.412056932E-04
   367  1.326612429E-03
   368  3.227856511E-03
Ene=    8.6904635377E-02
Spin= Alpha
Occup=   0.0000000
     1 -8.162564710E-03
     2 -1.275300805E-02
     3  6.903614477E-04
     4  9.920712322E-03
     5 -2.548441175E-03
     6  2.309767889E-02
     7  2.100578931E-03
     8  2.639417663E-02
     9 -7.459277144E-03
    10  3.186961696E-01
    11 -6.429699883E-03
    12 -9.166527241E-02
    13  2.732959569E-02
    14 -1.707905516E-03
    15 -1.404671910E-05
    16 -2.033427154E-03
    17 -3.741262764E-03
    18  5.700953974E-04
    19  6.418956978E+00
    20  4.115965987E-03
    21 -2.342242828E+00
    22  6.738549569E-01
    23  7.936442833E-03
    24  1.353330318E-02
    25  1.701055215E-03
    26 -1.022306980E-02
    27  7.300759251E-04
    28 -5.284800657E-02
    29  5.202081064E-03
    30 -1.126731558E-02
    31 -2.096543540E-03
    32 -2.412129699E-02
    33 -4.980324316E-02
    34 -1.032323175E-01
    35  7.221706612E-02
    36  3.603040161E-03
    37  2.897925476E-03
    38  2.388509695E-03
    39  6.606614158E-03
    40  8.725092700E-04
    41  8.640970362E+00
    42  2.662596228E-01
    43 -7.757095559E-01
    44 -1.886731353E-01
    45  7.681642935E-03
    46  1.307534454E-02
    47 -3.200039487E-03
    48 -8.963396885E-03
    49  1.970019324E-03
    50 -5.022186928E-02
    51 -7.516329997E-03
    52 -8.263762075E-03
    53  1.257234386E-03
    54 -3.511430380E-02
    55  5.292431603E-02
    56 -1.081015207E-01
    57  4.707415662E-02
    58  5.252395710E-03
    59 -1.175608817E-03
    60  3.720893013E-03
    61  4.665227343E-03
    62 -2.696010985E-03
    63  6.630663056E+00
    64 -1.622850930E-01
    65 -2.974204309E-01
    66 -9.995707819E-02
    67  1.396367321E-02
    68  2.333949867E-02
    69  6.543687876E-03
    70 -2.907895690E-03
    71 -5.719677122E-03
    72 -7.828721038E-02
    73  1.119052752E-02
    74 -4.329347860E-03
    75 -9.599425841E-03
    76 -2.861715783E-01
    77 -4.791599953E-02
    78  5.263310130E-02
    79  2.939903291E-02
    80  3.244710281E-04
    81 -6.600733613E-03
    82  1.712989693E-03
    83  1.529661904E-03
    84 -2.406024649E-03
    85 -3.190080289E+01
    86 -5.167913626E+00
    87  9.876852638E-01
    88  4.828383823E+00
    89  1.028329457E-02
    90  1.805973821E-02
    91 -5.277351589E-03
    92  1.189408448E-02
    93 -3.126969881E-02
    94 -8.865611908E-02
    95 -6.941385172E-03
    96  1.446625287E-02
    97 -4.261888996E-02
    98  2.904078960E-01
    99 -6.406113717E-02
   100  6.982702723E-02
   101 -2.983476706E-01
   102  1.699638097E-03
   103  3.616677841E-03
   104  7.360783270E-03
   105 -7.607959373E-03
   106  3.811577355E-03
   107  2.842875779E+01
   108 -8.008649253E-01
   109  2.268091825E+00
   110 -5.188980401E+00
   111  1.367419569E-02
   112  2.286257806E-02
   113 -8.690297048E-03
   114 -1.019311036E-03
   115 -2.014191367E-03
   116 -7.714637722E-02
   117 -1.378142360E-02
   118 -1.879261155E-03
   119 -3.344054807E-03
   120 -2.793602288E-01
   121  5.766879077E-02
   122  4.549714186E-02
   123  3.598892946E-03
   124 -3.922950706E-03
   125  3.585312694E-03
   126 -5.522099678E-04
   127  4.784240477E-03
   128  8.173058064E-04
   129 -3.013108448E+01
   130  6.421531301E+00
   131 -1.507638760E-01
   132  1.900992986E+00
   133  1.005146413E-02
   134  1.762519490E-02
   135  2.763371975E-02
   136  1.863925161E-02
   137  2.875506943E-03
   138 -8.565706598E-02
   139  3.826974248E-02
   140  2.299612008E-02
   141  3.658297549E-03
   142  2.690841360E-01
   143  2.637661808E-01
   144  1.388075488E-01
   145  5.490721467E-02
   146 -5.496962876E-03
   147  6.558265991E-03
   148 -5.364501527E-03
   149  1.553006301E-03
   150 -6.494764067E-03
   151  2.695092819E+01
   152  4.173615331E+00
   153  3.320508972E+00
   154  3.642537099E-01
   155  1.359375804E-02
   156  2.274740013E-02
   157  2.106080724E-03
   158  1.087334260E-03
   159  8.825188816E-03
   160 -7.769156914E-02
   161  3.664515825E-03
   162  1.607695962E-03
   163  1.381861124E-02
   164 -2.648217848E-01
   165 -1.036064372E-02
   166  3.377396659E-02
   167 -5.578923808E-02
   168  5.923784680E-03
   169  2.886312971E-03
   170  1.603653209E-03
   171 -1.420132261E-03
   172  8.098208236E-04
   173 -2.763154390E+01
   174 -1.428053568E+00
   175 -1.707140508E+00
   176 -5.795349895E+00
   177  9.937877172E-03
   178  1.739842860E-02
   179 -1.796314702E-02
   180  2.437299394E-02
   181  1.265696944E-02
   182 -8.378471166E-02
   183 -2.514900617E-02
   184  3.144336285E-02
   185  1.745484211E-02
   186  2.556664008E-01
   187 -1.753873591E-01
   188  1.892167619E-01
   189  1.454760019E-01
   190  1.275683252E-03
   191 -1.015987856E-02
   192 -5.088940757E-03
   193  6.450087573E-04
   194  3.504764760E-03
   195  2.648991081E+01
   196 -2.650352716E+00
   197  4.115926498E+00
   198  1.956689035E+00
   199  7.402028588E-03
   200  1.257573483E-02
   201  2.818391503E-04
   202 -8.052249466E-03
   203  4.643428057E-03
   204 -4.726936449E-02
   205  1.372009819E-03
   206 -6.910005787E-03
   207  8.272985896E-03
   208 -5.166437040E-02
   209 -2.088920466E-02
   210 -1.119106885E-01
   211 -3.312386567E-02
   212  2.608174583E-05
   213 -1.164500601E-03
   214  4.386821500E-03
   215  7.251344101E-03
   216 -1.058902240E-03
   217  6.265620969E+00
   218  6.804158048E-02
   219 -3.649303748E-03
   220  2.181479950E-01
   221 -6.612794534E-03
   222 -1.093861657E-02
   223 -6.106575082E-05
   224  1.429261693E-03
   225 -1.056040062E-04
   226  3.310127190E-02
   227 -8.134639506E-04
   228 -4.355195887E-03
   229  1.706506601E-03
   230  1.406741805E-01
   231  9.615776614E-03
   232  1.029315517E-01
   233 -2.938322662E-02
   234 -2.969324108E-03
   235 -4.035215142E-04
   236 -3.532348629E-03
   237 -5.928289251E-03
   238  8.762106314E-04
   239 -4.811677562E+00
   240  9.031381013E-02
   241  1.892692958E+00
   242 -4.729655426E-01
   243  2.720628537E-03
   244  3.964837686E-02
   245 -3.436983976E-01
   246 -6.188196921E-03
   247 -5.440831659E-03
   248 -2.268063212E-03
   249 -1.152282672E+00
   250  2.410042185E-03
   251  3.801223669E-02
   252 -3.425252981E-01
   253  3.103600523E-03
   254 -3.518899854E-03
   255  7.124105091E-03
   256 -1.112234463E+00
   257  2.370309415E-03
   258  3.548717117E-02
   259 -3.104518665E-01
   260 -8.585412323E-04
   261 -3.100936048E-03
   262  7.712777628E-03
   263 -1.154990266E+00
   264  2.836481544E-03
   265  3.925216095E-02
   266 -3.345665698E-01
   267  2.933549701E-03
   268 -6.583079117E-03
   269 -4.093291145E-03
   270 -1.300264789E+00
   271  6.045368500E-03
   272  3.608590644E-02
   273  7.055653886E-02
   274 -5.521326576E-03
   275  1.446829319E-03
   276  5.159159736E-03
   277 -1.040030967E+00
   278  1.147121456E-02
   279  9.306298575E-02
   280 -3.292074045E-01
   281  2.215131872E-03
   282  1.085354375E-02
   283  3.530771803E-03
   284 -1.098869287E+00
   285 -2.026603987E-04
   286  4.560398055E-02
   287 -3.486538319E-01
   288 -2.919039377E-03
   289 -1.113989592E-02
   290 -6.052927451E-03
   291 -3.518537761E-01
   292  6.081923037E-03
   293  3.573817912E-02
   294  7.224569525E-02
   295  7.193996676E-03
   296 -2.757586838E-04
   297  2.139388364E-03
   298 -7.940926000E-01
   299  1.170938542E-02
   300  9.282339847E-02
   301 -3.107880683E-01
   302 -5.427507926E-03
   303  9.131320602E-03
   304 -4.388129944E-03
   305 -1.189896831E+00
   306 -1.919676578E-04
   307  4.246499471E-02
   308 -3.193534740E-01
   309  8.227253126E-03
   310 -8.510841085E-03
   311  5.163934285E-03
   312 -3.833823042E-01
   313  5.918702581E-03
   314  3.818629186E-02
   315  3.264560613E-02
   316 -1.770494908E-03
   317 -2.193686324E-03
   318 -6.932899448E-03
   319 -5.991302520E-01
   320  1.176513744E-02
   321  9.242083349E-02
   322 -3.102908024E-01
   323  5.169880759E-03
   324  7.521511998E-03
   325 -6.570557114E-03
   326 -1.075279843E+00
   327 -5.622473385E-04
   328  4.231010962E-02
   329 -3.466700722E-01
   330 -7.191664625E-03
   331 -6.216572874E-03
   332  8.377414454E-03
   333 -4.628058011E-01
   334  2.760615735E-03
   335  3.763181972E-02
   336 -3.331798423E-01
   337  5.333959513E-03
   338 -6.065743877E-03
   339 -1.185087185E-03
   340 -1.255664545E+00
   341  2.467036048E-03
   342  3.676327350E-02
   343 -3.258506517E-01
   344 -6.808216592E-03
   345 -4.457210898E-03
   346  1.497454585E-03
   347 -1.178064316E+00
   348 -3.859626408E-03
   349 -4.896424439E-02
   350  1.938886890E-01
   351 -1.657654895E-03
   352  3.982910173E-03
   353  8.033391214E-04
   354  6.042282943E-01
   355 -4.110180509E-03
   356 -4.742722824E-02
   357  1.783312137E-01
   358 -5.032387085E-04
   359  2.543687494E-03
   360 -3.601374048E-03
   361  4.664277453E-01
   362 -3.917453372E-03
   363 -4.797823854E-02
   364  1.919687237E-01
   365  2.907062151E-03
   366  3.268427362E-03
   367 -5.538022246E-05
   368  4.774798218E-01
Ene=    8.8603977441E-02
Spin= Alpha
Occup=   0.0000000
     1  2.468584813E-02
     2  4.043966440E-02
     3  1.444864174E-04
     4  5.365119570E-03
     5 -1.212206804E-03
     6 -1.159678341E-01
     7  4.493122410E-04
     8  5.315051354E-03
     9 -1.285599803E-03
    10 -8.130371897E-01
    11  3.700716798E-03
    12  5.307132100E-02
    13 -9.334784892E-03
    14 -9.578657713E-04
    15  7.579993606E-05
    16 -9.899170955E-04
    17 -1.691880305E-03
    18  2.202306985E-04
    19 -5.806361118E+01
    20 -4.849320231E-02
    21 -1.316569975E+00
    22  6.796500126E-01
    23  6.591617065E-03
    24  1.140693603E-02
    25  1.604046704E-02
    26 -1.054615376E-02
    27 -1.378603696E-02
    28 -4.951380800E-02
    29  2.071880948E-02
    30 -2.104601584E-02
    31 -1.657322740E-02
    32  6.500983069E-02
    33  1.476441385E-01
    34  3.176391422E-02
    35 -1.520238316E-01
    36 -3.465718634E-03
    37  9.493576747E-03
    38  1.301784359E-03
    39 -5.946877543E-03
    40 -1.700683177E-03
    41  2.608838778E+01
    42  3.550311788E+00
    43 -1.669316021E+00
    44 -3.139989227E+00
    45  5.920776048E-03
    46  1.022269669E-02
    47 -2.108242586E-02
    48 -4.217054148E-03
    49 -5.631848428E-03
    50 -4.318310437E-02
    51 -2.825953184E-02
    52 -1.239681292E-02
    53 -5.159290666E-03
    54  3.787446388E-02
    55 -1.727093894E-01
    56  1.002376260E-01
    57 -8.656480764E-02
    58  2.734065143E-03
    59 -6.227163126E-03
    60  1.667544849E-03
    61 -7.333717049E-03
    62  5.868528232E-03
    63  2.350366693E+01
    64 -4.437844157E+00
    65  1.454338279E-01
    66 -1.577674188E+00
    67  1.210936897E-03
    68  2.451199581E-03
    69  1.358520017E-02
    70  1.283432851E-02
    71 -1.629603982E-02
    72 -2.046401343E-02
    73  1.786283817E-02
    74  2.478732292E-02
    75 -2.267646647E-02
    76  1.690288684E-01
    77  1.003641236E-01
    78  1.100408142E-03
    79 -1.041734944E-01
    80  4.547631460E-03
    81 -6.865555769E-03
    82 -4.597293726E-03
    83  5.817940722E-03
    84  5.845942205E-03
    85 -1.420080532E+01
    86 -1.418893186E+00
    87 -9.812082567E-01
    88  1.569159098E+00
    89  6.391826394E-03
    90  1.098756285E-02
    91  6.365878834E-04
    92  2.758541239E-03
    93  2.205221361E-03
    94 -4.383668375E-02
    95  2.669467193E-03
    96  1.409383167E-02
    97 -1.541081476E-04
    98  1.182413352E-02
    99 -8.401802971E-03
   100 -7.836562314E-02
   101  9.071822523E-02
   102  2.751147265E-04
   103 -6.915146141E-05
   104 -8.739556881E-03
   105 -4.322028444E-03
   106 -8.555244203E-04
   107  6.336663341E+00
   108 -2.795631783E-01
   109 -1.447794209E+00
   110 -3.110528922E-02
   111  6.378935843E-04
   112  1.523459414E-03
   113 -1.512147058E-02
   114  1.615611222E-02
   115 -9.496901082E-03
   116 -1.862667879E-02
   117 -1.670373810E-02
   118  2.785893513E-02
   119 -1.368143282E-02
   120  1.879535639E-01
   121 -1.535685934E-01
   122  4.354739509E-02
   123 -6.270120245E-02
   124 -6.089323481E-05
   125  4.831131270E-03
   126 -2.560856471E-03
   127  3.675132442E-03
   128 -1.000389573E-02
   129 -9.964224889E+00
   130  7.934364260E-01
   131 -6.636150888E-01
   132  3.399104089E-01
   133  6.619435978E-03
   134  1.140774012E-02
   135 -2.290964663E-03
   136  2.261760698E-03
   137 -1.306491052E-03
   138 -4.668586541E-02
   139 -2.500488911E-03
   140  1.392831519E-02
   141 -5.307852013E-03
   142  2.995091200E-02
   143 -6.165975938E-02
   144 -9.324117884E-02
   145  1.575153087E-02
   146 -4.039423121E-03
   147 -1.695319108E-03
   148 -1.560946536E-03
   149 -5.269208834E-03
   150  7.093271203E-03
   151  6.969053723E+00
   152  5.163522066E-01
   153 -1.393998335E+00
   154  5.626544065E-01
   155  8.858272803E-04
   156  1.914877016E-03
   157  5.179616645E-03
   158  2.078294979E-02
   159  1.144855731E-02
   160 -1.901284747E-02
   161  7.102705606E-03
   162  3.380608861E-02
   163  1.073438104E-02
   164  1.738285537E-01
   165  3.996299053E-02
   166  7.782265944E-02
   167  1.331028148E-01
   168 -4.942522809E-04
   169  1.991416277E-03
   170  1.158409071E-02
   171 -1.945997080E-03
   172  3.042450227E-03
   173 -1.269823209E+01
   174 -3.298061288E-01
   175 -1.375549035E+00
   176 -1.004818709E+00
   177  6.289883561E-03
   178  1.077161219E-02
   179  2.422181322E-03
   180  2.777500773E-04
   181 -2.642903196E-03
   182 -4.173157432E-02
   183  5.053182955E-03
   184  1.169512254E-02
   185 -6.756415998E-03
   186 -7.047893117E-03
   187  3.307274980E-02
   188 -1.321744047E-01
   189 -2.000152435E-02
   190 -4.740559282E-03
   191  1.205007463E-03
   192  5.033376971E-04
   193 -7.203743355E-03
   194 -3.667560330E-03
   195  5.336722298E+00
   196 -5.263817398E-01
   197 -1.691010473E+00
   198  7.460253128E-01
   199  6.039736821E-03
   200  1.047673241E-02
   201  5.323355068E-03
   202  1.180322509E-03
   203  2.196228000E-02
   204 -4.567094180E-02
   205  6.060194851E-03
   206 -5.405546027E-03
   207  3.102716814E-02
   208  5.899243411E-02
   209  5.603206678E-02
   210  1.402522310E-01
   211  1.571304133E-01
   212 -4.922367477E-03
   213 -3.938555339E-03
   214 -9.544616948E-03
   215  1.320491884E-03
   216 -2.560190154E-03
   217  2.594098710E+01
   218  1.363703988E+00
   219  1.078773756E+00
   220  4.772188036E+00
   221  1.680354318E-02
   222  2.781062430E-02
   223 -3.496405423E-03
   224 -4.149924729E-02
   225  1.231538892E-02
   226 -9.341976081E-02
   227 -4.648401872E-03
   228 -5.225560794E-02
   229  1.582011607E-02
   230 -1.314384576E-01
   231 -2.058663458E-02
   232 -3.014155028E-01
   233  8.510520417E-02
   234  5.551183977E-03
   235  2.376444958E-04
   236  6.230076982E-03
   237  1.098956906E-02
   238 -1.507533386E-03
   239  1.483837900E+01
   240 -3.835822034E-01
   241 -3.910569445E+00
   242  1.117106705E+00
   243  2.260766202E-03
   244  5.392322394E-02
   245 -5.161553997E-01
   246 -1.501994410E-03
   247  3.677675056E-03
   248 -7.682270248E-03
   249 -1.401744061E+00
   250  2.526272996E-03
   251  5.530983496E-02
   252 -5.175959005E-01
   253  6.634795234E-03
   254  5.590440607E-03
   255  7.313840322E-04
   256 -1.350514420E+00
   257  2.249662425E-03
   258  5.135724185E-02
   259 -4.895545865E-01
   260 -4.382996391E-03
   261  6.828874531E-03
   262  2.593397183E-03
   263 -1.362184761E+00
   264  2.607696907E-03
   265  5.362990249E-02
   266 -5.160545667E-01
   267 -1.345997697E-03
   268  3.779307105E-03
   269 -7.345935542E-03
   270 -1.666791292E+00
   271  1.090381804E-02
   272  2.704393684E-02
   273  2.704765716E-01
   274 -4.590536388E-03
   275 -5.966177297E-03
   276  5.835991972E-03
   277  1.718306730E+00
   278 -9.896524269E-03
   279 -5.414671408E-03
   280 -2.234665159E-01
   281  5.092709261E-05
   282  6.080424299E-04
   283  3.308955337E-04
   284 -2.435255743E-01
   285  7.833062454E-03
   286  3.879411172E-02
   287 -3.239396636E-01
   288  2.913916176E-04
   289 -2.459899714E-03
   290  3.568359400E-03
   291 -2.747942053E+00
   292  1.087703463E-02
   293  2.862823900E-02
   294  2.538487615E-01
   295  4.534241343E-03
   296 -7.161732874E-03
   297  3.503252658E-03
   298  2.273512728E+00
   299 -9.894613229E-03
   300 -6.651719737E-03
   301 -1.985437328E-01
   302 -6.354310228E-04
   303  6.623941004E-04
   304 -2.736746319E-04
   305 -1.195970400E-01
   306  7.982888532E-03
   307  4.047058875E-02
   308 -3.292205040E-01
   309 -2.962526469E-03
   310 -3.430295449E-03
   311  2.629447432E-04
   312 -2.896119194E+00
   313  1.102568698E-02
   314  2.653074430E-02
   315  2.845198337E-01
   316 -1.771889869E-03
   317 -8.725031273E-03
   318 -3.021819558E-03
   319  2.059069040E+00
   320 -9.644499791E-03
   321 -7.372774651E-03
   322 -1.808863547E-01
   323  2.863443984E-04
   324  2.345088249E-04
   325 -3.175063596E-04
   326  6.630615603E-02
   327  7.332412704E-03
   328  3.813943611E-02
   329 -3.622907030E-01
   330  1.790031120E-03
   331 -3.599723141E-03
   332 -1.096854047E-03
   333 -3.143060492E+00
   334  2.628037582E-03
   335  5.636782287E-02
   336 -5.443744180E-01
   337  6.424778868E-03
   338  5.444093465E-03
   339  2.533202756E-04
   340 -1.589851594E+00
   341  2.003980014E-03
   342  5.258910431E-02
   343 -5.193550976E-01
   344 -4.283964179E-03
   345  6.839342808E-03
   346  2.748373935E-03
   347 -1.346988022E+00
   348  6.647780521E-03
   349  5.415526195E-02
   350  1.276914583E-01
   351  7.426538917E-03
   352 -7.412567091E-03
   353 -5.803825296E-03
   354  3.404740014E-01
   355  6.576630443E-03
   356  5.535084843E-02
   357  1.173638521E-01
   358  2.103375862E-03
   359 -2.461079644E-03
   360  1.150745452E-02
   361  1.175902377E-01
   362  6.367398449E-03
   363  5.680535787E-02
   364  1.075138416E-01
   365 -1.052147830E-02
   366 -5.158303960E-03
   367 -1.573609285E-03
   368  9.609625510E-02
Ene=    9.2567880356E-02
Spin= Alpha
Occup=   0.0000000
     1 -5.472388950E-04
     2 -9.148013452E-04
     3 -9.753132942E-03
     4  1.700465358E-03
     5  4.279399750E-03
     6  3.160940694E-03
     7 -7.734996631E-03
     8  1.308846412E-03
     9  3.560355422E-03
    10  9.648812247E-03
    11 -1.839340129E-01
    12  3.248527835E-02
    13  8.142391148E-02
    14 -1.399748924E-04
    15 -1.141555933E-03
    16  1.431749276E-03
    17 -9.670885344E-04
    18 -3.286900490E-03
    19  9.445932865E-01
    20 -1.199863684E+01
    21  2.038333950E+00
    22  5.451055930E+00
    23  1.007626102E-02
    24  1.642168838E-02
    25  2.013470107E-02
    26 -1.121068488E-02
    27 -2.186602446E-03
    28 -5.249840816E-02
    29  3.138385845E-02
    30 -1.895283114E-02
    31 -6.692312685E-03
    32 -1.097783684E-01
    33  2.171747073E-02
    34 -9.100314642E-02
    35  6.883779303E-02
    36 -3.262615106E-04
    37  2.094148731E-03
    38  9.685140301E-04
    39 -4.639731331E-04
    40 -9.100380124E-04
    41 -1.697273754E+01
    42 -2.553374128E+00
    43 -2.796760998E+00
    44  6.073156623E+00
    45 -8.490118025E-03
    46 -1.389111018E-02
    47  2.201583961E-02
    48  1.149822374E-03
    49 -1.793290606E-02
    50  4.559158219E-02
    51  3.449191320E-02
    52  3.693235565E-03
    53 -2.266275139E-02
    54  7.616105354E-02
    55  4.068582721E-02
    56  5.564301824E-02
    57 -1.216325161E-01
    58 -1.114215670E-03
    59  1.458412551E-03
    60 -6.337600990E-04
    61  5.621534082E-04
    62 -1.667650024E-03
    63  1.218359267E+01
    64 -2.115606090E+00
    65  2.097236853E+00
    66 -6.101727443E+00
    67  6.591418542E-04
    68  1.171312656E-03
    69 -3.217551992E-03
    70  1.078098762E-02
    71  1.533145421E-03
    72 -4.349608502E-03
    73  2.161304708E-03
    74  1.728454762E-02
    75 -4.219574660E-03
    76  3.717574717E-02
    77 -6.452799856E-02
    78  3.147224712E-02
    79  1.093971510E-01
    80  1.833763140E-03
    81 -9.792687320E-05
    82 -5.233808357E-04
    83  2.367565160E-03
    84  2.048682727E-03
    85 -5.770550931E+00
    86 -1.014912864E+00
    87 -3.985452075E+00
    88  2.751383309E+00
    89 -1.640089822E-04
    90 -2.168328094E-04
    91  2.966168921E-03
    92  4.272995605E-03
    93 -9.517701563E-04
    94 -1.073991564E-03
    95  6.882538404E-03
    96  1.361102245E-03
    97 -1.922544633E-03
    98  2.396874686E-02
    99 -1.945298687E-02
   100  6.312919718E-02
   101 -1.078145209E-02
   102  7.631276944E-05
   103 -1.773653930E-03
   104  6.757114963E-05
   105 -1.229389877E-03
   106 -1.397795379E-03
   107  8.038334087E-01
   108  1.313076691E+00
   109  1.664096200E+00
   110  4.209394099E-04
   111 -9.961974927E-04
   112 -1.724225713E-03
   113 -3.806015257E-03
   114 -8.584882337E-03
   115  2.912832834E-04
   116  6.160831716E-03
   117  1.426193931E-03
   118 -1.572064027E-02
   119  2.666103768E-03
   120 -2.175789831E-02
   121 -7.138106165E-02
   122 -1.701349197E-02
   123 -9.562901596E-02
   124 -1.117522705E-03
   125 -9.051004560E-04
   126 -7.237817647E-04
   127 -9.148281883E-04
   128  2.832623497E-03
   129  5.276685711E+00
   130 -8.516106432E-01
   131  3.167280403E+00
   132 -2.492294908E+00
   133  2.059012290E-04
   134  6.277429443E-04
   135  7.191767215E-05
   136  1.753590201E-02
   137 -7.250418035E-03
   138 -1.118343160E-02
   139  3.176184253E-03
   140  9.887053949E-03
   141 -7.066814984E-03
   142  1.118698889E-01
   143  2.205148107E-02
   144  2.438342263E-01
   145 -5.291124674E-02
   146 -1.826399316E-03
   147 -1.828210381E-03
   148 -8.753644288E-04
   149 -3.306259588E-03
   150  2.690118335E-04
   151  5.422413530E+00
   152 -1.549010006E+00
   153  5.994568030E+00
   154 -3.088012931E+00
   155 -1.932662936E-04
   156 -3.502106917E-04
   157  1.627886027E-03
   158 -2.352546563E-03
   159  1.032226910E-03
   160  1.636847630E-03
   161  3.147535337E-03
   162 -4.602642470E-03
   163  1.545780603E-04
   164 -8.301661148E-03
   165  1.109134149E-01
   166 -1.044407254E-02
   167 -7.825106118E-03
   168  4.276496628E-04
   169 -6.517142978E-04
   170 -9.753482153E-04
   171 -1.818893308E-04
   172  5.970076364E-04
   173  9.345591293E-01
   174  1.867003586E+00
   175  6.728960015E-01
   176 -4.400916165E-01
   177 -7.620503762E-04
   178 -1.613408678E-03
   179 -2.716372048E-03
   180 -2.249128201E-02
   181  8.442437380E-03
   182  1.631691165E-02
   183  1.530734335E-03
   184 -1.458736214E-02
   185  4.813595914E-03
   186 -1.247874439E-01
   187 -2.561289034E-02
   188 -3.066940456E-01
   189  7.409356295E-02
   190  2.805958371E-03
   191 -1.114696876E-03
   192  1.942695562E-03
   193  3.857377827E-03
   194 -6.377724222E-04
   195 -6.818551179E+00
   196 -2.467754520E+00
   197 -7.008979272E+00
   198  4.371462517E+00
   199 -2.342172645E-03
   200 -3.831783214E-03
   201  3.114870305E-02
   202 -3.613707381E-03
   203 -1.179373231E-02
   204  1.243971565E-02
   205  4.089230819E-02
   206 -4.506312477E-03
   207 -1.706164978E-02
   208  2.326132543E-02
   209  1.535420789E-01
   210 -1.438780285E-03
   211 -4.199597414E-02
   212  2.164743922E-04
   213  3.912688335E-04
   214  7.162400663E-04
   215 -5.039685454E-04
   216 -2.777257166E-04
   217  3.199226476E+00
   218  6.612077149E+00
   219  2.506361013E-01
   220 -7.237081843E-01
   221 -3.219670060E-04
   222 -5.191678304E-04
   223 -1.735323260E-02
   224  4.434173677E-03
   225  7.314206279E-03
   226  1.333428401E-03
   227 -3.167601372E-02
   228  7.593324118E-03
   229  1.336686139E-02
   230  9.148266001E-03
   231  2.173898464E-02
   232 -1.383732901E-03
   233 -9.954214108E-03
   234  2.122655422E-03
   235 -6.015871925E-03
   236 -2.249147048E-03
   237  8.958573744E-04
   238  5.766187950E-03
   239  3.960945221E-01
   240 -1.517602480E+00
   241  1.997715574E-01
   242  6.867451841E-01
   243 -4.746000648E-04
   244 -1.921149090E-02
   245  5.967020881E-01
   246 -7.360463893E-03
   247  1.061615233E-03
   248 -4.424850707E-03
   249  4.028650360E+00
   250  2.534703748E-03
   251 -8.473355699E-03
   252  3.481954072E-01
   253  2.266270705E-03
   254  1.785056460E-03
   255  4.441123884E-03
   256 -1.820666412E-01
   257 -3.851998447E-03
   258 -2.572179238E-03
   259 -8.999585148E-02
   260  1.743920956E-04
   261 -7.553392143E-04
   262 -2.414659667E-03
   263  2.931297282E+00
   264  1.807456878E-03
   265  1.742981690E-02
   266 -6.128920196E-01
   267 -5.129960534E-03
   268  3.375843569E-04
   269  7.939522123E-03
   270 -5.868970882E+00
   271  2.149126166E-04
   272  3.005253758E-03
   273 -1.798385613E-01
   274 -3.381293278E-07
   275  2.103360766E-03
   276 -4.996069120E-05
   277 -3.678224018E+00
   278 -3.971894652E-04
   279  5.499803473E-03
   280 -1.522753267E-01
   281 -1.987082457E-03
   282  5.759280346E-04
   283 -2.447875119E-04
   284 -1.739792430E+00
   285  1.462763494E-03
   286 -1.978966905E-03
   287  1.862641960E-01
   288 -2.537930907E-03
   289 -5.863394041E-04
   290  8.103763131E-04
   291  1.997704298E+00
   292 -5.913282340E-04
   293 -6.605887636E-03
   294  1.521859052E-01
   295 -7.005596788E-04
   296 -1.463032931E-03
   297 -2.987533172E-04
   298  2.924652191E+00
   299 -1.896589515E-03
   300  2.117187240E-02
   301 -6.034241644E-01
   302  1.393358444E-03
   303  2.605929192E-03
   304  9.587000783E-04
   305 -6.523122916E+00
   306  6.464548085E-03
   307  1.752530571E-03
   308  6.571201717E-01
   309 -7.616448802E-04
   310 -3.677445363E-03
   311  2.708318397E-03
   312  7.411939249E+00
   313 -4.240015468E-04
   314 -2.838195910E-03
   315  3.454374055E-02
   316  7.520378216E-04
   317 -3.581361519E-04
   318  1.406267288E-04
   319  6.303371926E-01
   320  2.530452391E-03
   321 -2.682275069E-02
   322  7.752750547E-01
   323  7.159142348E-04
   324 -3.533566454E-03
   325 -9.217484344E-04
   326  8.321702104E+00
   327 -8.555842114E-03
   328 -5.910303897E-03
   329 -8.149265248E-01
   330 -1.837430180E-04
   331  5.173154374E-03
   332 -2.157842763E-03
   333 -9.232685508E+00
   334  4.023784102E-03
   335  1.615850254E-02
   336 -4.671591813E-01
   337 -5.794193612E-03
   338 -6.114699304E-04
   339  3.643596729E-03
   340 -6.863051113E+00
   341 -4.678331261E-03
   342 -1.410283044E-02
   343  3.006792267E-01
   344 -3.262734727E-03
   345  1.271396987E-03
   346 -8.440159731E-04
   347  6.136103443E+00
   348  4.802047214E-03
   349 -2.473984598E-02
   350  3.135755298E-01
   351  2.806123130E-03
   352  7.491440747E-03
   353 -4.615495839E-03
   354  6.128422461E+00
   355 -1.248389944E-03
   356  4.505693616E-03
   357 -7.692655598E-02
   358 -9.624687384E-04
   359 -1.729714487E-03
   360 -2.975420665E-04
   361 -1.276583482E+00
   362 -4.023539375E-03
   363  1.801444095E-02
   364 -2.573292618E-01
   365  2.222948063E-03
   366 -6.192349426E-03
   367  3.037807425E-03
   368 -4.836056471E+00
Ene=    9.2623509923E-02
Spin= Alpha
Occup=   0.0000000
     1  1.217948206E-04
     2  2.015581259E-04
     3 -4.523283031E-03
     4 -2.134196744E-03
     5 -9.483447731E-03
     6 -6.641456553E-04
     7 -3.556969969E-03
     8 -1.448609320E-03
     9 -7.493983411E-03
    10 -4.972837750E-03
    11 -8.543609417E-02
    12 -4.429066804E-02
    13 -1.740983557E-01
    14  2.949958029E-03
    15  6.509551571E-04
    16 -2.074968107E-03
    17 -4.670221463E-04
    18 -1.070239220E-03
    19 -3.499798972E-01
    20 -5.567142112E+00
    21 -3.056319996E+00
    22 -1.131406360E+01
    23 -3.456344163E-03
    24 -5.665529044E-03
    25  1.768731779E-02
    26  9.375756919E-03
    27  2.590192686E-02
    28  1.910443302E-02
    29  2.181428613E-02
    30  1.384707852E-02
    31  3.559768461E-02
    32  2.294570453E-02
    33  1.068655046E-01
    34  6.401192165E-02
    35  9.636353750E-02
    36  4.958522620E-04
    37 -6.439764445E-04
    38 -6.205592397E-04
    39  1.641391102E-04
    40  6.291542529E-06
    41  4.721201845E+00
    42  5.555277301E+00
    43  2.211086874E+00
    44  2.933876888E+00
    45 -7.119491392E-03
    46 -1.163460560E-02
    47  6.307948684E-03
    48  1.334043460E-02
    49  2.512570581E-02
    50  3.802184885E-02
    51  1.311917629E-02
    52  1.950496035E-02
    53  3.380987358E-02
    54  6.564360576E-02
    55 -2.711996021E-02
    56  1.085876395E-01
    57  8.959680874E-02
    58 -4.436539628E-04
    59  1.080492940E-03
    60 -1.004399737E-03
    61  4.875063876E-04
    62 -1.069884865E-03
    63  1.064428979E+01
    64 -4.342956523E+00
    65  4.518034099E+00
    66  2.769176802E+00
    67 -2.777841873E-04
    68 -4.770708180E-04
    69  2.241174083E-03
    70 -3.428007500E-03
    71  6.041020740E-04
    72  1.302153347E-03
    73  2.081386847E-03
    74 -5.501806044E-03
    75  4.390072436E-03
    76 -6.607586468E-03
    77  1.024879197E-01
    78  1.192936209E-02
    79  3.973884923E-02
    80 -5.013059278E-04
    81 -9.081082352E-05
    82  8.899229804E-04
    83 -1.274052742E-03
    84 -6.397031647E-05
    85  2.747772659E+00
    86  1.754873507E+00
    87  1.727048116E+00
    88  3.052820899E-01
    89 -5.325613719E-04
    90 -1.263444127E-03
    91 -1.790712662E-03
    92 -2.434081794E-02
    93  4.565055063E-03
    94  1.622386004E-02
    95  4.965448842E-04
    96 -1.478567401E-02
    97  5.262253895E-03
    98 -1.428427332E-01
    99 -2.481878923E-02
   100 -3.122810390E-01
   101  9.978950320E-02
   102  2.719421683E-03
   103  3.960240128E-04
   104  3.286362765E-03
   105  3.208402096E-03
   106 -4.753238860E-04
   107 -6.627345348E+00
   108 -1.045343341E+00
   109 -8.746091040E+00
   110 -6.976759424E-01
   111 -6.388751518E-04
   112 -1.108152898E-03
   113 -4.500040731E-03
   114 -6.445503978E-03
   115  1.669520767E-03
   116  3.733644351E-03
   117 -1.114724806E-03
   118 -1.165213941E-02
   119  6.181349758E-03
   120 -1.953086039E-02
   121 -1.051554851E-01
   122  2.796968580E-02
   123  4.608835279E-02
   124 -1.220424801E-03
   125  7.672442264E-05
   126  2.844704194E-04
   127 -1.153375069E-03
   128  2.129404567E-03
   129  4.490872749E+00
   130 -1.243072388E+00
   131  3.551510564E+00
   132 -1.326705281E-01
   133  5.674947068E-04
   134  1.201928102E-03
   135 -4.160542871E-04
   136  1.673289620E-02
   137 -3.358981241E-03
   138 -1.214625137E-02
   139  5.075624247E-04
   140  1.216710829E-02
   141  2.538524925E-03
   142  9.530507890E-02
   143  3.276057821E-02
   144  2.026623476E-01
   145 -8.310055156E-02
   146  1.248387213E-04
   147  5.667729371E-04
   148 -1.882298567E-03
   149 -3.324050540E-03
   150  1.467822190E-03
   151  4.977288550E+00
   152 -1.710279622E+00
   153  5.562813275E+00
   154 -1.453960878E+00
   155  1.298139923E-03
   156  2.237033375E-03
   157 -1.643307019E-04
   158  9.090056653E-03
   159 -7.729306541E-03
   160 -7.696511913E-03
   161  2.580932427E-03
   162  2.007479792E-02
   163 -3.714848325E-03
   164  2.667922226E-02
   165 -1.172055251E-02
   166 -4.689558566E-02
   167 -1.249145633E-01
   168 -7.100841015E-04
   169 -2.052310487E-04
   170  3.910328424E-03
   171  1.305802573E-03
   172  6.478759907E-04
   173 -8.174854709E+00
   174 -5.141245374E-01
   175 -5.414857281E+00
   176 -7.182902543E-01
   177  4.311730303E-04
   178  8.587572372E-04
   179  2.418990122E-03
   180  8.304221130E-03
   181 -8.982336359E-04
   182 -7.366594488E-03
   183  4.578479888E-03
   184  6.653981095E-03
   185  3.936605626E-03
   186  5.269250288E-02
   187 -2.014446825E-02
   188  1.014205840E-01
   189 -4.693404359E-02
   190  1.260295654E-03
   191  2.797256449E-04
   192 -7.518241169E-04
   193 -2.555862968E-03
   194 -4.741594873E-04
   195  2.561642125E+00
   196  1.490401426E+00
   197  2.509197008E+00
   198 -7.025735567E-01
   199  1.085758696E-02
   200  1.775782391E-02
   201  1.053610985E-02
   202 -5.224759100E-03
   203  2.026623947E-02
   204 -5.827397554E-02
   205  1.543454575E-02
   206 -7.868242127E-03
   207  3.430814381E-02
   208 -9.919768708E-02
   209  2.274971635E-02
   210 -1.181372585E-01
   211  2.781635579E-02
   212 -4.839976353E-04
   213 -8.548595529E-04
   214 -2.276296138E-03
   215  1.470023210E-03
   216 -1.072299579E-03
   217 -1.501706131E+01
   218 -2.311913492E-01
   219 -6.043706956E+00
   220 -3.440815482E+00
   221  1.526713337E-04
   222  2.539096588E-04
   223 -8.209069435E-03
   224 -4.658330114E-03
   225 -1.696963471E-02
   226 -8.865915823E-04
   227 -1.504538006E-02
   228 -8.324567924E-03
   229 -3.110682761E-02
   230 -2.221556035E-04
   231  1.077128310E-02
   232  3.010889215E-03
   233  2.317713224E-02
   234 -4.388602011E-05
   235  6.891291470E-04
   236  7.192007781E-03
   237 -3.526376958E-03
   238  3.933751477E-03
   239  3.146142310E-01
   240 -7.229983031E-01
   241 -4.333656864E-01
   242 -1.499926349E+00
   243 -4.678065225E-03
   244 -1.084663754E-02
   245  2.185361853E-01
   246 -1.987511480E-03
   247  8.383082220E-04
   248 -1.425230739E-03
   249  5.542764272E+00
   250  4.041746959E-03
   251  1.865733566E-02
   252 -5.150849972E-01
   253 -3.240548079E-03
   254 -3.431578700E-03
   255 -5.802817034E-03
   256 -6.929800202E+00
   257  2.722595308E-03
   258  2.046797087E-02
   259 -6.093247360E-01
   260 -3.977856467E-04
   261 -4.300515726E-03
   262 -7.837541609E-03
   263 -6.334500184E+00
   264 -4.219421868E-03
   265 -4.316344722E-03
   266 -1.643608687E-02
   267 -6.397621411E-04
   268  5.715036911E-04
   269  8.270813964E-04
   270  3.603481776E+00
   271 -5.451022765E-05
   272 -6.486532803E-05
   273  4.950153467E-02
   274  6.044348400E-04
   275 -5.983448232E-04
   276  6.213439417E-04
   277  1.309717369E+00
   278  2.559288234E-03
   279 -2.561181935E-02
   280  7.669291778E-01
   281 -7.760606460E-05
   282 -2.511573293E-03
   283  2.851323351E-03
   284  8.529354768E+00
   285 -8.728786231E-03
   286 -4.794615687E-03
   287 -8.621269737E-01
   288 -5.995835120E-05
   289  5.532630209E-03
   290 -1.419275486E-03
   291 -9.505984056E+00
   292 -1.417308642E-04
   293 -3.014391496E-03
   294  1.269550735E-01
   295 -6.467743032E-04
   296 -1.119887860E-03
   297  8.196692137E-04
   298  2.599444054E+00
   299 -1.661228544E-03
   300  1.912647648E-02
   301 -5.242730643E-01
   302  1.849875035E-03
   303  1.727189157E-03
   304 -1.600046300E-03
   305 -5.739378029E+00
   306  5.955547811E-03
   307  3.823835911E-03
   308  5.712311980E-01
   309  3.646482755E-04
   310 -4.397270678E-03
   311 -7.799120592E-04
   312  6.372727694E+00
   313  6.574854160E-04
   314  5.083716756E-03
   315 -1.753098013E-01
   316  8.015050747E-05
   317  1.444854659E-03
   318 -1.441754453E-03
   319 -3.954569103E+00
   320 -8.010109943E-04
   321  9.135213163E-03
   322 -2.477626612E-01
   323 -1.628524298E-03
   324  9.362429479E-04
   325 -1.304938529E-03
   326 -2.780197694E+00
   327  2.982830315E-03
   328  2.305315434E-03
   329  2.815237348E-01
   330 -1.980570220E-03
   331 -2.328503248E-03
   332 -1.224985921E-03
   333  3.053540860E+00
   334  2.036592309E-03
   335 -7.268044797E-03
   336  3.688291211E-01
   337  5.620043869E-03
   338 -3.511771138E-04
   339 -3.426865985E-03
   340  6.933278244E-01
   341  3.481667253E-04
   342 -1.348872306E-02
   343  5.245736813E-01
   344 -8.336639832E-03
   345  2.024305499E-03
   346 -1.137873481E-03
   347  3.296119357E+00
   348 -1.702400196E-03
   349  8.663104162E-03
   350 -1.077249085E-01
   351 -1.476071140E-03
   352 -2.559777549E-03
   353  1.066570151E-03
   354 -2.075484840E+00
   355  5.070199301E-03
   356 -2.513279850E-02
   357  3.324336570E-01
   358  1.403048858E-03
   359  9.382727865E-03
   360  1.109064419E-03
   361  6.337220469E+00
   362 -3.400591164E-03
   363  1.713094730E-02
   364 -2.181327946E-01
   365  1.970906397E-03
   366 -5.792271645E-03
   367  1.793116175E-03
   368 -4.259566122E+00
Ene=    1.0414282376E-01
Spin= Alpha
Occup=   0.0000000
     1 -1.794915480E-04
     2 -3.274651195E-04
     3  1.668089238E-03
     4  1.103040582E-03
     5  7.596048710E-03
     6  1.482811808E-03
     7  1.737071960E-03
     8  1.462599861E-03
     9  3.928833520E-03
    10 -1.445331275E-02
    11 -5.551309079E-03
    12 -6.049497107E-02
    13 -5.472582019E-02
    14  9.207408068E-03
    15  5.376767817E-03
    16 -6.838794954E-04
    17 -3.743205029E-03
    18  1.717457715E-03
    19  7.761984247E-01
    20 -3.470111513E-01
    21 -4.819220198E+00
    22 -4.463750603E+00
    23  3.909271738E-03
    24  7.017613628E-03
    25  1.339038445E-02
    26 -1.334321470E-02
    27  1.070947177E-02
    28 -4.041346919E-02
    29  2.028380913E-02
    30 -1.388179883E-02
    31  1.485388946E-02
    32  1.883237585E-01
    33  1.607944793E-01
    34 -2.076523758E-01
    35  1.110147718E-01
    36 -6.002617810E-03
    37  1.900556615E-03
    38 -3.335185476E-03
    39  8.908668900E-03
    40 -6.195609951E-03
    41  1.804025436E+01
    42  3.532904160E+00
    43 -2.071307780E+00
    44 -1.126635747E+00
    45  2.711338899E-03
    46  4.819497629E-03
    47 -7.403530401E-03
    48 -4.498772407E-03
    49  1.623487873E-02
    50 -2.639769275E-02
    51 -1.051072063E-02
    52 -1.807774103E-03
    53  2.266345128E-02
    54  1.067463680E-01
    55 -1.056035029E-01
    56 -8.923842260E-02
    57  1.861862899E-01
    58 -2.154645108E-03
    59 -1.077648543E-02
    60 -4.559034634E-03
    61  7.526983970E-03
    62 -8.437741023E-04
    63  8.818737772E+00
    64 -2.392197403E+00
    65  6.380374551E-02
    66  1.125014124E+00
    67  1.437421033E-02
    68  2.362505265E-02
    69  9.872882176E-03
    70  6.072187286E-03
    71 -3.082650316E-03
    72 -6.831811142E-02
    73  2.731177051E-02
    74  1.077403083E-02
    75 -1.974365855E-02
    76 -2.820331555E-01
    77 -2.239650995E-01
    78 -3.799057094E-02
    79  1.034932586E-01
    80 -6.760644478E-03
    81 -1.565514280E-03
    82  2.452540572E-03
    83  4.949141950E-03
    84  5.216604083E-03
    85 -3.097810442E+01
    86 -9.478951131E+00
    87 -1.076354651E-01
    88  6.306764843E+00
    89  3.577886173E-03
    90  7.049141976E-03
    91 -7.389052136E-03
    92  1.040591573E-02
    93 -3.425967249E-02
    94 -6.089159620E-02
    95 -7.486396490E-03
    96  2.443846462E-02
    97 -4.983753116E-02
    98  5.654052604E-01
    99 -9.674082174E-02
   100  1.359057769E-01
   101 -3.398205010E-01
   102  2.247046663E-03
   103  1.475278061E-03
   104 -5.003942227E-03
   105 -1.085098683E-02
   106  2.173699357E-03
   107  3.004138038E+01
   108 -2.198829597E+00
   109 -1.240282115E+00
   110 -7.847745555E+00
   111  9.860335242E-03
   112  1.621274429E-02
   113 -6.594557457E-03
   114  6.621738703E-03
   115  3.249545044E-03
   116 -4.704388775E-02
   117 -2.137592122E-02
   118  1.261986268E-02
   119 -2.691097827E-03
   120 -1.882116349E-01
   121  1.688590767E-01
   122 -6.216490334E-02
   123 -2.184931654E-02
   124 -6.599445456E-03
   125 -4.669249485E-03
   126  5.858455105E-03
   127  1.067818068E-03
   128 -5.217315745E-03
   129 -2.064138685E+01
   130  7.969786074E+00
   131 -1.641895846E+00
   132  2.141752074E-01
   133 -6.277407957E-04
   134 -1.434845397E-03
   135 -1.663085898E-02
   136 -2.591964643E-03
   137  1.061770428E-02
   138  1.868675081E-02
   139 -1.913004004E-02
   140 -9.837888200E-03
   141  3.667531641E-03
   142 -2.169998194E-01
   143 -2.079783238E-01
   144 -1.497552196E-02
   145  2.822589276E-01
   146  9.302796203E-04
   147 -9.286042014E-03
   148 -2.151113942E-03
   149  6.231250905E-03
   150 -1.671632720E-03
   151 -1.058492555E+01
   152 -3.911838792E+00
   153  4.732548086E-01
   154  2.307981475E+00
   155 -2.465076546E-02
   156 -4.038511644E-02
   157 -3.938627732E-03
   158 -1.220333550E-02
   159 -4.918672695E-03
   160  1.130928913E-01
   161 -1.254197758E-02
   162 -3.239009741E-02
   163 -3.311186088E-02
   164  5.697473166E-01
   165  9.936410532E-02
   166  2.334133267E-01
   167  3.042345695E-01
   168  3.420014458E-04
   169 -2.375228500E-04
   170 -1.738426930E-03
   171 -2.341282787E-03
   172 -9.251729087E-04
   173  4.993609299E+01
   174  4.402878773E+00
   175  8.559975062E+00
   176  1.407616734E+01
   177 -1.825712274E-03
   178 -3.605921506E-03
   179  2.166219535E-02
   180 -1.238530007E-02
   181 -1.184623378E-03
   182  3.220981252E-02
   183  2.134548987E-02
   184 -2.261851728E-02
   185 -7.736948040E-03
   186 -3.035336197E-01
   187  3.059539397E-01
   188 -1.419799246E-01
   189  1.212524174E-01
   190 -2.607153731E-03
   191  4.556051657E-03
   192 -2.145148939E-03
   193  9.686401724E-03
   194 -3.169943864E-03
   195 -1.471011955E+01
   196  4.950917727E+00
   197 -9.231374853E-01
   198 -5.765400252E-01
   199 -7.173975256E-03
   200 -1.299574389E-02
   201 -1.656388904E-03
   202  2.357762816E-02
   203 -1.788087133E-02
   204  7.842951284E-02
   205 -2.409679955E-03
   206  2.564040505E-02
   207 -2.182310928E-02
   208 -4.323531842E-01
   209 -3.959048089E-02
   210  3.491883379E-01
   211 -3.159031819E-01
   212 -3.201401201E-03
   213 -1.178071750E-03
   214 -1.145649562E-03
   215 -7.815902204E-03
   216  2.349865469E-03
   217 -3.258972924E+01
   218 -1.501406198E+00
   219  2.292899564E+00
   220 -6.940209125E+00
   221  2.456551976E-04
   222  4.365177635E-04
   223 -6.411844618E-04
   224 -1.299207573E-03
   225 -2.510632000E-03
   226 -3.414211267E-03
   227 -2.855358930E-04
   228  5.750326183E-04
   229  2.206414923E-03
   230  3.346248785E-02
   231 -8.369595073E-03
   232 -4.011982676E-02
   233 -4.551524175E-02
   234  3.455741050E-03
   235  3.174887065E-03
   236  3.287049767E-03
   237 -3.417674562E-03
   238  1.598021730E-03
   239  3.281662641E+00
   240 -3.052468231E-01
   241 -7.988640347E-01
   242 -6.098569104E-01
   243  1.677008923E-02
   244  7.696352827E-02
   245  1.350303877E-01
   246 -8.414954417E-03
   247  2.088394245E-04
   248  2.036882345E-03
   249  2.283907839E+00
   250 -1.122503486E-02
   251 -2.530082818E-02
   252 -2.929535362E-01
   253  3.297946659E-03
   254 -2.763583350E-03
   255  1.859508335E-03
   256 -1.965255826E+00
   257 -1.395165356E-02
   258 -4.084497737E-02
   259 -2.627203054E-01
   260 -3.648821825E-03
   261 -2.066785379E-03
   262  1.314970534E-03
   263 -2.480232721E+00
   264  1.791623071E-02
   265  7.066012640E-02
   266  2.402407702E-01
   267  7.510379666E-03
   268 -8.987526820E-04
   269 -4.558934576E-04
   270  2.393278987E+00
   271 -3.813228494E-03
   272  1.765861182E-02
   273 -2.425626841E-01
   274 -7.551358050E-03
   275 -2.138379752E-03
   276  1.671894052E-03
   277 -6.233156633E+00
   278 -2.512574118E-03
   279 -1.727346624E-02
   280  3.045379962E-01
   281  1.247113842E-03
   282  8.262819209E-03
   283  5.520630382E-03
   284  5.629818090E+00
   285  1.181867246E-02
   286  8.125800171E-02
   287 -2.567291818E-01
   288 -1.970503746E-03
   289 -7.946601035E-03
   290  1.089339698E-03
   291 -2.468694213E+00
   292 -2.761136765E-03
   293  1.267833057E-02
   294 -1.786826951E-01
   295  5.256856916E-03
   296 -3.180434259E-03
   297 -2.831615534E-03
   298 -4.349743216E+00
   299  9.074976206E-04
   300  1.172155813E-02
   301 -1.062597704E-01
   302 -4.433947868E-04
   303 -3.479912094E-05
   304  1.143317685E-02
   305 -2.157207039E+00
   306 -5.235566050E-03
   307 -3.446422540E-02
   308  9.371632562E-02
   309 -3.037116770E-03
   310  4.769946961E-03
   311  6.374419485E-03
   312  8.060902585E-01
   313  7.747086795E-03
   314 -2.598797683E-02
   315  3.827520133E-01
   316  2.904045190E-03
   317  5.858987375E-03
   318  7.203355142E-03
   319  9.450773771E+00
   320  1.336805113E-03
   321  1.544773883E-02
   322 -1.968287153E-01
   323  3.135757346E-03
   324 -2.112028447E-03
   325  1.085684923E-02
   326 -2.936363640E+00
   327 -7.792731088E-03
   328 -5.053530498E-02
   329  9.574456247E-02
   330  6.157966319E-03
   331  4.648460982E-03
   332  2.686866919E-03
   333  1.423153008E+00
   334 -3.576242953E-03
   335 -4.376133104E-02
   336  1.119316876E-01
   337 -6.801745438E-03
   338  5.874977951E-03
   339  3.992748493E-03
   340  3.279707974E-03
   341 -7.396525800E-03
   342 -5.505706320E-02
   343  4.897796058E-02
   344  9.182721320E-03
   345  3.528554594E-03
   346  1.481756817E-03
   347 -5.522653968E-01
   348 -6.165402988E-03
   349 -1.363391953E-02
   350 -8.731780147E-02
   351 -2.203313330E-03
   352 -1.267705342E-03
   353 -1.439967531E-03
   354 -1.331863823E+00
   355  1.101342341E-02
   356  1.644673712E-02
   357  2.533078563E-01
   358  5.832541017E-04
   359  2.599522373E-03
   360  6.744305128E-04
   361  2.398317388E+00
   362 -4.579935813E-03
   363 -1.043991799E-02
   364 -5.153741465E-02
   365  1.058426219E-03
   366 -1.433463475E-03
   367 -2.285905298E-03
   368 -1.145718840E+00
Ene=    1.0472782506E-01
Spin= Alpha
Occup=   0.0000000
     1 -4.356002814E-04
     2 -7.098033287E-04
     3 -8.726187789E-03
     4  1.152194019E-03
     5  1.347786324E-03
     6  2.359169447E-03
     7 -6.594601535E-03
     8  2.879484519E-04
     9  1.402719582E-03
    10  1.386778871E-02
    11  6.249593960E-02
    12  8.582170427E-03
    13 -7.400143634E-03
    14 -4.472404607E-03
    15  8.174902671E-03
    16 -2.435506341E-03
    17  4.068354600E-03
    18  5.388138576E-03
    19 -2.233542483E-01
    20  4.432386124E+00
    21  6.742230594E-01
    22 -5.607918071E-01
    23  5.786201806E-03
    24  1.039514636E-02
    25 -2.797345453E-03
    26 -2.396754443E-02
    27 -6.566282266E-03
    28 -6.057805167E-02
    29 -4.716718980E-03
    30 -2.663651776E-02
    31 -1.084173345E-02
    32  3.081293938E-01
    33  1.342549348E-02
    34 -3.628508010E-01
    35 -1.001094673E-01
    36  7.394829896E-03
    37  1.951505943E-05
    38  8.831118198E-03
    39  4.707757500E-04
    40  1.141369127E-03
    41  2.184865496E+01
    42  2.169347452E+00
    43 -3.686484762E+00
    44 -2.781287066E+00
    45 -6.743658166E-03
    46 -1.201487563E-02
    47  8.824184031E-03
    48  2.517275939E-02
    49  2.987807847E-03
    50  6.703311739E-02
    51  1.077751308E-02
    52  2.749985877E-02
    53  6.749989442E-03
    54 -3.072888514E-01
    55  1.637717747E-01
    56  3.649787546E-01
    57  2.707023873E-02
    58 -4.450272198E-03
    59 -4.167408658E-03
    60 -6.868960580E-03
    61 -3.563933565E-03
    62 -2.379748153E-03
    63 -2.429314019E+01
    64  4.774322704E+00
    65  2.513917521E+00
    66  1.376041515E+00
    67  2.014889839E-02
    68  3.304245197E-02
    69  2.465917669E-03
    70  6.103663575E-03
    71 -9.476135031E-03
    72 -9.407773612E-02
    73  2.208151287E-02
    74  8.581369358E-03
    75 -3.005154855E-02
    76 -4.390771812E-01
    77 -1.764540243E-01
    78 -2.186694054E-02
    79  2.648630033E-01
    80  7.057802666E-03
    81  1.177968487E-03
    82 -1.321192302E-03
    83 -5.100037860E-04
    84 -2.604342665E-03
    85 -3.779138819E+01
    86 -8.548243936E+00
    87  2.344848525E-01
    88  1.050359566E+01
    89 -9.447985325E-04
    90 -1.687023600E-03
    91 -1.390872616E-02
    92  5.947568004E-04
    93  7.379364378E-03
    94  9.437376510E-03
    95 -7.647232146E-03
    96 -1.936886073E-03
    97  7.905516545E-03
    98 -5.211062488E-02
    99 -2.994812254E-01
   100  2.888271360E-02
   101  1.063144905E-01
   102  3.924067732E-03
   103 -1.124639427E-02
   104  1.809665302E-03
   105 -6.602293882E-04
   106  2.663469229E-03
   107 -3.449427569E+00
   108 -3.112643729E+00
   109  6.413183682E-01
   110  1.545186084E+00
   111 -2.307760489E-02
   112 -3.789016193E-02
   113  8.008777386E-03
   114 -9.646332390E-03
   115  8.001567058E-03
   116  1.091044154E-01
   117  3.814188125E-02
   118 -2.124354701E-02
   119  2.129710804E-02
   120  4.817167618E-01
   121 -2.942040031E-01
   122  9.508122138E-02
   123 -1.719094204E-01
   124 -4.660880918E-03
   125 -3.011881349E-03
   126  1.736850496E-03
   127 -1.761348450E-03
   128  3.368421519E-05
   129  4.361824330E+01
   130 -1.431717349E+01
   131  2.801744497E+00
   132 -6.427819021E+00
   133  2.004173170E-03
   134  4.244810361E-03
   135  2.715284189E-02
   136  1.802796802E-02
   137  9.493986158E-03
   138 -4.588537099E-02
   139  3.897469842E-02
   140  3.087261531E-02
   141  6.585356510E-03
   142  4.944246802E-01
   143  2.362726353E-01
   144  2.451478469E-01
   145  1.352949020E-01
   146 -8.610002685E-03
   147 -1.421070795E-03
   148 -7.832191569E-03
   149 -3.103810713E-03
   150  1.478049808E-03
   151  2.436270318E+01
   152  6.241859347E+00
   153  1.245125390E+00
   154  2.997100813E+00
   155  2.401294479E-03
   156  3.924243064E-03
   157 -6.142535653E-03
   158  1.327461151E-03
   159  1.291457237E-03
   160 -1.075879588E-02
   161 -6.567522663E-03
   162  2.963938046E-03
   163  3.817031194E-03
   164 -5.987654780E-02
   165  9.781336017E-02
   166 -4.372150843E-02
   167 -5.396915150E-02
   168  2.192578547E-03
   169 -5.669090179E-03
   170  2.904884042E-03
   171 -3.873025974E-03
   172 -9.885715155E-03
   173 -5.098752371E+00
   174  2.268218579E+00
   175 -1.451294592E+00
   176 -1.694922005E+00
   177 -2.370160593E-03
   178 -4.771408208E-03
   179  1.138338376E-02
   180 -2.262417575E-02
   181 -1.889019111E-02
   182  4.447085365E-02
   183  2.010110849E-02
   184 -3.726343558E-02
   185 -1.873160199E-02
   186 -4.415227720E-01
   187  3.109350236E-02
   188 -2.661951338E-01
   189 -2.409705567E-01
   190  8.093136184E-03
   191  4.401591621E-03
   192  6.736907134E-03
   193  3.507006578E-03
   194  3.884687413E-03
   195 -2.345441740E+01
   196  3.183676509E+00
   197 -2.605094093E+00
   198 -5.410840868E+00
   199  4.897447436E-04
   200  9.522631702E-04
   201 -1.688662800E-02
   202 -3.121606920E-04
   203  5.490524186E-03
   204 -7.684358256E-03
   205 -2.478263499E-02
   206  3.521772834E-05
   207  7.633466897E-03
   208  6.262612886E-02
   209 -1.885077408E-01
   210 -9.302594638E-03
   211  8.065668274E-02
   212  5.837531882E-03
   213 -1.354959776E-02
   214  1.749297572E-03
   215 -1.495774830E-03
   216  2.894668592E-03
   217  4.386989371E+00
   218 -1.519443610E+00
   219 -3.545381847E-01
   220  1.276970171E+00
   221 -2.912044867E-04
   222 -4.756495403E-04
   223  3.527788547E-03
   224  7.118001170E-04
   225 -8.105935402E-04
   226  1.815496067E-03
   227 -9.619050872E-04
   228  1.229146206E-03
   229 -4.701097140E-04
   230 -2.705883072E-03
   231  5.689205232E-02
   232  5.848947226E-03
   233 -9.483430663E-03
   234 -3.150966178E-03
   235  6.421348714E-03
   236 -1.399299115E-03
   237  1.573100497E-03
   238 -7.013583190E-04
   239 -8.306189476E-01
   240  1.007972902E+00
   241 -1.748852260E-02
   242 -1.969656819E-01
   243 -5.931286186E-03
   244 -4.834368376E-04
   245 -1.816906743E-01
   246 -4.386318121E-03
   247 -4.672508859E-03
   248 -2.947013067E-03
   249 -1.422139160E+00
   250  1.488159345E-02
   251  7.230582332E-02
   252  1.517202227E-01
   253 -5.587970742E-04
   254 -3.279939140E-06
   255  9.797744637E-03
   256  1.668940703E+00
   257 -1.242228342E-02
   258 -6.748090251E-02
   259 -7.276263637E-02
   260 -3.796266402E-03
   261  9.480896607E-04
   262 -9.129315843E-03
   263 -1.172813533E+00
   264  1.920100167E-03
   265 -1.569614485E-02
   266  1.545363029E-01
   267 -2.944652696E-03
   268  5.485006600E-03
   269  4.552813784E-03
   270  9.325947075E-01
   271 -6.727460389E-03
   272  2.154537540E-02
   273 -3.519311099E-01
   274 -3.154013185E-03
   275 -5.606394087E-04
   276  7.820106034E-03
   277 -7.755879914E+00
   278  3.462051612E-04
   279 -3.210382557E-04
   280 -2.984899932E-02
   281 -1.205311398E-02
   282  7.695641690E-04
   283  1.869432803E-03
   284 -5.581696294E-01
   285 -1.330137347E-03
   286 -1.014534205E-02
   287  2.780960237E-02
   288 -8.251096356E-03
   289  2.143506364E-03
   290  1.621490768E-03
   291  3.557056610E-01
   292  6.597586979E-03
   293 -3.075703631E-02
   294  4.198892331E-01
   295 -7.583472454E-03
   296  2.972463931E-03
   297 -5.782295404E-03
   298  9.096801912E+00
   299 -2.088808667E-03
   300 -2.107535382E-02
   301  2.716376716E-01
   302 -7.069980437E-03
   303  7.663625904E-03
   304  1.036863104E-03
   305  4.874052929E+00
   306  1.144112214E-02
   307  7.286343244E-02
   308 -1.762301329E-01
   309  4.177059516E-04
   310 -5.404214791E-03
   311  5.527319269E-03
   312 -1.902225486E+00
   313 -1.178270292E-03
   314 -3.459321051E-04
   315 -2.844283921E-02
   316  5.261513657E-03
   317 -1.172302773E-03
   318 -1.728704173E-03
   319 -8.809708889E-01
   320  1.887681312E-03
   321  1.470901094E-02
   322 -2.197958311E-01
   323 -9.493008078E-03
   324 -5.012368670E-03
   325  3.408162371E-04
   326 -4.445793321E+00
   327 -1.022948114E-02
   328 -6.684877031E-02
   329  1.872723395E-01
   330 -2.086857509E-03
   331  4.948121653E-03
   332 -6.296320338E-03
   333  1.721135500E+00
   334  1.806927032E-02
   335  6.693343012E-02
   336  2.709009556E-01
   337  3.147445801E-05
   338 -1.309000357E-03
   339 -6.231405614E-03
   340  2.717022469E+00
   341 -1.708187178E-02
   342 -5.741058386E-02
   343 -2.942276972E-01
   344  8.883903183E-04
   345 -1.214351866E-04
   346  5.400671564E-03
   347 -2.508835298E+00
   348 -9.551760809E-03
   349 -1.627586780E-02
   350 -1.988539295E-01
   351  3.184076426E-04
   352 -8.769285636E-04
   353  2.900675810E-03
   354 -2.027844447E+00
   355 -1.357733266E-03
   356 -1.614369447E-03
   357 -4.408361722E-02
   358  3.523983749E-03
   359 -7.955828937E-04
   360 -1.060132761E-03
   361 -1.974954187E-01
   362  1.040564006E-02
   363  1.986874017E-02
   364  1.765022703E-01
   365 -4.731160742E-04
   366  1.298335081E-03
   367 -2.290096476E-03
   368  2.289981776E+00
Ene=    1.0913830141E-01
Spin= Alpha
Occup=   0.0000000
     1 -5.313664712E-03
     2 -8.928686432E-03
     3 -2.295962782E-03
     4 -1.867111302E-02
     5  1.709386220E-03
     6  3.091945820E-02
     7 -1.222746187E-03
     8  2.801014805E-03
     9 -6.147006587E-03
    10 -6.078341073E-02
    11 -4.660026929E-02
    12 -6.242750249E-01
    13  1.583211211E-01
    14 -2.978286040E-03
    15 -6.421028832E-04
    16 -2.478090317E-03
    17 -2.636287768E-03
    18  2.951632720E-04
    19  1.090656834E+01
    20 -2.476274226E+00
    21 -3.061465181E+01
    22  7.023527168E+00
    23  7.782332190E-04
    24  7.204629908E-04
    25 -1.020410690E-02
    26  1.442506639E-02
    27  3.089837620E-03
    28  2.104806515E-02
    29 -1.278233808E-02
    30  2.030995387E-02
    31  1.621633090E-03
    32 -5.017349081E-01
    33 -2.021675375E-01
    34  2.916024082E-01
    35  1.094356625E-01
    36 -2.284131170E-03
    37 -9.704000591E-03
    38  1.225987592E-03
    39 -5.133523462E-03
    40 -5.234504873E-03
    41 -1.260427432E+01
    42 -7.142888103E-01
    43  5.781981039E+00
    44 -2.379610409E-01
    45  6.212280006E-04
    46  4.326214617E-04
    47  1.381703581E-02
    48  1.219987179E-02
    49 -1.797247300E-03
    50  2.285102729E-02
    51  1.664861384E-02
    52  1.771722468E-02
    53 -4.061361510E-03
    54 -5.098645013E-01
    55  3.017573084E-01
    56  2.346900438E-01
    57  1.936104829E-03
    58 -8.868754153E-03
    59  5.585634033E-03
    60 -3.820676256E-03
    61  1.478863993E-03
    62  5.589316460E-03
    63 -1.412062654E+01
    64  2.330736090E+00
    65  5.624122054E+00
    66 -8.322046222E-01
    67  2.334745163E-03
    68  4.643625984E-03
    69  2.302557279E-02
    70  1.402240363E-03
    71 -2.182672715E-02
    72 -3.521384644E-02
    73  4.079693937E-02
    74  1.242375096E-02
    75 -4.207835601E-02
    76  3.821845970E-01
    77  8.089062222E-02
    78  1.239610511E-01
    79 -7.456221660E-02
    80  4.727849079E-03
    81 -1.261258502E-02
    82 -1.822742262E-03
    83  4.774505167E-03
    84  1.482473938E-03
    85 -1.963974264E+00
    86 -4.765380369E+00
    87  3.266525895E+00
    88  4.161407431E+00
    89  9.569963734E-03
    90  1.649516701E-02
    91  5.107497418E-04
    92  1.259337546E-02
    93 -4.011487795E-03
    94 -6.914207319E-02
    95  2.790617507E-03
    96  2.999990703E-02
    97 -4.763730468E-03
    98  8.503472871E-02
    99 -4.020887363E-02
   100 -1.473866710E-01
   101 -6.966075042E-02
   102  1.196647677E-02
   103  2.714722828E-03
   104 -7.797258186E-03
   105  2.213729070E-03
   106 -2.208624053E-03
   107  9.552070014E+00
   108 -5.390573857E-01
   109 -1.729393773E+00
   110 -1.135045708E+00
   111  1.459784183E-03
   112  3.195701686E-03
   113 -2.864005633E-02
   114  8.311763356E-03
   115 -1.002968847E-02
   116 -3.066244285E-02
   117 -4.922995081E-02
   118  2.413374569E-02
   119 -2.145503199E-02
   120  3.987280358E-01
   121 -7.524311543E-02
   122  1.521340719E-01
   123 -4.315647514E-02
   124 -4.190888403E-03
   125  9.046056811E-03
   126 -3.290985703E-03
   127  7.819534125E-03
   128 -6.396445466E-03
   129 -6.742481800E-01
   130  6.332868832E+00
   131  1.978510692E+00
   132  1.491964411E+00
   133  7.695069738E-03
   134  1.345518555E-02
   135  4.765250637E-03
   136  1.530192817E-02
   137 -4.917381226E-03
   138 -6.193778773E-02
   139  4.078580781E-03
   140  3.271264224E-02
   141 -1.195618208E-02
   142  1.625195044E-01
   143  1.188541435E-01
   144 -8.782309889E-02
   145  6.141873541E-02
   146 -5.942595796E-03
   147  2.210671411E-03
   148  2.284752151E-03
   149  5.460164862E-03
   150  1.229312825E-02
   151  1.151502814E+01
   152  2.274654534E+00
   153 -1.011809720E+00
   154  8.387693249E-01
   155  4.827842829E-03
   156  8.747344098E-03
   157  7.575812860E-03
   158  1.620405811E-02
   159  2.511804214E-02
   160 -4.796953007E-02
   161  1.487555512E-02
   162  3.787496897E-02
   163  4.435603010E-02
   164  3.400701570E-01
   165  2.094906069E-02
   166  1.607444475E-01
   167  5.437565931E-03
   168  6.641406179E-03
   169  4.460462717E-03
   170  1.018845909E-02
   171 -2.100650393E-03
   172  2.783007778E-03
   173 -9.035577747E-01
   174 -1.616223460E+00
   175  6.226615368E-01
   176 -7.839792985E+00
   177  7.605576520E-03
   178  1.329652996E-02
   179 -1.792171762E-03
   180  1.549873307E-02
   181 -4.196216197E-03
   182 -6.105904716E-02
   183  6.751149651E-04
   184  3.229233975E-02
   185 -1.200695014E-02
   186  1.563484501E-01
   187 -1.005166153E-01
   188 -6.533274749E-02
   189  1.032769810E-01
   190 -2.534335680E-03
   191 -4.549466700E-03
   192  8.908846646E-03
   193 -2.562101480E-03
   194 -1.061983809E-02
   195  1.135821828E+01
   196 -1.846525138E+00
   197 -4.138645642E-01
   198  1.698387231E+00
   199  2.248129955E-03
   200  3.122252963E-03
   201 -3.200528931E-03
   202  7.696401105E-03
   203 -1.691166678E-02
   204  1.344165982E-02
   205 -3.863034631E-03
   206  1.459331895E-02
   207 -2.284976649E-02
   208 -5.290901128E-01
   209 -5.789978496E-02
   210  1.311687966E-01
   211 -3.269467583E-01
   212  8.657649177E-03
   213  4.467217620E-03
   214 -1.207297639E-03
   215 -6.342147148E-03
   216  1.636995105E-03
   217 -1.894811650E+01
   218 -2.804620987E-01
   219  5.166025582E+00
   220 -4.324926238E+00
   221 -1.916889255E-03
   222 -2.815070724E-03
   223 -5.199698804E-04
   224 -8.777019980E-03
   225  3.249170550E-03
   226 -1.327525810E-02
   227 -1.161862810E-03
   228 -1.300176449E-02
   229  3.995827496E-03
   230  5.228088342E-01
   231 -1.480842432E-02
   232 -2.556596737E-01
   233  8.304054096E-02
   234 -1.002996769E-03
   235 -6.330160174E-04
   236  3.438737992E-04
   237  1.768779505E-03
   238 -4.341507654E-04
   239  2.893920003E+01
   240 -2.341491488E-01
   241 -4.901168746E+00
   242  1.911890185E+00
   243 -5.278027260E-03
   244 -1.803876570E-02
   245 -2.933546837E-01
   246  2.862098719E-03
   247  4.068959229E-03
   248  9.635364663E-03
   249 -5.907313445E-01
   250 -2.745029353E-03
   251 -3.981010061E-03
   252 -2.748160075E-01
   253 -1.095786063E-02
   254  1.111553367E-03
   255 -2.293555323E-03
   256 -4.101856705E-01
   257 -3.232988219E-03
   258 -7.955420702E-03
   259 -2.538057185E-01
   260  8.739455094E-03
   261 -1.537245670E-03
   262 -7.008948855E-03
   263 -4.872983275E-01
   264 -5.164442400E-03
   265 -1.787908041E-02
   266 -2.773477161E-01
   267  2.460119625E-03
   268  4.401083028E-03
   269  9.825168216E-03
   270 -6.321122938E-01
   271  7.483049345E-03
   272  7.258682795E-02
   273 -3.095887761E-01
   274 -5.341962455E-03
   275 -3.505206222E-03
   276  7.061145609E-03
   277 -5.534998791E+00
   278  3.320570581E-03
   279  4.460386269E-02
   280  1.694593221E-01
   281  1.801115633E-04
   282 -5.229892601E-03
   283  5.188747993E-03
   284  1.342018408E+00
   285 -6.290927783E-03
   286 -4.362054953E-03
   287 -2.489229149E-01
   288  6.793320854E-04
   289 -4.668797499E-03
   290  6.958213622E-03
   291 -1.614763501E+00
   292  7.799405027E-03
   293  7.139583410E-02
   294 -2.942592826E-01
   295  6.480404655E-03
   296 -5.057495710E-03
   297  4.153747133E-03
   298 -5.251543115E+00
   299  3.506382646E-03
   300  3.737951821E-02
   301  1.901733054E-01
   302 -3.688876032E-03
   303 -6.069869089E-03
   304 -6.183592570E-04
   305  2.038994454E+00
   306 -4.807904273E-03
   307 -1.696565991E-03
   308 -2.319706999E-01
   309 -5.551668538E-03
   310 -6.538486660E-03
   311  3.859931810E-04
   312 -1.220909756E+00
   313  5.941384080E-03
   314  7.682899141E-02
   315 -4.080019572E-01
   316 -2.196414881E-03
   317 -6.597182538E-03
   318 -6.530180322E-03
   319 -6.200283657E+00
   320  3.528949527E-03
   321  3.825393265E-02
   322  1.648845981E-01
   323  1.154904154E-03
   324 -6.976247792E-03
   325 -1.705002893E-03
   326  1.902700427E+00
   327 -5.325602782E-03
   328 -3.303105286E-03
   329 -2.476836862E-01
   330  3.342345187E-03
   331 -7.654300719E-03
   332 -1.832279286E-03
   333 -1.110034796E+00
   334 -2.614713948E-03
   335 -1.023764181E-02
   336 -1.809502718E-01
   337 -9.942634472E-03
   338 -1.648841677E-04
   339 -4.270477225E-03
   340 -6.504657172E-01
   341 -3.277156405E-03
   342 -1.304945704E-02
   343 -1.885948708E-01
   344  7.007218129E-03
   345 -2.494367553E-03
   346 -7.734731220E-03
   347 -7.585127677E-01
   348 -1.386572291E-04
   349 -3.763390294E-02
   350  3.091691955E-01
   351  2.552771458E-03
   352  1.937237655E-03
   353 -1.234042811E-03
   354 -2.152096846E-02
   355 -2.867318759E-03
   356 -4.184281297E-02
   357  2.543343834E-01
   358  5.401899384E-04
   359  2.744623519E-03
   360  5.312473760E-04
   361 -7.478067955E-01
   362  2.800778980E-04
   363 -3.638476108E-02
   364  3.171258589E-01
   365 -2.208257571E-03
   366  2.645959909E-03
   367 -2.467221626E-04
   368  6.264023034E-02
Ene=    1.1208407574E-01
Spin= Alpha
Occup=   0.0000000
     1 -1.049949728E-04
     2 -1.642870100E-04
     3 -3.224684250E-02
     4  8.537519720E-03
     5  2.501796730E-02
     6  2.427437240E-04
     7 -4.845759658E-02
     8  1.380115874E-02
     9  3.743072322E-02
    10  4.707149220E-03
    11 -2.513516483E-01
    12  5.342942026E-02
    13  1.901694766E-01
    14 -1.768106986E-03
    15  1.479716751E-02
    16  2.059316014E-03
    17 -1.713330383E-03
    18 -1.053376932E-03
    19  4.733824869E-01
    20 -1.367008877E+01
    21  3.706050335E+00
    22  1.033807844E+01
    23  8.814661859E-03
    24  1.400742820E-02
    25 -2.375710521E-02
    26  2.227545316E-02
    27  1.507236220E-02
    28 -2.889018980E-02
    29 -3.994978647E-02
    30  4.331165631E-02
    31  2.206668526E-02
    32 -4.678643846E-01
    33 -1.411964444E-01
    34  7.765593864E-02
    35  1.267862510E-01
    36  6.255322641E-03
    37 -6.443921173E-03
    38 -3.997489431E-03
    39  8.285205516E-03
    40  5.503280778E-03
    41 -4.056459957E+01
    42 -4.407578456E+00
    43  4.403080282E+00
    44  4.162907709E+00
    45 -4.579489842E-03
    46 -7.233595660E-03
    47 -2.569882101E-02
    48 -1.954166151E-03
    49  2.148399498E-02
    50  1.390635532E-02
    51 -4.576832832E-02
    52 -3.738476734E-03
    53  4.677677081E-02
    54  2.558451876E-01
    55 -1.174876217E-01
    56 -1.022562201E-02
    57 -1.618989206E-03
    58 -6.798877716E-03
    59 -7.332143968E-03
    60  4.977208376E-03
    61 -2.923079602E-03
    62  3.478641699E-03
    63  2.331451248E+01
    64 -2.783542163E+00
    65 -2.629649607E+00
    66 -4.900211450E+00
    67  8.785915180E-04
    68  1.363501027E-03
    69 -1.713975961E-02
    70  7.757074505E-04
    71  1.897544056E-02
    72 -1.845028271E-03
    73 -3.518903125E-02
    74 -8.515198053E-03
    75  3.775857476E-02
    76 -1.321713175E-01
    77  3.818739348E-02
    78  1.196295183E-01
    79 -4.024075802E-02
    80  1.209128431E-03
    81  1.021975510E-02
    82  1.069112491E-02
    83  4.318360839E-03
    84 -6.510976229E-03
    85  1.489656109E+01
    86  2.546810135E+00
    87  6.393841439E+00
    88 -3.740326996E+00
    89 -7.042407817E-03
    90 -1.168617215E-02
    91 -1.294732864E-02
    92  9.111481268E-03
    93  7.089476030E-03
    94  3.848496369E-02
    95 -2.380045928E-02
    96  1.543252112E-02
    97  1.033356421E-02
    98  1.020254580E-01
    99  3.076283014E-02
   100  2.273851266E-02
   101  3.006274162E-02
   102  2.094535874E-03
   103 -2.752238426E-03
   104  2.341422145E-03
   105 -4.320943985E-03
   106 -4.365102779E-03
   107  1.859112979E+00
   108 -5.597123856E-01
   109  6.069490617E-01
   110 -1.424923033E+00
   111  5.959373248E-04
   112  1.082558828E-03
   113 -1.199728698E-02
   114  1.453632838E-04
   115 -1.770922463E-02
   116 -5.958714341E-03
   117 -2.726112694E-02
   118  1.086596704E-02
   119 -2.042117223E-02
   120  7.744664316E-02
   121  4.226832925E-02
   122 -1.100193272E-01
   123 -1.111936383E-01
   124 -8.902266047E-03
   125 -3.744934570E-03
   126 -6.109818556E-03
   127  7.510129303E-05
   128 -7.857826669E-03
   129 -8.147211798E+00
   130  1.744822890E+00
   131 -4.107208332E+00
   132  1.345538526E+00
   133 -9.770520444E-03
   134 -1.622655035E-02
   135 -1.314926656E-02
   136  1.009101577E-02
   137  8.403430989E-03
   138  5.407302285E-02
   139 -1.919539699E-02
   140  1.828494240E-02
   141  1.611158634E-02
   142  1.275148449E-01
   143 -6.000164112E-02
   144  2.352532764E-03
   145 -3.533229281E-02
   146 -5.630983851E-03
   147 -2.580081999E-03
   148  1.164629535E-03
   149  7.195037828E-04
   150 -3.220931917E-03
   151  2.805999085E+00
   152  1.703498776E+00
   153  1.495770215E+00
   154  4.235715560E-01
   155 -8.376093057E-04
   156 -1.309795614E-03
   157  1.721112223E-02
   158  3.710385235E-03
   159  7.616494590E-03
   160  2.364988418E-03
   161  1.509224032E-02
   162  1.347413210E-02
   163  1.675794837E-02
   164  7.762114117E-02
   165  1.520408512E-01
   166 -6.113507365E-02
   167 -1.819926065E-02
   168  2.565328551E-03
   169 -7.241952937E-03
   170  5.098482648E-03
   171 -8.838895722E-03
   172  2.031150263E-04
   173 -5.081309649E+00
   174  1.279111960E-02
   175 -3.077657625E+00
   176 -3.589535275E-01
   177  1.783238344E-02
   178  2.963630506E-02
   179 -1.351422804E-02
   180 -7.274587532E-03
   181  1.329046820E-02
   182 -9.872615368E-02
   183 -1.845869058E-02
   184 -1.490183580E-02
   185  1.842254913E-02
   186 -2.417320531E-01
   187 -8.329412551E-02
   188  5.084465553E-04
   189  8.707170569E-02
   190  2.296020643E-04
   191  4.148665924E-03
   192  2.405173917E-03
   193  9.083491079E-04
   194 -2.213220358E-03
   195 -4.717567527E+00
   196  2.073812413E+00
   197 -3.221995732E+00
   198 -1.296438783E+00
   199 -3.609399182E-03
   200 -5.735439955E-03
   201 -2.517353343E-02
   202  1.614764646E-03
   203  1.987102620E-02
   204  1.231903694E-02
   205 -5.408502734E-02
   206  1.263839396E-03
   207  3.679673703E-02
   208  1.804543988E-01
   209 -5.523600718E-03
   210  2.240964773E-02
   211  7.300912803E-02
   212  2.127551712E-03
   213 -4.686876600E-03
   214 -3.667167272E-03
   215 -4.002371030E-03
   216 -8.811589593E-03
   217  1.618612316E+01
   218  5.485615004E+00
   219 -7.472376234E-01
   220  1.776721522E+00
   221 -1.351843265E-04
   222 -2.239662764E-04
   223 -4.481969770E-03
   224  5.734063271E-04
   225  3.279050324E-03
   226  4.494767306E-04
   227 -1.463781369E-02
   228  3.218152848E-03
   229  1.134297519E-02
   230  1.138886281E-02
   231  7.625044245E-02
   232 -2.953626234E-02
   233 -6.092448085E-02
   234  1.819799678E-03
   235  1.116279855E-02
   236 -3.557826357E-03
   237  2.142829608E-03
   238  7.657233506E-03
   239 -1.642975488E-01
   240  3.794445305E+00
   241 -1.014173132E+00
   242 -2.945347002E+00
   243  2.199825852E-03
   244 -1.819691819E-02
   245  3.172058473E-01
   246  2.660802093E-04
   247 -3.137654344E-03
   248  3.341723662E-03
   249 -6.357618184E-01
   250  1.109360923E-03
   251 -1.105428891E-02
   252  2.258340611E-01
   253 -2.801858390E-03
   254 -4.200137047E-03
   255  1.396064408E-03
   256 -1.206038607E+00
   257 -2.164491661E-03
   258 -3.775362501E-02
   259  1.128212711E-01
   260 -4.301653740E-03
   261  4.899683482E-03
   262 -4.311888632E-03
   263  2.345721244E+00
   264  3.828486873E-04
   265  5.922066983E-02
   266 -4.720264280E-01
   267  5.081573591E-03
   268 -1.621634442E-03
   269 -1.584194387E-03
   270 -1.262117174E+00
   271 -7.371219015E-03
   272 -1.073898991E-02
   273 -3.109032821E-02
   274  4.082568804E-03
   275  1.006090092E-02
   276 -5.571411426E-03
   277  1.300045067E+00
   278  1.258528706E-03
   279 -2.111176158E-02
   280 -4.198636789E-02
   281 -6.722334951E-03
   282 -8.629589860E-04
   283 -3.967374288E-04
   284  9.176548453E-01
   285 -5.531334241E-05
   286 -5.543572227E-03
   287 -3.744939771E-02
   288  7.380718445E-03
   289 -2.983531883E-04
   290 -1.307550992E-03
   291  1.826330285E+00
   292  4.362383707E-03
   293  1.560008989E-02
   294 -4.298838312E-02
   295  4.032372874E-03
   296 -8.175330930E-03
   297 -2.478517873E-03
   298 -1.270925757E+00
   299  1.651162333E-03
   300 -2.625471985E-02
   301 -1.042905492E-01
   302  1.384110896E-03
   303 -2.232404520E-04
   304  7.149645215E-03
   305  1.040857173E+00
   306 -1.048355056E-03
   307 -1.136286664E-02
   308 -8.405562176E-02
   309  1.035666728E-03
   310 -6.815080914E-04
   311 -6.446340649E-03
   312  2.628809265E+00
   313  3.736313988E-03
   314  1.059143229E-02
   315  7.886688556E-04
   316  5.116696555E-03
   317 -6.005660655E-03
   318 -1.745297806E-03
   319 -5.892346368E-01
   320 -2.509032770E-03
   321  5.095093791E-02
   322  1.549839944E-01
   323  4.426151835E-03
   324  9.440838107E-04
   325 -4.786756930E-03
   326 -1.884424213E+00
   327  7.094623171E-04
   328  1.844339599E-02
   329  1.008609106E-01
   330  1.624228080E-04
   331 -1.730691566E-03
   332  1.741910471E-03
   333 -4.538603700E+00
   334 -3.257211088E-04
   335  5.784766310E-02
   336 -4.686444287E-01
   337  1.533967396E-03
   338 -2.954380920E-03
   339 -4.684000367E-03
   340 -1.760325147E+00
   341 -1.762707588E-03
   342 -4.634758744E-02
   343  2.117422120E-01
   344  4.012323694E-03
   345  6.471115391E-03
   346  3.290493695E-03
   347  2.431716237E+00
   348 -1.106632178E-02
   349 -1.129056449E-02
   350 -3.650711978E-01
   351 -1.260646926E-03
   352  4.002978030E-03
   353  1.438433972E-03
   354 -4.027157482E+00
   355  5.160814555E-03
   356  4.021864969E-03
   357  1.796950184E-01
   358  9.442596209E-03
   359 -2.287713807E-03
   360 -3.590903568E-04
   361  1.731249269E+00
   362  5.982206800E-03
   363  3.095881235E-03
   364  2.238905753E-01
   365  6.963474871E-04
   366 -4.394380992E-03
   367 -7.996507179E-03
   368  2.235134276E+00
Ene=    1.1218264507E-01
Spin= Alpha
Occup=   0.0000000
     1  5.164217439E-04
     2  8.419849843E-04
     3 -2.606141930E-02
     4 -5.300365880E-03
     5 -3.219334802E-02
     6 -2.487063036E-03
     7 -3.943400669E-02
     8 -1.029143957E-02
     9 -4.783020554E-02
    10 -8.355862335E-03
    11 -1.963033133E-01
    12 -1.027648289E-02
    13 -2.530132015E-01
    14 -8.315649873E-03
    15  4.161465780E-04
    16 -7.721419641E-03
    17  8.591810223E-03
    18 -5.209281175E-03
    19 -9.112399953E-01
    20 -1.085583212E+01
    21 -1.842297105E+00
    22 -1.354166748E+01
    23 -9.046912838E-04
    24 -1.448776584E-03
    25 -1.901239961E-02
    26 -7.445205534E-03
    27 -2.386193000E-02
    28  2.736205618E-03
    29 -4.085473971E-02
    30 -1.459308067E-02
    31 -4.858063786E-02
    32  6.045624258E-02
    33  2.362559720E-03
    34 -2.617493216E-02
    35 -3.837508897E-02
    36  8.564013315E-03
    37  2.049605417E-03
    38 -2.396487450E-03
    39 -4.040692242E-03
    40 -4.624811700E-03
    41  3.807641792E+00
    42  4.205354194E+00
    43  2.758215726E-01
    44  3.416613351E+00
    45 -7.242451583E-03
    46 -1.149859483E-02
    47 -2.200680464E-02
    48 -1.833731363E-02
    49 -2.062813767E-02
    50  2.295182212E-02
    51 -3.455014406E-02
    52 -3.766060259E-02
    53 -3.988496516E-02
    54  4.032536364E-01
    55 -1.688446294E-01
    56 -4.284722530E-02
    57 -5.545635579E-02
    58  3.244892159E-03
    59 -1.535717201E-03
    60 -1.693117468E-03
    61 -5.377192813E-03
    62  1.134821856E-02
    63  3.369551916E+01
    64 -6.618041912E+00
    65 -1.445548401E+00
    66  1.891913487E+00
    67 -2.631338969E-04
    68 -4.801171623E-04
    69  1.112702331E-02
    70  2.417179762E-03
    71  1.127228661E-02
    72  2.576486819E-03
    73  7.950179360E-03
    74  1.898805518E-03
    75  6.842549451E-03
    76 -1.148293868E-02
    77  1.079925065E-01
    78  9.814698098E-03
    79  1.347001135E-01
    80  9.075440201E-03
    81 -6.387005921E-04
    82  2.220637372E-03
    83 -6.998960301E-03
    84  1.138714090E-03
    85 -1.415702182E+00
    86  3.192395816E-01
    87 -4.955179092E-01
    88  5.313144532E-01
    89  1.542005338E-02
    90  2.558412079E-02
    91 -1.128470133E-02
    92 -1.388341490E-02
    93 -9.200288903E-03
    94 -8.422017714E-02
    95 -1.880088896E-02
    96 -2.335302139E-02
    97 -1.032713731E-02
    98 -2.196400201E-01
    99 -1.434349533E-02
   100 -4.332675273E-02
   101 -8.994451823E-02
   102 -5.010840310E-04
   103 -3.411114579E-03
   104 -8.029974609E-04
   105  2.434527373E-03
   106 -3.789751340E-03
   107 -3.699932086E+00
   108  4.461770063E-01
   109 -1.310984048E+00
   110  3.097932478E+00
   111 -7.561787373E-04
   112 -1.221657386E-03
   113 -2.068266595E-02
   114  6.670271869E-03
   115  1.623674631E-03
   116  3.115321438E-03
   117 -3.637636028E-02
   118  1.715005816E-02
   119 -9.825963079E-03
   120  8.449134905E-02
   121 -8.534542639E-03
   122 -7.940927076E-02
   123  1.293435655E-01
   124 -2.743478134E-03
   125  1.025543686E-02
   126 -7.192135959E-03
   127 -6.208953016E-03
   128 -5.018374044E-03
   129 -1.281576224E+01
   130  1.657398988E+00
   131 -5.670993987E+00
   132  2.393996235E+00
   133 -1.500524777E-02
   134 -2.498925836E-02
   135 -9.743302096E-03
   136  5.784842828E-03
   137 -1.521230759E-02
   138  8.465832684E-02
   139 -1.086747151E-02
   140  1.020080396E-02
   141 -2.526112034E-02
   142  1.850767351E-01
   143 -9.982342716E-02
   144  2.714395988E-02
   145 -2.487891817E-02
   146  8.630354969E-04
   147  4.620340598E-03
   148 -4.350261108E-03
   149 -9.477364718E-04
   150 -1.090730753E-03
   151  3.341949104E+00
   152  2.542816495E+00
   153  2.002858424E+00
   154 -5.511259542E-02
   155  3.427757955E-04
   156  4.051665926E-04
   157 -1.040800639E-04
   158 -1.307183571E-02
   159 -2.419188011E-02
   160  2.752681495E-03
   161 -9.148387683E-03
   162 -3.289529846E-02
   163 -4.149227944E-02
   164 -1.471018360E-01
   165  8.086549526E-02
   166  8.816010024E-02
   167 -3.593138834E-02
   168  4.058900148E-03
   169 -7.438398972E-03
   170 -5.965343464E-03
   171  1.156228997E-02
   172 -6.324092749E-03
   173  1.299018060E+01
   174  1.339644451E+00
   175  7.010394015E+00
   176  9.497132907E-01
   177 -2.020776266E-03
   178 -3.399051713E-03
   179 -1.053106530E-02
   180 -2.742497007E-03
   181 -1.297604226E-02
   182  1.234539287E-02
   183 -1.980330771E-02
   184 -4.845277958E-03
   185 -2.251788089E-02
   186  1.496994849E-02
   187  2.953537149E-02
   188  7.162200091E-03
   189  4.699509821E-03
   190  6.888090785E-03
   191  1.942800825E-04
   192 -2.047171316E-03
   193 -3.097884458E-03
   194 -1.786056285E-03
   195  2.320239720E-01
   196 -4.345591069E-01
   197  2.971828010E-01
   198 -2.068095438E-01
   199  7.680464399E-03
   200  1.218670132E-02
   201 -1.858948958E-02
   202  7.677702379E-03
   203 -2.699283617E-02
   204 -2.535859395E-02
   205 -3.603146618E-02
   206  1.951066493E-02
   207 -4.567227239E-02
   208 -3.940822687E-01
   209 -5.010663308E-02
   210 -2.814037038E-02
   211 -1.518678167E-01
   212 -1.392643392E-04
   213 -7.927180458E-04
   214  1.360623148E-02
   215 -3.557221521E-04
   216 -1.099880569E-03
   217 -3.583704137E+01
   218  9.348259034E-01
   219  2.321840067E-01
   220 -6.808735150E+00
   221  4.720652237E-04
   222  7.636812537E-04
   223 -3.315933448E-03
   224 -5.285867060E-04
   225 -4.253989929E-03
   226 -1.237376299E-03
   227 -1.172181910E-02
   228 -2.150017522E-03
   229 -1.451575725E-02
   230 -3.774532420E-02
   231  6.605892753E-02
   232  2.923991797E-02
   233  7.471565600E-02
   234 -1.272862812E-02
   235 -9.516731248E-04
   236  3.159598296E-04
   237  6.149712125E-03
   238  2.441432268E-03
   239 -8.551292931E-01
   240  3.097891550E+00
   241  9.657309928E-01
   242  3.677202489E+00
   243 -9.397970931E-04
   244 -5.549694302E-02
   245  3.574061965E-01
   246  6.315754858E-03
   247  2.851214822E-03
   248 -3.884373479E-03
   249  2.307226444E+00
   250  1.378773487E-03
   251  5.745590134E-02
   252 -3.495529533E-01
   253 -1.437634651E-03
   254 -1.734101547E-03
   255  6.813802633E-03
   256 -2.096616667E+00
   257 -4.734290329E-04
   258  4.543907933E-02
   259 -4.163052640E-01
   260  7.149748041E-04
   261  2.287425151E-03
   262  3.375073589E-03
   263 -5.405370744E-01
   264 -1.776383922E-03
   265 -2.064274523E-02
   266  1.812884087E-03
   267 -4.241641369E-03
   268  5.390920365E-03
   269 -3.262598904E-03
   270  2.059201422E+00
   271  2.063700586E-04
   272 -4.527147574E-03
   273  1.812924647E-02
   274  4.753490559E-03
   275  3.373251274E-04
   276  4.965512632E-03
   277  2.359851674E-01
   278 -2.805856548E-03
   279  4.433886663E-02
   280  1.071144960E-01
   281 -1.510540619E-03
   282  4.502775494E-03
   283  4.645768434E-03
   284 -1.770603399E+00
   285  1.183257195E-03
   286  1.735394320E-02
   287  9.612038877E-02
   288  2.952336895E-03
   289 -2.177424551E-03
   290 -1.438251337E-03
   291 -4.011492132E+00
   292  5.871675986E-03
   293  5.957160667E-03
   294  4.187279150E-02
   295  1.284162912E-03
   296 -7.729843167E-03
   297  7.008318675E-03
   298 -8.761462319E-01
   299  1.964638743E-03
   300 -4.286985427E-02
   301 -1.298844026E-01
   302  6.042365963E-03
   303 -2.765093178E-03
   304 -1.790601549E-03
   305  1.452279557E+00
   306 -2.467735502E-04
   307 -1.494670595E-02
   308 -6.771429107E-02
   309 -1.333168170E-03
   310  3.232342027E-03
   311  3.626568246E-03
   312  3.784143825E+00
   313 -7.251587465E-03
   314 -2.108653786E-02
   315  1.846144092E-02
   316  4.671922400E-03
   317  1.113879555E-02
   318  6.319754310E-04
   319  1.744534185E+00
   320 -4.964950046E-05
   321 -6.091912252E-03
   322 -2.377940741E-02
   323 -5.547074162E-03
   324 -6.338850333E-04
   325 -4.614272036E-03
   326  8.176897922E-02
   327  4.005400338E-04
   328 -1.411556661E-03
   329  6.857800082E-03
   330  5.272622201E-03
   331  1.777007863E-03
   332  5.750474947E-03
   333  4.437345080E-01
   334  2.340190859E-03
   335  1.097891995E-02
   336  1.202575422E-01
   337 -8.638582408E-04
   338 -6.263187969E-03
   339 -1.482808875E-03
   340 -1.735623375E+00
   341  1.391331566E-03
   342 -3.811024132E-02
   343  4.283607766E-01
   344  2.239045101E-03
   345 -2.033162781E-03
   346  1.802485820E-03
   347  1.763621848E-01
   348  9.556076709E-04
   349  4.160472682E-03
   350  1.618533637E-02
   351  7.435778291E-03
   352  1.205132130E-03
   353  7.487997238E-03
   354  3.363445010E-01
   355 -1.001210440E-02
   356 -5.833993391E-03
   357 -3.577192381E-01
   358  3.981263095E-03
   359  1.655592707E-03
   360 -4.310787496E-03
   361 -3.619545489E+00
   362  9.277780127E-03
   363  1.115727281E-02
   364  3.025628774E-01
   365 -4.171766103E-03
   366 -1.101603030E-03
   367  5.698138725E-03
   368  3.284972207E+00
Ene=    1.2116874293E-01
Spin= Alpha
Occup=   0.0000000
     1  2.918880383E-04
     2  4.613405700E-04
     3 -1.404961377E-03
     4 -9.727419642E-04
     5 -7.456773894E-03
     6 -1.150328618E-03
     7 -9.553791519E-04
     8 -2.760756737E-04
     9 -5.029201205E-03
    10 -1.378669898E-02
    11 -7.394390599E-03
    12 -2.506296942E-03
    13 -4.547738795E-02
    14  1.499186475E-03
    15  1.519943991E-03
    16  2.790230152E-03
    17 -1.370479742E-03
    18  1.007123876E-03
    19 -1.686468668E-01
    20 -1.347587957E+00
    21 -2.185761288E+00
    22 -5.634135663E+00
    23 -2.900014685E-03
    24 -4.889483937E-03
    25  1.407271266E-02
    26  4.412340263E-03
    27  3.743780660E-02
    28  1.897590208E-02
    29  3.471361377E-02
    30  8.391251351E-03
    31  6.974597740E-02
    32 -8.334251971E-03
    33 -1.477679072E-02
    34  2.674240162E-02
    35  8.517033062E-02
    36  2.272606713E-03
    37  2.038732615E-03
    38 -4.885150476E-03
    39 -2.175776067E-03
    40 -7.154116744E-04
    41  1.219930200E+01
    42 -2.220193716E-01
    43 -2.425280576E+00
    44 -5.053378916E+00
    45 -2.505278359E-03
    46 -4.228084234E-03
    47  1.819281382E-03
    48  6.969822862E-03
    49  4.041080723E-02
    50  1.656319838E-02
    51 -3.315440628E-03
    52  1.515692103E-02
    53  7.919016676E-02
    54 -9.347767665E-03
    55  4.524012611E-02
    56  1.836157410E-02
    57  7.044309698E-02
    58  3.170758404E-03
    59 -8.996537802E-05
    60 -4.714456236E-03
    61 -2.086533775E-03
    62  1.855362578E-04
    63  1.076459723E+01
    64 -2.026145036E+00
    65 -1.987952350E+00
    66 -4.624295861E+00
    67  3.907513864E-04
    68  4.377950374E-04
    69 -7.291739597E-03
    70  1.199056501E-02
    71  2.549079091E-02
    72  5.037754247E-03
    73 -1.672820007E-02
    74  2.063698528E-02
    75  5.060547827E-02
    76 -1.821818990E-01
    77  4.530611088E-02
    78  2.149081158E-02
    79  5.346769281E-02
    80 -2.170929551E-03
    81  4.318931250E-03
    82  3.627371399E-03
    83 -5.229346215E-03
    84  7.354387821E-03
    85 -1.179471162E+01
    86  1.903525461E+00
    87  2.703026735E-01
    88  1.956397459E+00
    89 -1.186074741E-03
    90 -2.415290369E-03
    91  9.454184734E-03
    92  1.543076800E-02
    93  3.665817861E-02
    94  1.981838693E-02
    95  1.842741076E-02
    96  3.417585807E-02
    97  6.686912863E-02
    98 -2.075073338E-01
    99  2.254997509E-02
   100  2.647128529E-02
   101  1.099493464E-01
   102 -8.287465594E-03
   103 -3.284441543E-03
   104  2.513200177E-03
   105 -7.866128180E-04
   106  9.302971207E-04
   107  4.044462946E+00
   108 -1.535840125E+00
   109 -2.321968318E+00
   110 -4.933685187E+00
   111  2.611399306E-04
   112  2.465588535E-04
   113  1.651631310E-02
   114  7.919803596E-03
   115  1.937728066E-02
   116  4.948384717E-03
   117  3.385111162E-02
   118  1.252262390E-02
   119  3.732911658E-02
   120 -1.591007588E-01
   121 -1.294661421E-02
   122  2.954880767E-02
   123  7.119279303E-02
   124 -5.797070969E-04
   125  1.102062886E-04
   126  6.606108413E-03
   127 -8.095656109E-03
   128 -1.213690219E-03
   129 -1.039429986E+01
   130 -7.500026197E-01
   131  6.883490497E-01
   132  2.656863270E+00
   133  3.165005812E-04
   134  7.197327034E-04
   135  1.341726634E-02
   136  2.329525561E-03
   137  1.921842474E-02
   138 -7.663839336E-03
   139  2.793079327E-02
   140 -6.076324179E-04
   141  2.824718299E-02
   142  1.023370362E-01
   143  1.963331694E-02
   144  3.445275541E-02
   145  1.133216767E-01
   146 -2.074007178E-03
   147 -6.718639884E-03
   148 -6.378830189E-03
   149  6.659421694E-03
   150  2.070958311E-03
   151 -1.194360448E+00
   152 -3.101707251E+00
   153  1.301889458E+00
   154  1.920813341E+00
   155 -1.205012689E-03
   156 -1.661168599E-03
   157  9.183517836E-03
   158  3.686431991E-03
   159  4.325695783E-02
   160 -5.591628291E-03
   161  1.957027446E-02
   162  1.420822338E-02
   163  8.708329160E-02
   164  3.323143609E-01
   165 -8.560595851E-03
   166 -2.828407241E-02
   167 -4.235278302E-03
   168  9.810282770E-03
   169  4.750863107E-03
   170  5.818447092E-03
   171  1.005963348E-03
   172  7.869727927E-04
   173  2.042630205E+01
   174 -2.660111136E-01
   175  4.652606210E-01
   176 -4.728612925E-01
   177  4.229339247E-04
   178  9.350215275E-04
   179 -5.908252327E-03
   180  4.771045889E-03
   181  2.444267916E-02
   182 -9.319363959E-03
   183 -1.774377847E-02
   184  5.080114458E-03
   185  4.056930924E-02
   186  1.179556946E-01
   187  2.901019698E-02
   188  3.282444889E-02
   189  1.124624335E-01
   190 -4.334498540E-03
   191 -8.153312191E-04
   192 -4.212989491E-03
   193  5.016049953E-03
   194 -8.278591713E-03
   195 -1.132270754E+00
   196  3.942784842E+00
   197  3.508544073E-01
   198 -1.883940404E-02
   199  4.728076165E-03
   200  7.903329442E-03
   201  6.011427680E-03
   202  1.704455877E-02
   203  2.514164082E-02
   204 -2.950859748E-02
   205  8.142559925E-03
   206  2.804749425E-02
   207  3.683173808E-02
   208  5.032379005E-03
   209  2.845487875E-02
   210  2.809700452E-02
   211  1.272399954E-01
   212  5.146484602E-03
   213  1.256213489E-03
   214  1.041957320E-04
   215  3.568872543E-03
   216 -6.946120871E-04
   217 -2.393463142E+01
   218 -1.305253956E+00
   219  2.052820412E-01
   220 -7.141696844E+00
   221  3.683993466E-04
   222  6.053631788E-04
   223  8.820604700E-03
   224  1.133612423E-02
   225  4.115225331E-02
   226 -1.889375129E-03
   227  1.354888230E-02
   228  1.774119428E-02
   229  6.288941776E-02
   230 -1.028699763E-02
   231  3.317155775E-02
   232  4.132428016E-02
   233  1.570886904E-01
   234 -7.723499644E-03
   235 -5.222063504E-03
   236 -2.817603778E-03
   237  5.040933291E-03
   238 -2.279399089E-03
   239  8.125752485E-01
   240  1.511841608E-01
   241  5.040004432E-02
   242  8.399438836E-01
   243 -1.470840320E-03
   244  7.052223610E-02
   245 -7.526486363E-01
   246 -6.775385298E-04
   247  4.867815244E-03
   248 -1.904482316E-03
   249 -1.909878142E+00
   250 -2.153514787E-03
   251 -7.781323760E-02
   252  3.244958039E-01
   253 -6.715934852E-04
   254 -5.115915018E-03
   255 -3.559745451E-03
   256  4.101297173E+00
   257 -2.000830472E-03
   258 -8.031641312E-02
   259  3.710940376E-01
   260 -2.154767576E-03
   261 -5.157406628E-03
   262 -3.098689611E-03
   263  4.065653288E+00
   264 -1.235170888E-03
   265  7.456989012E-02
   266 -7.493992105E-01
   267  1.361317858E-03
   268  4.697881539E-03
   269 -2.510551647E-03
   270 -2.188094904E+00
   271 -5.181026883E-03
   272 -3.641110110E-02
   273  2.686806156E-01
   274  3.066732251E-03
   275 -3.410472035E-03
   276 -5.928021030E-03
   277  1.161265853E+00
   278  1.429930422E-03
   279 -7.535976892E-02
   280  3.963309984E-01
   281 -1.584676193E-03
   282 -8.372944739E-04
   283 -6.624021640E-03
   284  4.254390534E+00
   285  7.625932881E-03
   286  6.444911624E-02
   287 -3.557748998E-01
   288 -7.307320408E-04
   289  5.002771417E-04
   290 -1.880199678E-03
   291 -1.815588310E+00
   292 -4.493521797E-03
   293 -3.169301240E-02
   294  2.320506314E-01
   295 -5.068123348E-03
   296 -2.006090589E-03
   297 -3.869178250E-03
   298  1.018341579E+00
   299 -8.299917898E-04
   300  3.375658176E-02
   301 -1.822492341E-01
   302 -2.808118642E-03
   303 -2.033402782E-04
   304 -8.468805964E-04
   305 -1.914042691E+00
   306 -3.349350846E-03
   307 -2.908751480E-02
   308  1.638958447E-01
   309 -2.655910905E-03
   310  1.646097544E-03
   311  6.918287309E-03
   312  8.128509158E-01
   313  9.443090612E-03
   314  5.708876476E-02
   315 -4.663227861E-01
   316 -2.691560995E-03
   317 -5.314910188E-04
   318 -1.249953277E-02
   319 -1.954423742E+00
   320 -9.987419134E-04
   321  3.996599403E-02
   322 -2.196348030E-01
   323  2.381281320E-03
   324 -1.066993455E-03
   325 -2.243823716E-03
   326 -2.221493977E+00
   327 -3.923606754E-03
   328 -3.346758019E-02
   329  1.811944947E-01
   330  5.401207940E-03
   331  3.395303740E-04
   332  4.731826766E-03
   333  9.473370138E-01
   334  3.677287141E-03
   335  7.346811039E-03
   336  4.085610460E-01
   337  2.184051936E-03
   338 -1.613490215E-03
   339 -2.043063221E-03
   340 -2.167791985E+00
   341  3.622244237E-03
   342 -4.195177287E-04
   343  4.618643600E-01
   344 -2.963376797E-03
   345 -1.289849017E-03
   346 -6.602416884E-04
   347 -1.861580005E+00
   348  5.492321924E-03
   349  2.524649036E-02
   350  6.780023897E-02
   351  9.436106639E-03
   352  7.781907917E-04
   353  2.488683343E-03
   354  7.028796923E-01
   355 -1.005350263E-02
   356 -4.553871460E-02
   357 -1.113072943E-01
   358 -2.663284013E-03
   359 -3.335172573E-03
   360 -8.230003862E-03
   361 -1.319320249E+00
   362  4.779655672E-03
   363  2.265498722E-02
   364  5.477061322E-02
   365 -6.541860734E-03
   366  3.059085043E-03
   367  6.672436786E-03
   368  5.935086549E-01
Ene=    1.2123922999E-01
Spin= Alpha
Occup=   0.0000000
     1  1.595624323E-04
     2  2.569275571E-04
     3 -7.465763062E-03
     4  1.091186785E-03
     5  1.440787060E-03
     6 -7.964085786E-04
     7 -4.787598143E-03
     8  9.202411795E-04
     9  1.064380460E-03
    10 -3.243691501E-03
    11 -4.803092523E-02
    12  5.410674907E-03
    13  8.289574434E-03
    14  1.480396742E-03
    15 -3.223704505E-03
    16  3.813094279E-04
    17 -5.039898434E-04
    18  1.326288375E-03
    19  2.315284292E-01
    20 -5.992981986E+00
    21  6.233271467E-01
    22  1.063388893E+00
    23  4.139054156E-03
    24  6.940200935E-03
    25  3.416889305E-02
    26  6.126172654E-03
    27 -1.727408999E-03
    28 -2.630014049E-02
    29  5.941262098E-02
    30  1.302290566E-02
    31  5.552254116E-03
    32  6.613720465E-03
    33  1.037154016E-01
    34 -2.475162204E-02
    35 -4.427623491E-02
    36  2.166429903E-03
    37 -1.225785351E-03
    38  1.966842496E-03
    39  2.406773553E-03
    40 -4.936253159E-03
    41 -1.974126996E+01
    42 -5.818452749E+00
    43  2.569412274E+00
    44  1.554449856E+00
    45 -4.392518731E-03
    46 -7.380268425E-03
    47  2.928679922E-02
    48 -1.395766571E-02
    49 -8.646018060E-03
    50  2.824541841E-02
    51  4.626412841E-02
    52 -2.564929907E-02
    53 -2.209137733E-02
    54 -1.141812406E-02
    55  1.202554335E-01
    56 -5.585150043E-03
    57  4.219693333E-03
    58 -8.876907631E-04
    59 -1.279782677E-03
    60 -1.534454023E-04
    61 -5.452167735E-03
    62 -3.211781737E-03
    63  2.058902199E+01
    64 -6.633994918E+00
    65 -1.059172000E+00
    66  7.225052029E-01
    67 -1.164952116E-03
    68 -1.629437308E-03
    69  3.322441273E-02
    70 -1.387487704E-02
    71 -1.614672610E-02
    72 -4.176632977E-03
    73  6.680181755E-02
    74 -2.299000571E-02
    75 -3.599828079E-02
    76  2.848109401E-01
    77  2.964115076E-02
    78 -1.232537801E-02
    79  4.119699879E-02
    80  1.328076693E-03
    81 -9.116216949E-03
    82  6.618117564E-03
    83  4.084913163E-03
    84  6.108358941E-04
    85  1.719834112E+01
    86  1.049344424E+00
    87  7.457936252E-01
    88  1.369613079E+00
    89  4.033831272E-05
    90  4.564490287E-05
    91  1.640747194E-02
    92 -1.109535553E-03
    93 -2.235063953E-03
    94  4.897915272E-04
    95  2.099435992E-02
    96 -6.565099348E-04
    97 -1.991509476E-03
    98 -1.144203679E-02
    99  1.161226193E-01
   100 -1.201143240E-02
   101 -2.065319735E-02
   102 -4.504684491E-03
   103  1.051358184E-02
   104 -1.242794731E-04
   105  7.099389550E-04
   106 -6.085236049E-03
   107  2.069280229E-03
   108  3.157591985E+00
   109 -5.955928763E-01
   110 -8.619735171E-01
   111  1.349778640E-03
   112  1.923707563E-03
   113  4.057380063E-02
   114  4.845210003E-03
   115  1.934597680E-03
   116  3.640778683E-03
   117  8.197825377E-02
   118  4.592011477E-03
   119  6.971286895E-03
   120 -3.016195575E-01
   121  8.756417713E-03
   122  7.156505993E-03
   123 -4.105773805E-02
   124  4.869297164E-03
   125 -6.779922540E-03
   126 -4.106808251E-03
   127 -7.970756563E-03
   128  1.048603467E-03
   129 -1.819202449E+01
   130  1.571105228E-01
   131 -7.726369694E-01
   132 -1.304922365E+00
   133  1.017249164E-03
   134  2.091793452E-03
   135  3.557425009E-02
   136 -6.220962184E-03
   137  4.438769587E-03
   138 -1.761485425E-02
   139  6.535939384E-02
   140 -1.481055770E-02
   141  1.390257948E-02
   142  1.899580633E-01
   143  1.117884045E-01
   144 -1.189146372E-02
   145 -2.254250504E-02
   146 -3.071137337E-03
   147  5.648530452E-03
   148  4.928282389E-03
   149  2.585427312E-03
   150  5.274386948E-03
   151 -2.365883773E+00
   152 -4.018811270E+00
   153  4.778175290E-01
   154 -3.007048302E+00
   155 -2.142735606E-04
   156 -3.451687369E-04
   157  1.751948821E-02
   158 -1.963761011E-03
   159 -1.827948425E-03
   160  8.293180871E-04
   161  3.228286085E-02
   162 -3.505254023E-03
   163 -2.968370678E-03
   164  1.479855813E-02
   165  8.304364459E-02
   166 -1.028889202E-02
   167 -1.936391716E-02
   168  2.176081603E-03
   169 -4.389794587E-03
   170 -7.648621026E-04
   171  1.162503759E-03
   172  8.231475118E-03
   173  7.621716726E-01
   174  3.120950528E+00
   175 -3.357377919E-01
   176 -7.689262404E-01
   177 -8.119363121E-04
   178 -1.727424821E-03
   179  3.085337388E-02
   180 -2.054251745E-03
   181 -1.709688717E-02
   182  1.582313162E-02
   183  5.441137874E-02
   184 -5.076364991E-04
   185 -3.713467154E-02
   186 -1.812066322E-01
   187  1.131981620E-01
   188 -1.330336951E-02
   189 -1.851055280E-02
   190 -1.675429993E-03
   191  4.620945503E-03
   192 -8.641102029E-03
   193  2.667086741E-03
   194  1.584781874E-03
   195  2.921539681E+00
   196 -2.140980596E+00
   197  4.996342700E-01
   198  4.505955772E+00
   199  1.636654022E-04
   200  2.723169345E-04
   201  4.234218667E-02
   202 -4.741698274E-03
   203 -8.108289954E-03
   204 -1.001671454E-03
   205  8.506114169E-02
   206 -9.724616024E-03
   207 -1.689527800E-02
   208  7.591594223E-04
   209  6.739090193E-02
   210 -8.300115122E-03
   211 -9.920519269E-03
   212  1.616331021E-04
   213  1.390244488E-04
   214  9.634134550E-04
   215 -1.405137162E-03
   216 -5.269701984E-03
   217 -1.408858160E+00
   218 -4.652270256E+00
   219  6.915860746E-01
   220  6.078570566E-01
   221  5.039183420E-05
   222  7.921213957E-05
   223  4.239763676E-02
   224 -5.277904598E-03
   225 -7.408110648E-03
   226 -1.930233856E-04
   227  6.492656981E-02
   228 -7.946063092E-03
   229 -1.113544590E-02
   230 -2.179467015E-03
   231  1.616919467E-01
   232 -2.104531503E-02
   233 -3.019297711E-02
   234 -4.072023588E-03
   235  9.502799455E-03
   236 -1.906576497E-03
   237  3.008759129E-03
   238  1.698006891E-03
   239  4.380660454E-02
   240  8.107457529E-01
   241 -1.093879449E-01
   242 -1.673437034E-01
   243  3.497990236E-03
   244  5.066739316E-02
   245  2.197797554E-02
   246 -4.356156811E-03
   247  2.075694315E-03
   248 -1.325263699E-03
   249 -3.546824751E+00
   250  2.502467140E-03
   251 -4.394364854E-02
   252  6.872715774E-01
   253 -1.894886823E-04
   254 -3.373195532E-03
   255  1.746551577E-03
   256  1.730239808E-01
   257 -2.765188977E-03
   258  3.658794730E-02
   259 -6.596346532E-01
   260 -3.455567472E-04
   261  2.973007015E-03
   262 -2.005166750E-03
   263  1.943103212E-01
   264 -3.203154919E-03
   265 -4.409225880E-02
   266 -8.048501843E-02
   267 -3.683381579E-03
   268 -5.789299696E-04
   269  2.867027884E-03
   270  3.442849466E+00
   271  8.177237219E-03
   272  5.085679841E-02
   273 -3.893867682E-01
   274 -8.649583027E-03
   275  4.537406586E-03
   276  5.094072175E-03
   277 -1.681398964E+00
   278  5.614619864E-05
   279 -3.756997237E-03
   280  2.512314875E-02
   281  5.778065752E-05
   282 -2.529045597E-05
   283 -2.978395257E-04
   284  1.774955046E-01
   285  3.732371277E-04
   286  3.877286699E-03
   287 -1.189967910E-02
   288  8.450886298E-03
   289 -1.201673822E-03
   290 -1.938424132E-03
   291 -1.231505626E-01
   292 -8.520685027E-03
   293 -5.271225818E-02
   294  4.053153330E-01
   295 -1.120955100E-02
   296 -2.105262552E-03
   297 -1.168763746E-03
   298  1.719317451E+00
   299 -1.444195570E-03
   300  6.722569051E-02
   301 -3.696677156E-01
   302 -5.736890597E-03
   303 -8.294128606E-04
   304 -1.468539602E-03
   305 -3.761056822E+00
   306 -6.955161298E-03
   307 -5.618052795E-02
   308  2.916339850E-01
   309 -4.577834655E-04
   310 -2.000062160E-03
   311 -3.885401016E-03
   312  1.605551285E+00
   313  6.006081838E-04
   314  2.553048065E-03
   315 -1.232188857E-02
   316 -3.170680982E-03
   317  3.713074620E-04
   318  1.502050673E-04
   319 -5.706046920E-02
   320  1.352921181E-03
   321 -6.344122989E-02
   322  3.396998787E-01
   323 -3.908294504E-03
   324  2.062722542E-03
   325  3.589786888E-03
   326  3.595749143E+00
   327  6.548371975E-03
   328  5.531667329E-02
   329 -2.965930404E-01
   330  2.291024564E-03
   331  1.772793195E-03
   332  4.094484352E-03
   333 -1.543518436E+00
   334 -5.731974585E-04
   335 -8.809660125E-02
   336  6.487287735E-01
   337 -2.553895358E-03
   338 -4.207617706E-03
   339  3.968065553E-03
   340  3.365679759E+00
   341  8.601488536E-04
   342  8.708411605E-02
   343 -5.922814483E-01
   344 -2.908015430E-03
   345  5.082592425E-03
   346 -2.818110447E-03
   347 -3.590106086E+00
   348 -8.484706359E-03
   349 -3.877088137E-02
   350 -1.002396997E-01
   351 -2.018033423E-03
   352  1.638518690E-03
   353  9.013343093E-03
   354 -1.130950632E+00
   355 -1.627981678E-04
   356 -1.671660618E-03
   357  2.790009761E-03
   358  9.463725083E-03
   359 -1.452035205E-03
   360 -2.396363522E-03
   361 -3.219061523E-02
   362  8.774012498E-03
   363  4.036492954E-02
   364  1.020852646E-01
   365 -6.452267395E-03
   366 -3.378233456E-04
   367 -6.889769801E-03
   368  1.153967061E+00
Ene=    1.2322003868E-01
Spin= Alpha
Occup=   0.0000000
     1 -8.834854696E-03
     2 -1.352338900E-02
     3 -1.788560811E-03
     4 -2.538866538E-02
     5  6.674534815E-03
     6  1.454234077E-02
     7 -3.529867217E-03
     8 -5.175386606E-02
     9  1.414841224E-02
    10  6.138867277E-01
    11  6.550344739E-04
    12  3.029747521E-02
    13 -1.333629899E-02
    14 -7.014612415E-03
    15 -7.488268462E-04
    16 -8.275205929E-03
    17 -1.440827360E-02
    18  2.143950745E-03
    19  6.896259572E+00
    20  8.477618363E-01
    21  1.083463281E+01
    22 -3.080313560E+00
    23  1.082486373E-02
    24  1.840265632E-02
    25  4.636085853E-03
    26 -3.433829319E-02
    27  3.396627465E-03
    28 -6.906041148E-02
    29  8.917688677E-03
    30 -5.401425740E-02
    31  4.036572729E-03
    32  3.166438303E-03
    33 -5.751162462E-03
    34 -1.594490590E-01
    35  4.288845463E-02
    36  3.652392104E-04
    37 -8.103390774E-03
    38  2.410517797E-03
    39  2.181716533E-03
    40 -3.609817868E-03
    41  2.411799397E+00
    42 -1.217766977E+00
    43  2.036540337E+00
    44  6.346045398E-01
    45  1.081440225E-02
    46  1.839080215E-02
    47 -1.070851525E-02
    48 -3.227546835E-02
    49  6.615270107E-03
    50 -6.914089939E-02
    51 -1.872284662E-02
    52 -5.040819440E-02
    53  9.608731416E-03
    54  3.799734159E-03
    55 -1.643662197E-02
    56 -1.585795222E-01
    57  4.554252535E-02
    58 -4.731916720E-03
    59  4.599089211E-03
    60 -6.835564441E-04
    61  6.709907500E-03
    62  1.337927926E-03
    63  2.803710482E+00
    64  1.741361056E+00
    65  1.501350320E+00
    66  9.390305864E-02
    67  1.352228339E-03
    68  2.360931295E-03
    69  1.257260256E-03
    70 -1.608119967E-03
    71 -1.477831492E-04
    72 -6.959185295E-03
    73 -3.725194940E-03
    74 -8.784799961E-03
    75  6.520075662E-03
    76 -8.820420783E-02
    77  1.192613199E-01
    78 -1.777980595E-02
    79 -1.098491362E-01
    80 -3.248799861E-03
    81 -3.378089718E-03
    82  3.398765225E-03
    83 -3.528157844E-03
    84 -5.776984198E-03
    85  3.482258527E+00
    86  1.466879907E+00
    87 -1.270036090E+00
    88 -9.051388597E-01
    89 -2.258011068E-03
    90 -3.737973170E-03
    91 -7.256964504E-03
    92 -5.799451052E-02
    93  2.111945904E-03
    94  1.388100415E-02
    95 -1.389516348E-02
    96 -1.067292423E-01
    97  1.915886064E-03
    98 -7.305709630E-02
    99 -1.202551045E-02
   100 -1.828375886E-01
   101  5.276541322E-02
   102  1.631406855E-03
   103  3.385402645E-04
   104 -5.463703455E-04
   105  1.292476804E-03
   106 -4.924026378E-04
   107 -7.367852701E-01
   108  7.666799194E-01
   109  4.891816542E+00
   110  2.961745783E-01
   111  1.377252430E-03
   112  2.401401536E-03
   113 -1.206266833E-03
   114 -1.440763927E-03
   115  3.274483753E-04
   116 -7.055186707E-03
   117  4.493227871E-03
   118 -1.001509618E-02
   119  4.800360934E-03
   120 -9.043017961E-02
   121 -1.540567577E-01
   122  1.637792220E-02
   123 -5.148770244E-02
   124 -5.061781540E-03
   125  1.023763971E-03
   126 -1.903304793E-04
   127  1.183743953E-03
   128  7.196671985E-03
   129  3.241308718E+00
   130 -1.982844362E+00
   131 -9.475679542E-01
   132 -2.398212707E-01
   133 -2.382459920E-03
   134 -3.933807438E-03
   135  1.021191936E-02
   136 -5.440843505E-02
   137  1.967759485E-02
   138  1.438131595E-02
   139  2.101116598E-02
   140 -9.942221032E-02
   141  3.683522601E-02
   142 -6.814343764E-02
   143 -1.448063195E-02
   144 -1.859394849E-01
   145  5.168731615E-02
   146 -2.130803327E-05
   147 -2.020462722E-04
   148  8.041321719E-04
   149  1.773786852E-03
   150  1.460004969E-03
   151 -1.349282917E-01
   152 -1.307539110E+00
   153  4.605681031E+00
   154 -1.672570382E+00
   155  1.121369719E-03
   156  1.984921794E-03
   157  2.786135737E-04
   158 -1.215078315E-03
   159  2.168235985E-03
   160 -5.825878554E-03
   161 -1.870320402E-03
   162 -1.145332275E-02
   163 -8.535423798E-04
   164 -8.350621523E-02
   165  4.261300964E-02
   166  6.100770866E-02
   167  1.470262933E-01
   168  6.392135107E-03
   169  2.227881114E-03
   170 -5.629056830E-03
   171 -2.139380002E-03
   172 -5.675576567E-04
   173  3.642407549E+00
   174  4.381441513E-01
   175 -4.154328374E-01
   176  2.083345570E+00
   177 -2.436818097E-03
   178 -4.028212623E-03
   179 -1.418378631E-02
   180 -5.096284385E-02
   181  2.503469728E-02
   182  1.481144076E-02
   183 -2.779370950E-02
   184 -9.274812320E-02
   185  4.742002528E-02
   186 -6.922355995E-02
   187 -1.047072696E-02
   188 -1.853387136E-01
   189  5.140349031E-02
   190 -9.318294566E-06
   191 -1.329212884E-04
   192  1.540236059E-03
   193  8.449780862E-04
   194 -1.632363541E-03
   195 -5.189859611E-01
   196  1.633974043E+00
   197  4.151346988E+00
   198 -2.379929184E+00
   199  1.107853849E-02
   200  1.882561872E-02
   201  2.806194717E-04
   202 -2.939347087E-02
   203  1.743624825E-02
   204 -7.032598863E-02
   205  1.047670488E-03
   206 -4.552061750E-02
   207  2.912950714E-02
   208 -5.560478566E-03
   209 -9.558931081E-03
   210 -1.553851338E-01
   211  4.753770771E-02
   212  8.202751122E-03
   213  4.052485770E-03
   214  2.523009010E-03
   215 -1.460731905E-03
   216  1.135910498E-03
   217  2.564158676E+00
   218 -3.554234499E-01
   219  1.157923376E+00
   220 -2.128045763E+00
   221  5.534888141E-03
   222  8.809227547E-03
   223 -1.999992209E-03
   224 -3.190765225E-02
   225  9.350179865E-03
   226 -8.401695896E-03
   227 -2.556620746E-03
   228 -4.221317896E-02
   229  1.224055163E-02
   230 -3.895235274E-01
   231  5.023436312E-04
   232 -4.960953865E-03
   233  4.804277353E-03
   234  3.030788714E-03
   235  2.079798190E-04
   236  3.669820302E-03
   237  6.479844146E-03
   238 -1.027665784E-03
   239 -1.545745667E+01
   240  2.715599657E-01
   241  3.749162567E+00
   242 -1.034031561E+00
   243 -3.509064709E-03
   244  4.568059096E-02
   245 -3.085667286E-01
   246 -5.863075005E-03
   247  2.647246690E-03
   248 -9.703687501E-05
   249 -1.969418214E+00
   250 -3.628832665E-03
   251  4.290571442E-02
   252 -2.960394526E-01
   253 -7.349342075E-04
   254  3.589953189E-03
   255  5.182539890E-03
   256 -1.878511645E+00
   257 -3.676961177E-03
   258  4.436202256E-02
   259 -3.174675611E-01
   260  3.781489044E-03
   261  2.941540440E-03
   262  4.231322478E-03
   263 -1.911349786E+00
   264 -3.568659359E-03
   265  4.441997655E-02
   266 -3.095397947E-01
   267  5.743064236E-03
   268  1.005701846E-03
   269 -2.540706012E-03
   270 -1.852617870E+00
   271 -2.621816053E-03
   272  4.112274783E-02
   273 -4.783885318E-02
   274  8.670398257E-04
   275  4.645726363E-03
   276 -1.834422721E-03
   277  2.708167744E-01
   278 -2.437189974E-03
   279  8.140802691E-02
   280 -7.107656512E-01
   281  8.885979870E-04
   282 -1.895208004E-03
   283  5.073360028E-03
   284 -2.286496151E+00
   285  3.268599765E-03
   286 -1.029280470E-01
   287  4.701522664E-01
   288  1.251641370E-03
   289  9.246961450E-03
   290 -2.204478594E-04
   291  4.115813383E+00
   292 -2.792310858E-03
   293  4.015263145E-02
   294 -4.284501914E-02
   295 -3.927718451E-04
   296  4.864757457E-03
   297 -1.547096661E-03
   298  2.759832454E-01
   299 -2.508951806E-03
   300  8.386864846E-02
   301 -7.383213849E-01
   302 -4.643374956E-03
   303 -3.109197422E-03
   304 -3.661209412E-04
   305 -2.365200203E+00
   306  2.993155470E-03
   307 -1.036553412E-01
   308  4.581378665E-01
   309 -1.790981107E-03
   310  8.713274434E-03
   311 -2.932628914E-03
   312  4.201306494E+00
   313 -2.558920521E-03
   314  4.183363180E-02
   315 -5.092201166E-02
   316  5.291217388E-04
   317  5.208903590E-03
   318 -8.669243300E-04
   319  3.029507274E-01
   320 -2.475214644E-03
   321  8.259138378E-02
   322 -7.250802971E-01
   323  3.012011811E-03
   324 -4.194830203E-03
   325 -2.037137085E-03
   326 -2.371897270E+00
   327  3.030019343E-03
   328 -1.040582915E-01
   329  4.709397954E-01
   330  2.566778793E-03
   331  8.136406630E-03
   332 -3.914895261E-03
   333  4.194025474E+00
   334 -3.681618436E-03
   335  4.429619409E-02
   336 -3.099723671E-01
   337  2.481380285E-03
   338  2.328482631E-04
   339 -5.848608501E-03
   340 -1.941866861E+00
   341 -3.649710810E-03
   342  4.580221252E-02
   343 -3.179980082E-01
   344 -4.608310485E-03
   345  1.236795643E-03
   346 -4.378153442E-03
   347 -1.975057977E+00
   348  5.738415557E-04
   349  3.439717949E-02
   350 -4.806413313E-02
   351  1.738032861E-03
   352 -3.381385208E-03
   353 -8.489157977E-04
   354 -2.223503263E-01
   355  3.989624956E-04
   356  3.418122217E-02
   357 -6.048640261E-02
   358  3.793364565E-04
   359 -2.095613632E-03
   360  3.133577982E-03
   361 -2.900102490E-01
   362  5.044213008E-04
   363  3.393275903E-02
   364 -4.792833562E-02
   365 -2.821632962E-03
   366 -2.736297102E-03
   367  1.141820438E-04
   368 -2.419429854E-01
Ene=    1.2973264665E-01
Spin= Alpha
Occup=   0.0000000
     1 -6.078065289E-05
     2 -9.812435593E-05
     3 -2.908526430E-05
     4  1.203716260E-04
     5 -6.417279443E-05
     6  2.251195551E-04
     7 -3.748109363E-05
     8  8.095782251E-05
     9 -3.604744600E-05
    10  1.536738709E-03
    11 -7.171805662E-05
    12  7.313875286E-04
    13 -6.811541532E-04
    14  4.680003084E-05
    15  1.623231541E-05
    16  1.439396547E-05
    17  6.978188047E-05
    18 -2.798946793E-05
    19 -2.319312640E-02
    20  8.458829879E-03
    21 -1.712195666E-01
    22  9.477758390E-02
    23  1.365728797E-05
    24  1.903268321E-05
    25  2.872824270E-03
    26  5.686249171E-04
    27  2.963034677E-03
    28  3.028945481E-05
    29  9.154129471E-04
    30  1.387401768E-04
    31  8.608058499E-04
    32 -9.313857351E-04
    33  1.843806881E-02
    34  3.832268735E-03
    35  2.054427907E-02
    36 -3.477769334E-04
    37 -1.715049920E-05
    38 -3.203916502E-05
    39  1.171021381E-04
    40  1.078700103E-04
    41 -3.983181061E-02
    42  2.283298591E+00
    43  5.104161238E-01
    44  2.379352565E+00
    45 -2.819831224E-05
    46 -4.987612469E-05
    47  1.039726074E-03
    48 -1.176354583E-03
    49 -3.473322779E-03
    50  2.596827000E-04
    51  5.589164828E-05
    52 -2.622401338E-04
    53 -5.931140382E-04
    54 -1.008448455E-04
    55  8.223009249E-03
    56 -8.244368052E-03
    57 -2.302058539E-02
    58  2.689204665E-04
    59  2.617375189E-04
    60 -1.459056904E-04
    61 -7.794565079E-05
    62  1.405164983E-04
    63 -1.659613607E-01
    64  9.797585528E-01
    65 -9.279240265E-01
    66 -3.101856707E+00
    67 -6.968802843E-05
    68 -1.186922368E-04
    69 -2.374704873E-02
    70 -5.048885666E-03
    71 -2.413532616E-02
    72  4.790095357E-04
    73 -3.198379677E-02
    74 -6.834365631E-03
    75 -3.249406092E-02
    76 -3.391498543E-04
    77 -6.482131733E-02
    78 -1.310064674E-02
    79 -6.469626748E-02
    80  6.789162030E-03
    81 -3.311094505E-04
    82  1.648510527E-03
    83 -4.297080570E-03
    84 -1.212092539E-04
    85 -2.606443717E-01
    86 -1.685755180E+00
    87 -3.644148098E-01
    88 -1.660528520E+00
    89  4.843783830E-05
    90  8.296610578E-05
    91  1.932775881E-02
    92 -2.829469933E-03
    93 -4.229292519E-03
    94 -3.563698307E-04
    95  2.085088472E-02
    96 -3.254031235E-03
    97 -4.660745588E-03
    98  1.067704864E-03
    99  8.003250467E-02
   100 -1.105375191E-02
   101 -1.786956746E-02
   102  5.021699900E-03
   103 -1.282369837E-02
   104  6.160685318E-04
   105 -1.412660253E-03
   106  5.675194696E-03
   107  2.612783054E-01
   108 -3.914804477E+00
   109  5.823345632E-01
   110  8.118799369E-01
   111 -2.284912078E-05
   112 -3.990941666E-05
   113 -9.407657628E-03
   114  9.673968808E-03
   115  3.161359760E-02
   116  1.753988771E-04
   117 -1.266365460E-02
   118  1.300928343E-02
   119  4.268479817E-02
   120 -4.016067323E-04
   121 -2.419017847E-02
   122  2.551945301E-02
   123  8.387356624E-02
   124 -4.062385089E-03
   125 -6.343904547E-03
   126 -2.599160487E-06
   127  1.848159245E-03
   128 -2.349379613E-03
   129 -1.907081675E-01
   130 -6.314208232E-01
   131  6.939940793E-01
   132  2.197281550E+00
   133 -6.001279069E-05
   134 -9.760297781E-05
   135 -5.538581290E-03
   136  5.480133085E-03
   137  1.846052880E-02
   138  2.792170319E-04
   139 -5.847415026E-03
   140  5.907166184E-03
   141  1.998978589E-02
   142  2.039779014E-03
   143 -2.350381021E-02
   144  2.194169410E-02
   145  7.692994206E-02
   146  1.602372292E-03
   147  1.095353262E-02
   148  8.248297886E-03
   149 -5.826331289E-03
   150  9.955651369E-04
   151  2.092717224E-01
   152  1.156539017E+00
   153 -1.104891289E+00
   154 -3.743967828E+00
   155 -9.403053708E-05
   156 -1.570836047E-04
   157  3.322934591E-02
   158 -4.564769576E-03
   159 -7.598471804E-03
   160  5.331968090E-04
   161  4.477084982E-02
   162 -6.158356530E-03
   163 -1.037263658E-02
   164  7.316254496E-04
   165  8.857392493E-02
   166 -1.242431219E-02
   167 -2.031571302E-02
   168 -2.680312033E-03
   169  6.696143817E-03
   170 -1.600328138E-03
   171  2.363582505E-03
   172  2.492806928E-03
   173 -2.163383095E-01
   174  2.344349616E+00
   175 -3.189749904E-01
   176 -5.378082124E-01
   177 -1.725431815E-05
   178 -2.747644555E-05
   179 -1.386812836E-02
   180 -3.057947047E-03
   181 -1.398851372E-02
   182  4.867077081E-05
   183 -1.499986621E-02
   184 -3.276314685E-03
   185 -1.497313397E-02
   186  1.288373252E-03
   187 -5.797015148E-02
   188 -1.356760928E-02
   189 -5.860527934E-02
   190 -6.626140904E-03
   191  1.909313126E-03
   192 -8.975895916E-03
   193  7.274128049E-03
   194 -6.731987135E-03
   195  9.103662465E-02
   196  2.807604695E+00
   197  6.179911860E-01
   198  2.883752146E+00
   199  5.574173291E-05
   200  8.613008159E-05
   201 -3.930390394E-03
   202  5.575597945E-04
   203  9.498926678E-04
   204 -8.385680873E-05
   205 -1.079879494E-03
   206  2.340527163E-04
   207  4.013161809E-04
   208 -3.915334131E-03
   209 -2.609120827E-02
   210  2.639666786E-03
   211  4.851523989E-03
   212  2.232244371E-05
   213 -2.525085899E-04
   214  1.104491584E-04
   215 -1.839803708E-04
   216 -2.504414075E-04
   217  5.773655825E-02
   218 -3.233949961E+00
   219  4.498320800E-01
   220  7.160139826E-01
   221  2.142058415E-04
   222  3.550586198E-04
   223 -1.093950348E-06
   224 -1.361980936E-04
   225  1.334110857E-04
   226 -1.061387415E-03
   227  6.261032188E-06
   228 -1.323929178E-04
   229  1.021688463E-04
   230 -4.694828904E-03
   231  1.224852679E-04
   232 -2.492475528E-04
   233  1.183560142E-03
   234 -3.209994244E-05
   235 -5.631315917E-05
   236 -1.354416540E-05
   237 -5.906168566E-05
   238  1.620971837E-05
   239  3.241446460E-01
   240 -1.350156521E-02
   241 -5.945440219E-02
   242  1.726245285E-02
   243  4.291634392E-04
   244 -2.555162232E-02
   245  3.004756072E-01
   246 -1.035041934E-03
   247  3.012560690E-03
   248 -6.342118053E-04
   249  4.562324677E+00
   250 -5.841230160E-04
   251  2.515810806E-02
   252 -2.999605733E-01
   253  1.444987712E-05
   254 -3.175645597E-03
   255 -4.173790401E-04
   256 -4.596883151E+00
   257  4.793501970E-04
   258 -2.630719287E-02
   259  3.058571396E-01
   260  9.984052503E-04
   261  3.014146882E-03
   262  1.353005744E-04
   263  4.596141485E+00
   264 -5.526201756E-04
   265  2.587548499E-02
   266 -3.012227258E-01
   267 -1.418576208E-03
   268 -2.603238759E-03
   269  1.148734684E-03
   270 -4.619168142E+00
   271 -3.994203399E-05
   272 -6.118798200E-04
   273  3.950087740E-03
   274  6.041601970E-03
   275  1.334351890E-03
   276  6.129275585E-03
   277  1.241252719E-02
   278 -6.144909397E-05
   279  7.815291391E-04
   280 -9.106473888E-03
   281 -8.641618245E-03
   282  1.161631774E-03
   283  1.939080721E-03
   284 -9.739298548E-03
   285 -6.345611498E-06
   286 -2.371580210E-04
   287 -1.977663876E-03
   288 -5.220454768E-03
   289  7.133005149E-04
   290  1.140381341E-03
   291  1.447093065E-02
   292 -4.709230098E-05
   293 -7.520301696E-04
   294  4.038797467E-03
   295  2.370415701E-03
   296 -2.414595463E-03
   297 -7.941059963E-03
   298  6.637838374E-03
   299  1.458006741E-05
   300  4.851375431E-04
   301 -3.644279948E-03
   302  2.479902858E-03
   303 -2.501751813E-03
   304 -8.238896304E-03
   305 -1.937735060E-03
   306  1.221150454E-05
   307 -3.545830779E-04
   308 -8.874485142E-04
   309  1.524438290E-03
   310 -1.504408406E-03
   311 -4.960680555E-03
   312  1.821930578E-02
   313  1.968775424E-05
   314 -8.319261618E-04
   315  6.358544118E-03
   316 -8.358951926E-03
   317  1.214230006E-03
   318  1.869909061E-03
   319  2.165721418E-02
   320 -4.482816759E-07
   321  3.277462490E-04
   322 -1.101357232E-03
   323  6.214069988E-03
   324  1.364343689E-03
   325  6.310655848E-03
   326  8.905992929E-04
   327  1.305224429E-05
   328 -2.668589603E-04
   329 -7.827805179E-05
   330  3.756414196E-03
   331  8.163037726E-04
   332  3.878899764E-03
   333 -1.654940818E-03
   334  4.253802116E-04
   335 -2.547355487E-02
   336  2.967783207E-01
   337  6.754109528E-04
   338  2.495326768E-03
   339 -1.940522842E-03
   340  4.573788075E+00
   341 -5.076203178E-04
   342  2.558534010E-02
   343 -3.010166399E-01
   344  7.427596360E-04
   345 -2.626394162E-03
   346  1.637814228E-03
   347 -4.579175033E+00
   348  1.563449542E-05
   349  7.543346277E-04
   350 -3.580819056E-03
   351 -1.084411516E-03
   352 -2.193419293E-04
   353 -1.207749921E-03
   354 -4.515689137E-03
   355 -3.187215625E-05
   356  7.484575240E-04
   357 -7.000247377E-03
   358  1.565639499E-03
   359 -1.383452301E-04
   360 -3.454016500E-04
   361 -8.023023679E-03
   362 -1.038226707E-04
   363  7.472503991E-04
   364 -6.053653167E-03
   365 -4.907962372E-04
   366  5.046061641E-04
   367  1.508372763E-03
   368 -1.697613280E-02
Ene=    1.3140997256E-01
Spin= Alpha
Occup=   0.0000000
     1 -1.294421490E-02
     2 -2.128579291E-02
     3  2.348829630E-03
     4  3.019894426E-02
     5 -7.765604695E-03
     6  7.208108831E-02
     7  2.448657986E-03
     8  3.328416858E-02
     9 -8.642383767E-03
    10  6.084521472E-02
    11  1.803830031E-02
    12  2.183166075E-01
    13 -5.664570834E-02
    14  5.689740031E-03
    15  5.819418851E-04
    16  6.930631984E-03
    17  1.165619421E-02
    18 -1.657274141E-03
    19 -2.750000293E+01
    20 -5.638676216E-01
    21 -6.267463425E+00
    22  1.512982702E+00
    23  5.688004807E-03
    24  9.422074032E-03
    25  3.535298253E-03
    26  1.097734877E-02
    27 -5.588712598E-03
    28 -2.841151452E-02
    29  8.900070098E-03
    30  1.539587797E-02
    31 -1.133304559E-02
    32 -4.185180606E-02
    33 -6.431104758E-03
    34  3.993792226E-02
    35 -6.831124899E-03
    36 -1.962131084E-03
    37 -4.800384927E-03
    38 -8.108941261E-03
    39 -6.074533778E-03
    40  5.023324398E-03
    41  1.124861721E-01
    42  2.208868465E+00
    43  4.441335985E+00
    44 -3.137866231E+00
    45  5.733691902E-03
    46  9.496427078E-03
    47 -2.793514442E-03
    48  1.192014405E-02
    49 -4.155269857E-03
    50 -2.862990762E-02
    51 -8.818372602E-03
    52  1.798666888E-02
    53 -7.276241160E-03
    54 -4.254145246E-02
    55  1.247318533E-02
    56  3.763563471E-02
    57 -1.148077710E-02
    58 -4.969500361E-03
    59  2.861670589E-03
    60 -7.037687564E-03
    61 -7.098122208E-03
    62 -4.769161305E-03
    63 -1.963270032E-01
    64 -2.053658329E+00
    65  5.169881275E+00
    66 -2.243407723E+00
    67 -6.799200614E-03
    68 -1.145089334E-02
    69 -1.328810890E-02
    70  2.155216391E-02
    71  8.109449668E-03
    72  4.113101997E-02
    73 -1.802766948E-02
    74  3.360786479E-02
    75  9.923272913E-03
    76  3.381470299E-02
    77 -8.631681881E-02
    78  1.651884462E-02
    79  8.238443484E-02
    80  1.985251873E-03
    81  7.305429100E-03
    82  5.109569495E-03
    83  4.519122338E-03
    84 -1.806713923E-03
    85  1.467660891E+00
    86 -1.199150391E+00
    87  5.796260907E+00
    88 -1.751930227E-01
    89 -3.515471843E-03
    90 -6.235444786E-03
    91  3.050806480E-03
    92  2.295057862E-02
    93  3.941549171E-04
    94  3.144188139E-02
    95  5.336410964E-03
    96  4.533494210E-02
    97 -3.375185880E-03
    98 -4.999705457E-02
    99  1.925374636E-02
   100  5.179233123E-02
   101  6.213085453E-02
   102 -4.944642971E-03
   103 -4.983880684E-04
   104  2.058425759E-03
   105 -4.530602318E-03
   106  1.698092135E-03
   107  5.322459538E+00
   108 -8.295698057E-01
   109 -2.909776005E+00
   110 -2.028926538E+00
   111 -6.827918571E-03
   112 -1.150344402E-02
   113  2.056863501E-02
   114  1.709253625E-02
   115  4.259300282E-04
   116  4.144279042E-02
   117  2.838054743E-02
   118  2.741809353E-02
   119 -7.194419206E-04
   120  3.380468913E-02
   121  1.149042984E-01
   122 -8.538188177E-03
   123  3.941768927E-02
   124  6.545502230E-03
   125 -3.992568939E-03
   126  5.897082520E-03
   127  2.953969955E-03
   128  2.261286405E-03
   129  1.685692275E+00
   130  2.477884173E+00
   131  5.437021418E+00
   132 -9.700685669E-01
   133 -3.493590027E-03
   134 -6.223007641E-03
   135 -4.813552289E-03
   136  2.116980109E-02
   137 -7.897655673E-03
   138  3.190665798E-02
   139 -5.743414050E-03
   140  4.235312114E-02
   141 -1.507346783E-02
   142 -5.775275809E-02
   143 -7.088321936E-02
   144  3.638566238E-02
   145 -2.793357388E-02
   146 -5.028266476E-04
   147  9.266545735E-04
   148 -3.222868823E-03
   149 -4.977990960E-03
   150 -4.704841292E-03
   151  4.593004232E+00
   152  2.507421753E+00
   153 -2.241758895E+00
   154  1.371372507E+00
   155 -6.256530177E-03
   156 -1.055199965E-02
   157 -3.975143490E-03
   158  1.199070351E-02
   159 -2.454533022E-02
   160  3.791255289E-02
   161 -5.220654376E-03
   162  1.987329782E-02
   163 -3.500201803E-02
   164  2.900015566E-02
   165 -3.200363276E-02
   166 -3.747264692E-02
   167 -1.112370921E-01
   168 -5.663540510E-04
   169 -2.670890287E-03
   170 -1.472876434E-03
   171  9.099186621E-03
   172 -2.942651129E-03
   173  2.484039420E+00
   174 -8.711334891E-02
   175  5.045669122E+00
   176 -3.350247826E+00
   177 -3.553533790E-03
   178 -6.316243668E-03
   179  6.517484263E-03
   180  1.975991670E-02
   181 -1.032044874E-02
   182  3.199756876E-02
   183  9.888985577E-03
   184  4.056600361E-02
   185 -1.843579575E-02
   186 -5.403378234E-02
   187  5.925140573E-02
   188  1.933003899E-02
   189 -5.653281781E-02
   190  2.650160684E-05
   191 -6.047415098E-04
   192 -5.102538752E-03
   193 -2.643481802E-03
   194  4.976572169E-03
   195  4.873048872E+00
   196 -2.268795627E+00
   197 -1.580201951E+00
   198  2.443470833E+00
   199  5.310916686E-03
   200  8.775906633E-03
   201  1.720499565E-03
   202  1.197056436E-02
   203  7.629945546E-04
   204 -2.595728050E-02
   205  3.685773126E-03
   206  1.965264453E-02
   207  5.556103774E-03
   208 -3.669941972E-02
   209  1.519198050E-03
   210  3.580474958E-02
   211 -1.627232132E-02
   212 -4.941184640E-03
   213  7.254423728E-04
   214  1.579441161E-03
   215 -1.037865527E-02
   216  3.242082152E-03
   217 -1.677557455E+00
   218  9.652879748E-01
   219  5.760644029E+00
   220  6.302468228E-01
   221  3.655768214E-02
   222  6.059854019E-02
   223 -1.219154804E-03
   224 -1.704317957E-02
   225  5.441317826E-03
   226 -1.898132580E-01
   227 -5.832046816E-04
   228 -1.050906101E-02
   229  4.287559284E-03
   230 -6.072256995E-01
   231 -9.828346442E-03
   232 -1.302161206E-01
   233  3.542883724E-02
   234 -6.860340372E-03
   235 -5.873211598E-04
   236 -8.139955658E-03
   237 -1.406749156E-02
   238  2.090802150E-03
   239  1.837884717E+01
   240  6.524055523E-02
   241  1.036078504E+00
   242 -3.327664810E-01
   243 -1.172591611E-02
   244 -2.817862205E-03
   245 -3.341156983E-01
   246  1.188239036E-03
   247  4.903719104E-03
   248  1.453110008E-03
   249 -4.597277574E-01
   250 -1.137164053E-02
   251 -2.614128296E-03
   252 -3.128755944E-01
   253 -2.431508569E-03
   254  4.173323129E-03
   255 -2.257837138E-03
   256 -3.178585209E-01
   257 -1.141579823E-02
   258 -3.005778316E-03
   259 -3.058289262E-01
   260  2.232977200E-03
   261  3.547789472E-03
   262 -3.316255982E-03
   263 -3.755025149E-01
   264 -1.169245558E-02
   265 -2.914537070E-03
   266 -3.264558905E-01
   267  8.275302532E-04
   268  5.060886648E-03
   269  1.489587134E-03
   270 -4.643135623E-01
   271 -3.587463414E-03
   272 -4.435965815E-02
   273 -3.923056786E-02
   274  1.962237651E-03
   275  7.055547451E-03
   276 -3.403273325E-03
   277  8.109636861E-01
   278  1.052413264E-04
   279 -3.445931699E-02
   280  1.990657599E-01
   281 -6.449250627E-04
   282  1.585955389E-03
   283 -4.205630505E-03
   284  2.805402491E+00
   285  7.183415978E-03
   286  5.181983665E-02
   287 -1.985956301E-01
   288 -1.403032171E-03
   289 -4.792051930E-03
   290 -3.454472759E-03
   291 -1.526478545E+00
   292 -3.552143789E-03
   293 -4.386439776E-02
   294 -4.434993730E-02
   295 -1.350518325E-03
   296  7.541509162E-03
   297 -2.610902061E-03
   298  8.179520069E-01
   299  2.445835514E-04
   300 -3.557589435E-02
   301  2.147976239E-01
   302  3.792088985E-03
   303  2.745856732E-03
   304  1.583293284E-04
   305  2.913709064E+00
   306  7.613337645E-03
   307  5.190039248E-02
   308 -1.805467823E-01
   309  4.627751716E-03
   310 -3.601706793E-03
   311  2.167017178E-03
   312 -1.544996398E+00
   313 -3.602697801E-03
   314 -4.445616289E-02
   315 -4.921294441E-02
   316  1.071769550E-03
   317  7.725230190E-03
   318 -6.648473685E-05
   319  7.932234839E-01
   320  2.425272813E-04
   321 -3.575445463E-02
   322  2.104074403E-01
   323 -2.598817643E-03
   324  3.598252886E-03
   325  1.515230852E-03
   326  2.952616606E+00
   327  7.588262921E-03
   328  5.252829919E-02
   329 -1.922471901E-01
   330 -4.094204378E-03
   331 -2.456888031E-03
   332  4.019182761E-03
   333 -1.545616645E+00
   334 -1.114533166E-02
   335 -3.985081093E-03
   336 -2.822782670E-01
   337 -2.315499032E-03
   338  4.271560795E-03
   339 -1.652996403E-03
   340 -4.089137066E-01
   341 -1.120126604E-02
   342 -4.723111834E-03
   343 -2.778632536E-01
   344  2.442190445E-03
   345  3.625885310E-03
   346 -2.700426794E-03
   347 -3.519640074E-01
   348 -8.008286466E-03
   349  8.290099570E-02
   350 -4.200206178E-01
   351  4.327124705E-03
   352  9.269099547E-03
   353 -6.172096450E-03
   354 -3.676208442E+00
   355 -8.088007729E-03
   356  8.110664624E-02
   357 -4.006067243E-01
   358  1.927098711E-03
   359  1.150703673E-02
   360  1.567649078E-03
   361 -3.577680362E+00
   362 -7.919460114E-03
   363  8.391431672E-02
   364 -4.234078807E-01
   365 -3.895859926E-03
   366  1.038358754E-02
   367 -4.380756557E-03
   368 -3.672582243E+00
